Ca4 Ga8 Ni4
1.0
   4.0495804452199264    0.0000000000000000    0.0000000000000002
   0.0000000000000017   10.3967709078680084    0.0000000000000006
   0.0000000000000000    0.0000000000000000    7.0352649229127646
Ca Ga Ni
4 8 4
direct
   0.0000000000000000    0.4444220678625328    0.2500000000000000 Ca
   0.5000000000000000    0.0555779321374672    0.7500000000000000 Ca
   0.5000000000000000    0.9444220678625257    0.2500000000000000 Ca
   0.0000000000000000    0.5555779321374743    0.7500000000000000 Ca
   0.0000000000000000    0.1631178446936516    0.4438303761902560 Ga
   0.5000000000000000    0.3368821553063484    0.5561696238097369 Ga
   0.0000000000000000    0.1631178446936516    0.0561696238097369 Ga
   0.5000000000000000    0.3368821553063484    0.9438303761902631 Ga
   0.5000000000000000    0.6631178446936588    0.4438303761902560 Ga
   0.0000000000000000    0.8368821553063412    0.5561696238097369 Ga
   0.5000000000000000    0.6631178446936588    0.0561696238097369 Ga
   0.0000000000000000    0.8368821553063412    0.9438303761902631 Ga
   0.0000000000000000    0.2809172294130420    0.7500000000000000 Ni
   0.5000000000000000    0.2190827705869580    0.2500000000000000 Ni
   0.5000000000000000    0.7809172294130420    0.7500000000000000 Ni
   0.0000000000000000    0.7190827705869580    0.2500000000000000 Ni

   0.0000000000000000    0.0000000000000000    0.0000000000000000
   0.0000000000000000    0.0000000000000000    0.0000000000000000
   0.0000000000000000    0.0000000000000000    0.0000000000000000
   0.0000000000000000    0.0000000000000000    0.0000000000000000
   0.0000000000000000    0.0000000000000000    0.0000000000000000
   0.0000000000000000    0.0000000000000000    0.0000000000000000
   0.0000000000000000    0.0000000000000000    0.0000000000000000
   0.0000000000000000    0.0000000000000000    0.0000000000000000
   0.0000000000000000    0.0000000000000000    0.0000000000000000
   0.0000000000000000    0.0000000000000000    0.0000000000000000
   0.0000000000000000    0.0000000000000000    0.0000000000000000
   0.0000000000000000    0.0000000000000000    0.0000000000000000
   0.0000000000000000    0.0000000000000000    0.0000000000000000
   0.0000000000000000    0.0000000000000000    0.0000000000000000
   0.0000000000000000    0.0000000000000000    0.0000000000000000
   0.0000000000000000    0.0000000000000000    0.0000000000000000
