Y4 Ga8 Ni4
1.0
   4.1070093996536707    0.0000000000000000    0.0000000000000002
   0.0000000000000016   10.1956691112592175    0.0000000000000006
   0.0000000000000000    0.0000000000000000    6.6954724269550621
Y Ga Ni
4 8 4
direct
   0.0000000000000000    0.0690969587494976    0.7500000000000000 Y
   0.5000000000000000    0.4309030412505095    0.2500000000000000 Y
   0.5000000000000000    0.5690969587494905    0.7500000000000000 Y
   0.0000000000000000    0.9309030412505095    0.2500000000000000 Y
   0.0000000000000000    0.3528730392658588    0.9461987950169402 Ga
   0.0000000000000000    0.3528730392658588    0.5538012049830598 Ga
   0.5000000000000000    0.1471269607341412    0.0538012049830527 Ga
   0.5000000000000000    0.1471269607341412    0.4461987950169473 Ga
   0.5000000000000000    0.8528730392658588    0.9461987950169402 Ga
   0.5000000000000000    0.8528730392658588    0.5538012049830598 Ga
   0.0000000000000000    0.6471269607341412    0.0538012049830527 Ga
   0.0000000000000000    0.6471269607341412    0.4461987950169473 Ga
   0.5000000000000000    0.2880838383626099    0.7500000000000000 Ni
   0.0000000000000000    0.2119161616373901    0.2500000000000000 Ni
   0.0000000000000000    0.7880838383626099    0.7500000000000000 Ni
   0.5000000000000000    0.7119161616373901    0.2500000000000000 Ni

   0.0000000000000000    0.0000000000000000    0.0000000000000000
   0.0000000000000000    0.0000000000000000    0.0000000000000000
   0.0000000000000000    0.0000000000000000    0.0000000000000000
   0.0000000000000000    0.0000000000000000    0.0000000000000000
   0.0000000000000000    0.0000000000000000    0.0000000000000000
   0.0000000000000000    0.0000000000000000    0.0000000000000000
   0.0000000000000000    0.0000000000000000    0.0000000000000000
   0.0000000000000000    0.0000000000000000    0.0000000000000000
   0.0000000000000000    0.0000000000000000    0.0000000000000000
   0.0000000000000000    0.0000000000000000    0.0000000000000000
   0.0000000000000000    0.0000000000000000    0.0000000000000000
   0.0000000000000000    0.0000000000000000    0.0000000000000000
   0.0000000000000000    0.0000000000000000    0.0000000000000000
   0.0000000000000000    0.0000000000000000    0.0000000000000000
   0.0000000000000000    0.0000000000000000    0.0000000000000000
   0.0000000000000000    0.0000000000000000    0.0000000000000000
