Te2 Pd1
1.0
   2.0506921251466892   -3.5519029514354612    0.0000000000000000
   2.0506921251466892    3.5519029514354621    0.0000000000000000
   0.0000000000000000    0.0000000000000000    5.2090827275762619
Te Pd
2 1
direct
   0.3333333333333357    0.6666666666666643    0.2617348489099456 Te
   0.6666666666666643    0.3333333333333357    0.7382651510900544 Te
   0.0000000000000000    0.0000000000000000    0.0000000000000000 Pd

   0.0000000000000000    0.0000000000000000    0.0000000000000000
   0.0000000000000000    0.0000000000000000    0.0000000000000000
   0.0000000000000000    0.0000000000000000    0.0000000000000000
