Ca8 Ga4 Pd8
1.0
   0.0000000000000000    9.9822761689311577    0.0117293831900030
   5.7428920163657402    0.0000000000000000    0.0000000000000000
   0.0000000000000000   -1.7648989476992640   -7.6589171876377957
Ca Ga Pd
8 4 8
direct
   0.6499658837974422    0.8652971774945257    0.6497202735463929 Ca
   0.8500341162025578    0.3652971774945257    0.8502797264536071 Ca
   0.8500341162025578    0.6347028225054743    0.3502797264536071 Ca
   0.6499658837974422    0.1347028225054743    0.1497202735463929 Ca
   0.1499658837974422    0.3652971774945257    0.6497202735463929 Ca
   0.3500341162025578    0.8652971774945257    0.8502797264536071 Ca
   0.3500341162025578    0.1347028225054743    0.3502797264536071 Ca
   0.1499658837974422    0.6347028225054743    0.1497202735463929 Ca
   0.0000000000000000    0.8657576798105993    0.7500000000000000 Ga
   0.0000000000000000    0.1342423201894007    0.2500000000000000 Ga
   0.5000000000000000    0.3657576798105993    0.7500000000000000 Ga
   0.5000000000000000    0.6342423201894007    0.2500000000000000 Ga
   0.8717154549394763    0.8675891235767850    0.9975891583877896 Pd
   0.6282845450605237    0.3675891235767850    0.5024108416122104 Pd
   0.6282845450605237    0.6324108764232150    0.0024108416122104 Pd
   0.8717154549394763    0.1324108764232150    0.4975891583877896 Pd
   0.3717154549394763    0.3675891235767850    0.9975891583877896 Pd
   0.1282845450605237    0.8675891235767850    0.5024108416122104 Pd
   0.1282845450605237    0.1324108764232150    0.0024108416122104 Pd
   0.3717154549394763    0.6324108764232150    0.4975891583877896 Pd

   0.0000000000000000    0.0000000000000000    0.0000000000000000
   0.0000000000000000    0.0000000000000000    0.0000000000000000
   0.0000000000000000    0.0000000000000000    0.0000000000000000
   0.0000000000000000    0.0000000000000000    0.0000000000000000
   0.0000000000000000    0.0000000000000000    0.0000000000000000
   0.0000000000000000    0.0000000000000000    0.0000000000000000
   0.0000000000000000    0.0000000000000000    0.0000000000000000
   0.0000000000000000    0.0000000000000000    0.0000000000000000
   0.0000000000000000    0.0000000000000000    0.0000000000000000
   0.0000000000000000    0.0000000000000000    0.0000000000000000
   0.0000000000000000    0.0000000000000000    0.0000000000000000
   0.0000000000000000    0.0000000000000000    0.0000000000000000
   0.0000000000000000    0.0000000000000000    0.0000000000000000
   0.0000000000000000    0.0000000000000000    0.0000000000000000
   0.0000000000000000    0.0000000000000000    0.0000000000000000
   0.0000000000000000    0.0000000000000000    0.0000000000000000
   0.0000000000000000    0.0000000000000000    0.0000000000000000
   0.0000000000000000    0.0000000000000000    0.0000000000000000
   0.0000000000000000    0.0000000000000000    0.0000000000000000
   0.0000000000000000    0.0000000000000000    0.0000000000000000
