Ta4 Pt8
1.0
   4.8453436034023651    0.0000000000000000    0.0000000000000003
   0.0000000000000014    8.4841846144842776    0.0000000000000005
   0.0000000000000000    0.0000000000000000    4.7932701525975787
Ta Pt
4 8
direct
   0.2300135265242176    0.0000000000000000    0.2500000000000000 Ta
   0.7699864734757824    0.0000000000000000    0.7500000000000000 Ta
   0.7300135265242176    0.5000000000000000    0.2500000000000000 Ta
   0.2699864734757824    0.5000000000000000    0.7500000000000000 Ta
   0.7819793315443988    0.3379258720867711    0.7500000000000000 Pt
   0.7180206684556012    0.1620741279132289    0.2500000000000000 Pt
   0.2180206684556012    0.3379258720867711    0.2500000000000000 Pt
   0.2819793315443988    0.1620741279132289    0.7500000000000000 Pt
   0.2819793315443988    0.8379258720867711    0.7500000000000000 Pt
   0.2180206684556012    0.6620741279132289    0.2500000000000000 Pt
   0.7180206684556012    0.8379258720867711    0.2500000000000000 Pt
   0.7819793315443988    0.6620741279132289    0.7500000000000000 Pt

   0.0000000000000000    0.0000000000000000    0.0000000000000000
   0.0000000000000000    0.0000000000000000    0.0000000000000000
   0.0000000000000000    0.0000000000000000    0.0000000000000000
   0.0000000000000000    0.0000000000000000    0.0000000000000000
   0.0000000000000000    0.0000000000000000    0.0000000000000000
   0.0000000000000000    0.0000000000000000    0.0000000000000000
   0.0000000000000000    0.0000000000000000    0.0000000000000000
   0.0000000000000000    0.0000000000000000    0.0000000000000000
   0.0000000000000000    0.0000000000000000    0.0000000000000000
   0.0000000000000000    0.0000000000000000    0.0000000000000000
   0.0000000000000000    0.0000000000000000    0.0000000000000000
   0.0000000000000000    0.0000000000000000    0.0000000000000000
