Mg6 Cd2
1.0
   3.1571749297264673   -5.4683873866689376    0.0000000000000000
   3.1571749297264673    5.4683873866689376    0.0000000000000000
   0.0000000000000000    0.0000000000000000    5.0718783416351192
Mg Cd
6 2
direct
   0.1681995100728244    0.3363990201456559    0.7500000000000000 Mg
   0.8318004899271756    0.1681995100728244    0.2500000000000000 Mg
   0.8318004899271756    0.6636009798543441    0.2500000000000000 Mg
   0.1681995100728244    0.8318004899271756    0.7500000000000000 Mg
   0.6636009798543441    0.8318004899271756    0.7500000000000000 Mg
   0.3363990201456559    0.1681995100728244    0.2500000000000000 Mg
   0.6666666666666643    0.3333333333333357    0.7500000000000000 Cd
   0.3333333333333357    0.6666666666666643    0.2500000000000000 Cd

   0.0000000000000000    0.0000000000000000    0.0000000000000000
   0.0000000000000000    0.0000000000000000    0.0000000000000000
   0.0000000000000000    0.0000000000000000    0.0000000000000000
   0.0000000000000000    0.0000000000000000    0.0000000000000000
   0.0000000000000000    0.0000000000000000    0.0000000000000000
   0.0000000000000000    0.0000000000000000    0.0000000000000000
   0.0000000000000000    0.0000000000000000    0.0000000000000000
   0.0000000000000000    0.0000000000000000    0.0000000000000000
