Ba4 Cd8
1.0
   5.3229793987438221    0.0000000000000000    0.0000000000000003
   0.0000000000000013    8.4857736165607101    0.0000000000000005
   0.0000000000000000    0.0000000000000000    8.7641829288933586
Ba Cd
4 8
direct
   0.0000000000000000    0.2500000000000000    0.4515530457571089 Ba
   0.0000000000000000    0.7500000000000000    0.5484469542428911 Ba
   0.5000000000000000    0.7500000000000000    0.9515530457571089 Ba
   0.5000000000000000    0.2500000000000000    0.0484469542428982 Ba
   0.5000000000000000    0.0623827154084537    0.6639928085546458 Cd
   0.5000000000000000    0.9376172845915463    0.3360071914453542 Cd
   0.0000000000000000    0.9376172845915463    0.1639928085546458 Cd
   0.0000000000000000    0.0623827154084537    0.8360071914453542 Cd
   0.0000000000000000    0.5623827154084537    0.1639928085546458 Cd
   0.0000000000000000    0.4376172845915463    0.8360071914453542 Cd
   0.5000000000000000    0.4376172845915463    0.6639928085546458 Cd
   0.5000000000000000    0.5623827154084537    0.3360071914453542 Cd

   0.0000000000000000    0.0000000000000000    0.0000000000000000
   0.0000000000000000    0.0000000000000000    0.0000000000000000
   0.0000000000000000    0.0000000000000000    0.0000000000000000
   0.0000000000000000    0.0000000000000000    0.0000000000000000
   0.0000000000000000    0.0000000000000000    0.0000000000000000
   0.0000000000000000    0.0000000000000000    0.0000000000000000
   0.0000000000000000    0.0000000000000000    0.0000000000000000
   0.0000000000000000    0.0000000000000000    0.0000000000000000
   0.0000000000000000    0.0000000000000000    0.0000000000000000
   0.0000000000000000    0.0000000000000000    0.0000000000000000
   0.0000000000000000    0.0000000000000000    0.0000000000000000
   0.0000000000000000    0.0000000000000000    0.0000000000000000
