Tl8 Au4
1.0
   7.4553292845290819    0.0000000000000000    0.0000000000000005
   0.0000000000000012    7.4553292845290819    0.0000000000000005
   0.0000000000000000    0.0000000000000000    5.7490736935856113
Tl Au
8 4
direct
   0.6544915653447561    0.1544915653447561    0.5000000000000000 Tl
   0.6544915653447561    0.8455084346552439    0.0000000000000000 Tl
   0.3455084346552439    0.1544915653447561    0.0000000000000000 Tl
   0.3455084346552439    0.8455084346552439    0.5000000000000000 Tl
   0.1544915653447561    0.6544915653447561    0.0000000000000000 Tl
   0.1544915653447561    0.3455084346552439    0.5000000000000000 Tl
   0.8455084346552439    0.6544915653447561    0.5000000000000000 Tl
   0.8455084346552439    0.3455084346552439    0.0000000000000000 Tl
   0.0000000000000000    0.0000000000000000    0.7500000000000000 Au
   0.0000000000000000    0.0000000000000000    0.2500000000000000 Au
   0.5000000000000000    0.5000000000000000    0.2500000000000000 Au
   0.5000000000000000    0.5000000000000000    0.7500000000000000 Au

   0.0000000000000000    0.0000000000000000    0.0000000000000000
   0.0000000000000000    0.0000000000000000    0.0000000000000000
   0.0000000000000000    0.0000000000000000    0.0000000000000000
   0.0000000000000000    0.0000000000000000    0.0000000000000000
   0.0000000000000000    0.0000000000000000    0.0000000000000000
   0.0000000000000000    0.0000000000000000    0.0000000000000000
   0.0000000000000000    0.0000000000000000    0.0000000000000000
   0.0000000000000000    0.0000000000000000    0.0000000000000000
   0.0000000000000000    0.0000000000000000    0.0000000000000000
   0.0000000000000000    0.0000000000000000    0.0000000000000000
   0.0000000000000000    0.0000000000000000    0.0000000000000000
   0.0000000000000000    0.0000000000000000    0.0000000000000000
