Y2 Ag2 Sn2
1.0
   2.3694480979566590   -4.1040044915583893   -0.0000000000000000
   2.3694480979566590    4.1040044915583893    0.0000000000000000
  -0.0000000000000000    0.0000000000000000    7.4223168390736927
Y Ag Sn
2 2 2
direct
   0.0000000000000000   -0.0000000000000000    0.9987875854350410 Y
   0.0000000000000000   -0.0000000000000000    0.4987875854350410 Y
   0.6666666666666643    0.3333333333333357    0.3116149039058942 Ag
   0.3333333333333357    0.6666666666666643    0.8116149039058943 Ag
   0.6666666666666643    0.3333333333333357    0.7185985106590657 Sn
   0.3333333333333357    0.6666666666666643    0.2185985106590657 Sn

   0.0000000000000000    0.0000000000000000    0.0000000000000000
   0.0000000000000000    0.0000000000000000    0.0000000000000000
   0.0000000000000000    0.0000000000000000    0.0000000000000000
   0.0000000000000000    0.0000000000000000    0.0000000000000000
   0.0000000000000000    0.0000000000000000    0.0000000000000000
   0.0000000000000000    0.0000000000000000    0.0000000000000000
