Li9
1.0
   1.5403182599360494   -2.6679094860353194    0.0000000000000000
   1.5403182599360494    2.6679094860353194    0.0000000000000000
   0.0000000000000000    0.0000000000000000   22.6525162828364657
Li
9
direct
   0.6666666666666643    0.3333333333333357    0.1105268186807180 Li
   0.0000000000000000    0.0000000000000000    0.2228065146526106 Li
   0.0000000000000000    0.0000000000000000    0.0000000000000000 Li
   0.3333333333333357    0.6666666666666643    0.4438601520140537 Li
   0.6666666666666643    0.3333333333333357    0.5561398479859463 Li
   0.6666666666666643    0.3333333333333357    0.3333333333333357 Li
   0.0000000000000000    0.0000000000000000    0.7771934853473894 Li
   0.3333333333333357    0.6666666666666643    0.8894731813192820 Li
   0.3333333333333357    0.6666666666666643    0.6666666666666643 Li

   0.0000000000000000    0.0000000000000000    0.0000000000000000
   0.0000000000000000    0.0000000000000000    0.0000000000000000
   0.0000000000000000    0.0000000000000000    0.0000000000000000
   0.0000000000000000    0.0000000000000000    0.0000000000000000
   0.0000000000000000    0.0000000000000000    0.0000000000000000
   0.0000000000000000    0.0000000000000000    0.0000000000000000
   0.0000000000000000    0.0000000000000000    0.0000000000000000
   0.0000000000000000    0.0000000000000000    0.0000000000000000
   0.0000000000000000    0.0000000000000000    0.0000000000000000
