Y1 Ga3
1.0
   4.2865569139910455    0.0000000000000000    0.0000000000000003
   0.0000000000000007    4.2865569139910455    0.0000000000000003
   0.0000000000000000    0.0000000000000000    4.2865569139910455
Y Ga
1 3
direct
   0.0000000000000000    0.0000000000000000    0.0000000000000000 Y
   0.0000000000000000    0.5000000000000000    0.5000000000000000 Ga
   0.5000000000000000    0.0000000000000000    0.5000000000000000 Ga
   0.5000000000000000    0.5000000000000000    0.0000000000000000 Ga

   0.0000000000000000    0.0000000000000000    0.0000000000000000
   0.0000000000000000    0.0000000000000000    0.0000000000000000
   0.0000000000000000    0.0000000000000000    0.0000000000000000
   0.0000000000000000    0.0000000000000000    0.0000000000000000
