Ag3 Pt3
1.0
   1.4039741837805466   -2.4317546188229513    0.0000000000000000
   1.4039741837805464    2.4317546188229513    0.0000000000000000
   0.0000000000000000    0.0000000000000000   14.3951250714766648
Ag Pt
3 3
direct
   0.0000000000000000    0.0000000000000000    0.0000000000000000 Ag
   0.6666666666666643    0.3333333333333357    0.3333333333333357 Ag
   0.3333333333333357    0.6666666666666643    0.6666666666666643 Ag
   0.6666666666666643    0.3333333333333357    0.8333333333333357 Pt
   0.3333333333333357    0.6666666666666643    0.1666666666666643 Pt
   0.0000000000000000    0.0000000000000000    0.5000000000000000 Pt

   0.0000000000000000    0.0000000000000000    0.0000000000000000
   0.0000000000000000    0.0000000000000000    0.0000000000000000
   0.0000000000000000    0.0000000000000000    0.0000000000000000
   0.0000000000000000    0.0000000000000000    0.0000000000000000
   0.0000000000000000    0.0000000000000000    0.0000000000000000
   0.0000000000000000    0.0000000000000000    0.0000000000000000
