Zr4 Ag2
1.0
   3.2622087590835664    0.0000000000000000    0.0000000000000002
   0.0000000000000005    3.2622087590835664    0.0000000000000003
   0.0000000000000000   -0.0000000000000004   12.1136831969137191
Zr Ag
4 2
direct
   0.5000000000000000    0.5000000000000000    0.1636492317124265 Zr
   0.0000000000000000    0.0000000000000000    0.3363507682875664 Zr
   0.0000000000000000    0.0000000000000000    0.6636492317124407 Zr
   0.5000000000000000    0.5000000000000000    0.8363507682875593 Zr
   0.0000000000000000    0.0000000000000000    0.0000000000000000 Ag
   0.5000000000000000    0.5000000000000000    0.5000000000000000 Ag

   0.0000000000000000    0.0000000000000000    0.0000000000000000
   0.0000000000000000    0.0000000000000000    0.0000000000000000
   0.0000000000000000    0.0000000000000000    0.0000000000000000
   0.0000000000000000    0.0000000000000000    0.0000000000000000
   0.0000000000000000    0.0000000000000000    0.0000000000000000
   0.0000000000000000    0.0000000000000000    0.0000000000000000
