Li4 Cd12
1.0
   6.9003373984240577    0.0000000000000000    0.0000000000000004
   0.0000000000000011    6.9003373984240577    0.0000000000000004
   0.0000000000000000    0.0000000000000000    6.9003373984240577
Li Cd
4 12
direct
   0.0000000000000000    0.0000000000000000    0.0000000000000000 Li
   0.0000000000000000    0.5000000000000000    0.5000000000000000 Li
   0.5000000000000000    0.0000000000000000    0.5000000000000000 Li
   0.5000000000000000    0.5000000000000000    0.0000000000000000 Li
   0.7500000000000000    0.7500000000000000    0.2500000000000000 Cd
   0.2500000000000000    0.7500000000000000    0.2500000000000000 Cd
   0.0000000000000000    0.5000000000000000    0.0000000000000000 Cd
   0.7500000000000000    0.2500000000000000    0.7500000000000000 Cd
   0.2500000000000000    0.2500000000000000    0.7500000000000000 Cd
   0.0000000000000000    0.0000000000000000    0.5000000000000000 Cd
   0.2500000000000000    0.7500000000000000    0.7500000000000000 Cd
   0.7500000000000000    0.7500000000000000    0.7500000000000000 Cd
   0.5000000000000000    0.5000000000000000    0.5000000000000000 Cd
   0.2500000000000000    0.2500000000000000    0.2500000000000000 Cd
   0.7500000000000000    0.2500000000000000    0.2500000000000000 Cd
   0.5000000000000000    0.0000000000000000    0.0000000000000000 Cd

   0.0000000000000000    0.0000000000000000    0.0000000000000000
   0.0000000000000000    0.0000000000000000    0.0000000000000000
   0.0000000000000000    0.0000000000000000    0.0000000000000000
   0.0000000000000000    0.0000000000000000    0.0000000000000000
   0.0000000000000000    0.0000000000000000    0.0000000000000000
   0.0000000000000000    0.0000000000000000    0.0000000000000000
   0.0000000000000000    0.0000000000000000    0.0000000000000000
   0.0000000000000000    0.0000000000000000    0.0000000000000000
   0.0000000000000000    0.0000000000000000    0.0000000000000000
   0.0000000000000000    0.0000000000000000    0.0000000000000000
   0.0000000000000000    0.0000000000000000    0.0000000000000000
   0.0000000000000000    0.0000000000000000    0.0000000000000000
   0.0000000000000000    0.0000000000000000    0.0000000000000000
   0.0000000000000000    0.0000000000000000    0.0000000000000000
   0.0000000000000000    0.0000000000000000    0.0000000000000000
   0.0000000000000000    0.0000000000000000    0.0000000000000000
