Al1 Co1
1.0
   2.8523915189362405    0.0000000000000000    0.0000000000000002
   0.0000000000000005    2.8523915189362405    0.0000000000000002
   0.0000000000000000    0.0000000000000000    2.8523915189362405
Al Co
1 1
direct
   0.0000000000000000    0.0000000000000000    0.0000000000000000 Al
   0.5000000000000000    0.5000000000000000    0.5000000000000000 Co

   0.0000000000000000    0.0000000000000000    0.0000000000000000
   0.0000000000000000    0.0000000000000000    0.0000000000000000
