Bi2 Rh2
1.0
   2.0670843987059642   -3.5802952020916923    0.0000000000000000
   2.0670843987059642    3.5802952020916923    0.0000000000000000
   0.0000000000000000    0.0000000000000000    5.6869545600000002
Bi Rh
2 2
direct
   0.3333333333333333    0.6666666666666666    0.2500000000000000 Bi
   0.6666666666666667    0.3333333333333334    0.7500000000000000 Bi
   0.0000000000000000    0.0000000000000000    0.5000000000000000 Rh
   0.0000000000000000    0.0000000000000000    0.0000000000000000 Rh
