Sc2 Te2
1.0
   2.0816771809505603   -3.6055706423631215    0.0000000000000000
   2.0816771809505603    3.6055706423631215    0.0000000000000000
   0.0000000000000000    0.0000000000000000    6.8828796700000003
Sc Te
2 2
direct
   0.0000000000000000    0.0000000000000000    0.0000000000000000 Sc
   0.0000000000000000    0.0000000000000000    0.5000000000000000 Sc
   0.3333333333333333    0.6666666666666666    0.2500000000000000 Te
   0.6666666666666667    0.3333333333333334    0.7500000000000000 Te
