Ni2 Sb4
1.0
   3.8137743600000000    0.0000000000000000    0.0000000000000002
   0.0000000000000008    5.2707780800000004    0.0000000000000003
   0.0000000000000000    0.0000000000000000    6.2996610899999999
Ni Sb
2 4
direct
   0.0000000000000000    0.0000000000000000    0.0000000000000000 Ni
   0.5000000000000000    0.5000000000000000    0.5000000000000000 Ni
   0.0000000000000000    0.2163002100000000    0.3599164300000001 Sb
   0.0000000000000000    0.7836997900000000    0.6400835699999998 Sb
   0.5000000000000000    0.7163002100000000    0.1400835699999999 Sb
   0.5000000000000000    0.2836997900000000    0.8599164300000002 Sb
