Cr12 Rh24 Se48
1.0
  11.0084441452666901    0.0000000000000000   -6.3159483045738973
  -0.0000000000000005    7.4399217924870280    6.5809161076362219
   0.0000000000000000    0.0000000000000000   46.0664127534535552
Cr Rh Se Cr Rh Se Cr Rh Se
4 8 16 4 8 16 4 8 16
Selective dynamics
direct
   0.0000000000000000    0.0000000000000000    0.4260204081632653 F F F Cr
   0.0000000000000000    0.5000000000000000    0.3545918367346939 T T T Cr
   0.5000000000000000    0.2500000000000000    0.3903061224489796 F F F Cr
   0.5000000000000002    0.7500000000000000    0.3188775510204081 T T T Cr
   0.7590735328376795    0.2500000000000000    0.2866577483006043 T T T Rh
   0.7590735328376795    0.7500000000000000    0.3580863197291757 T T T Rh
   0.7409264671623205    0.0000000000000000    0.3868116394544977 F F F Rh
   0.7409264671623205    0.5000000000000000    0.3153830680259262 T T T Rh
   0.2590735328376796    0.0000000000000000    0.3223720340148900 T T T Rh
   0.2590735328376796    0.5000000000000000    0.3938006054434614 F F F Rh
   0.2409264671623205    0.2500000000000000    0.3510973537402119 T T T Rh
   0.2409264671623206    0.7500000000000000    0.4225259251687834 F F F Rh
   0.8678013192591800    0.2500000000000000    0.3946313710376870 F F F Se
   0.8678013192591801    0.7500000000000000    0.3232027996091155 T T T Se
   0.6321986807408200    0.0000000000000000    0.4216951595745578 F F F Se
   0.6321986807408200    0.5000000000000000    0.3502665881459864 T T T Se
   0.6281592864674713    0.2500000000000000    0.3128150384692991 T T T Se
   0.6281592864674714    0.7500000000000000    0.3842436098978705 F F F Se
   0.8718407135325287    0.0000000000000000    0.3606543492858029 T T T Se
   0.8718407135325287    0.5000000000000000    0.2892257778572314 T T T Se
   0.3678013192591800    0.0000000000000000    0.2874885138948298 T T T Se
   0.3678013192591801    0.5000000000000000    0.3589170853234013 T T T Se
   0.1321986807408200    0.2500000000000000    0.3859808738602721 F F F Se
   0.1321986807408202    0.7500000000000000    0.3145523024317007 T T T Se
   0.1281592864674713    0.0000000000000000    0.3485293241835848 T T T Se
   0.1281592864674712    0.5000000000000000    0.4199578956121562 F F F Se
   0.3718407135325288    0.2500000000000000    0.3249400635715171 T T T Se
   0.3718407135325289    0.7500000000000000    0.3963686350000886 F F F Se
   0.0000000000000000    0.0000000000000000    0.5688775510204082 F F F Cr
   0.0000000000000000    0.5000000000000000    0.4974489795918366 F F F Cr
   0.5000000000000000    0.2500000000000000    0.5331632653061225 F F F Cr
   0.5000000000000002    0.7500000000000000    0.4617346938775510 F F F Cr
   0.7590735328376795    0.2500000000000000    0.4295148911577471 F F F Rh
   0.7590735328376795    0.7500000000000000    0.5009434625863185 F F F Rh
   0.7409264671623205    0.0000000000000000    0.5296687823116405 F F F Rh
   0.7409264671623205    0.5000000000000000    0.4582402108830691 F F F Rh
   0.2590735328376796    0.0000000000000000    0.4652291768720329 F F F Rh
   0.2590735328376796    0.5000000000000000    0.5366577483006043 F F F Rh
   0.2409264671623205    0.2500000000000000    0.4939544965973548 F F F Rh
   0.2409264671623206    0.7500000000000000    0.5653830680259262 F F F Rh
   0.8678013192591800    0.2500000000000000    0.5374885138948298 F F F Se
   0.8678013192591801    0.7500000000000000    0.4660599424662584 F F F Se
   0.6321986807408200    0.0000000000000000    0.5645523024317007 F F F Se
   0.6321986807408200    0.5000000000000000    0.4931237310031292 F F F Se
   0.6281592864674713    0.2500000000000000    0.4556721813264419 F F F Se
   0.6281592864674714    0.7500000000000000    0.5271007527550133 F F F Se
   0.8718407135325287    0.0000000000000000    0.5035114921429457 F F F Se
   0.8718407135325287    0.5000000000000000    0.4320829207143743 F F F Se
   0.3678013192591800    0.0000000000000000    0.4303456567519727 F F F Se
   0.3678013192591801    0.5000000000000000    0.5017742281805442 F F F Se
   0.1321986807408200    0.2500000000000000    0.5288380167174149 F F F Se
   0.1321986807408202    0.7500000000000000    0.4574094452888435 F F F Se
   0.1281592864674713    0.0000000000000000    0.4913864670407277 F F F Se
   0.1281592864674712    0.5000000000000000    0.5628150384692991 F F F Se
   0.3718407135325288    0.2500000000000000    0.4677972064286600 F F F Se
   0.3718407135325289    0.7500000000000000    0.5392257778572314 F F F Se
   0.0000000000000000    0.0000000000000000    0.7117346938775510 T T T Cr
   0.0000000000000000    0.5000000000000000    0.6403061224489796 T T T Cr
   0.5000000000000000    0.2500000000000000    0.6760204081632653 T T T Cr
   0.5000000000000002    0.7500000000000000    0.6045918367346939 F F F Cr
   0.7590735328376795    0.2500000000000000    0.5723720340148900 F F F Rh
   0.7590735328376795    0.7500000000000000    0.6438006054434614 T T T Rh
   0.7409264671623205    0.0000000000000000    0.6725259251687834 T T T Rh
   0.7409264671623205    0.5000000000000000    0.6010973537402120 F F F Rh
   0.2590735328376796    0.0000000000000000    0.6080863197291757 F F F Rh
   0.2590735328376796    0.5000000000000000    0.6795148911577471 T T T Rh
   0.2409264671623205    0.2500000000000000    0.6368116394544976 T T T Rh
   0.2409264671623206    0.7500000000000000    0.7082402108830691 T T T Rh
   0.8678013192591800    0.2500000000000000    0.6803456567519727 T T T Se
   0.8678013192591801    0.7500000000000000    0.6089170853234012 F F F Se
   0.6321986807408200    0.0000000000000000    0.7074094452888435 T T T Se
   0.6321986807408200    0.5000000000000000    0.6359808738602721 T T T Se
   0.6281592864674713    0.2500000000000000    0.5985293241835848 F F F Se
   0.6281592864674714    0.7500000000000000    0.6699578956121562 T T T Se
   0.8718407135325287    0.0000000000000000    0.6463686350000886 T T T Se
   0.8718407135325287    0.5000000000000000    0.5749400635715172 F F F Se
   0.3678013192591800    0.0000000000000000    0.5732027996091156 F F F Se
   0.3678013192591801    0.5000000000000000    0.6446313710376870 T T T Se
   0.1321986807408200    0.2500000000000000    0.6716951595745578 T T T Se
   0.1321986807408202    0.7500000000000000    0.6002665881459863 F F F Se
   0.1281592864674713    0.0000000000000000    0.6342436098978705 T T T Se
   0.1281592864674712    0.5000000000000000    0.7056721813264419 T T T Se
   0.3718407135325288    0.2500000000000000    0.6106543492858028 F F F Se
   0.3718407135325289    0.7500000000000000    0.6820829207143743 T T T Se
