In24 Ni36 Se24
1.0
   4.7425066431974550    0.0000000000000000   -8.2142624612509270
  -0.0000000000000041   14.3173395703339921   -5.4761749741672832
   0.0000000000000000    0.0000000000000000   54.7617497416728369
In Ni Se In Ni Se In Ni Se In Ni Se
6 9 6 6 9 6 6 9 6 6 9 6
Selective dynamics
direct
   0.0000000000000000    0.0000000000000000    0.3880952380952381 T T T In
   0.6666666666666665    0.1666666666666667    0.3047619047619048 T T T In
   0.3333333333333334    0.3333333333333333    0.3214285714285715 T T T In
   0.9999999999999998    0.5000000000000000    0.3380952380952381 T T T In
   0.6666666666666666    0.6666666666666666    0.3547619047619048 T T T In
   0.3333333333333330    0.8333333333333331    0.3714285714285714 T T T In
   0.6666666666666666    0.1666666666666667    0.3547619047619048 T T T Ni
   0.1666666666666669    0.1666666666666667    0.3047619047619048 T T T Ni
   0.1666666666666666    0.1666666666666667    0.3547619047619048 T T T Ni
   0.0000000000000000    0.5000000000000000    0.3880952380952381 T T T Ni
   0.5000000000000000    0.5000000000000000    0.3380952380952381 T T T Ni
   0.5000000000000000    0.5000000000000000    0.3880952380952381 T T T Ni
   0.3333333333333332    0.8333333333333331    0.3214285714285714 T T T Ni
   0.8333333333333334    0.8333333333333331    0.3714285714285714 T T T Ni
   0.8333333333333331    0.8333333333333331    0.3214285714285714 T T T Ni
   0.0000000000000000    0.2828703569008679    0.3163822737853249 T T T Se
   0.3333333333333334    0.0504629764324654    0.3931415357384846 T T T Se
   0.3333333333333334    0.6162036902342012    0.3497156071186582 T T T Se
   0.6666666666666666    0.3837963097657987    0.3264748690718180 T T T Se
   0.6666666666666666    0.9495370235675346    0.3830489404519916 T T T Se
   0.0000000000000000    0.7171296430991321    0.3598082024051513 T T T Se
   0.0000000000000000    0.0000000000000000    0.4880952380952381 F F F In
   0.6666666666666665    0.1666666666666667    0.4047619047619048 T T T In
   0.3333333333333334    0.3333333333333333    0.4214285714285714 F F F In
   0.9999999999999998    0.5000000000000000    0.4380952380952381 F F F In
   0.6666666666666666    0.6666666666666666    0.4547619047619048 F F F In
   0.3333333333333330    0.8333333333333331    0.4714285714285714 F F F In
   0.6666666666666666    0.1666666666666667    0.4547619047619048 F F F Ni
   0.1666666666666669    0.1666666666666667    0.4047619047619048 T T T Ni
   0.1666666666666666    0.1666666666666667    0.4547619047619048 F F F Ni
   0.0000000000000000    0.5000000000000000    0.4880952380952381 F F F Ni
   0.5000000000000000    0.5000000000000000    0.4380952380952381 F F F Ni
   0.5000000000000000    0.5000000000000000    0.4880952380952381 F F F Ni
   0.3333333333333332    0.8333333333333331    0.4214285714285714 F F F Ni
   0.8333333333333334    0.8333333333333331    0.4714285714285715 F F F Ni
   0.8333333333333331    0.8333333333333331    0.4214285714285714 F F F Ni
   0.0000000000000000    0.2828703569008679    0.4163822737853249 F F F Se
   0.3333333333333334    0.0504629764324654    0.4931415357384846 F F F Se
   0.3333333333333334    0.6162036902342012    0.4497156071186582 F F F Se
   0.6666666666666666    0.3837963097657987    0.4264748690718180 F F F Se
   0.6666666666666666    0.9495370235675346    0.4830489404519915 F F F Se
   0.0000000000000000    0.7171296430991321    0.4598082024051513 F F F Se
   0.0000000000000000    0.0000000000000000    0.5880952380952381 T T T In
   0.6666666666666665    0.1666666666666667    0.5047619047619047 F F F In
   0.3333333333333334    0.3333333333333333    0.5214285714285715 F F F In
   0.9999999999999998    0.5000000000000000    0.5380952380952381 F F F In
   0.6666666666666666    0.6666666666666666    0.5547619047619048 F F F In
   0.3333333333333330    0.8333333333333331    0.5714285714285714 F F F In
   0.6666666666666666    0.1666666666666667    0.5547619047619048 F F F Ni
   0.1666666666666669    0.1666666666666667    0.5047619047619049 F F F Ni
   0.1666666666666666    0.1666666666666667    0.5547619047619048 F F F Ni
   0.0000000000000000    0.5000000000000000    0.5880952380952381 T T T Ni
   0.5000000000000000    0.5000000000000000    0.5380952380952382 F F F Ni
   0.5000000000000000    0.5000000000000000    0.5880952380952381 T T T Ni
   0.3333333333333332    0.8333333333333331    0.5214285714285714 F F F Ni
   0.8333333333333334    0.8333333333333331    0.5714285714285714 F F F Ni
   0.8333333333333331    0.8333333333333331    0.5214285714285715 F F F Ni
   0.0000000000000000    0.2828703569008679    0.5163822737853250 F F F Se
   0.3333333333333334    0.0504629764324654    0.5931415357384846 T T T Se
   0.3333333333333334    0.6162036902342012    0.5497156071186582 F F F Se
   0.6666666666666666    0.3837963097657987    0.5264748690718180 F F F Se
   0.6666666666666666    0.9495370235675346    0.5830489404519916 T T T Se
   0.0000000000000000    0.7171296430991321    0.5598082024051514 F F F Se
   0.0000000000000000    0.0000000000000000    0.6880952380952381 T T T In
   0.6666666666666665    0.1666666666666667    0.6047619047619048 T T T In
   0.3333333333333334    0.3333333333333333    0.6214285714285714 T T T In
   0.9999999999999998    0.5000000000000000    0.6380952380952380 T T T In
   0.6666666666666666    0.6666666666666666    0.6547619047619048 T T T In
   0.3333333333333330    0.8333333333333331    0.6714285714285714 T T T In
   0.6666666666666666    0.1666666666666667    0.6547619047619048 T T T Ni
   0.1666666666666669    0.1666666666666667    0.6047619047619048 T T T Ni
   0.1666666666666666    0.1666666666666667    0.6547619047619048 T T T Ni
   0.0000000000000000    0.5000000000000000    0.6880952380952381 T T T Ni
   0.5000000000000000    0.5000000000000000    0.6380952380952380 T T T Ni
   0.5000000000000000    0.5000000000000000    0.6880952380952381 T T T Ni
   0.3333333333333332    0.8333333333333331    0.6214285714285714 T T T Ni
   0.8333333333333334    0.8333333333333331    0.6714285714285715 T T T Ni
   0.8333333333333331    0.8333333333333331    0.6214285714285714 T T T Ni
   0.0000000000000000    0.2828703569008679    0.6163822737853248 T T T Se
   0.3333333333333334    0.0504629764324654    0.6931415357384847 T T T Se
   0.3333333333333334    0.6162036902342012    0.6497156071186583 T T T Se
   0.6666666666666666    0.3837963097657987    0.6264748690718180 T T T Se
   0.6666666666666666    0.9495370235675346    0.6830489404519915 T T T Se
   0.0000000000000000    0.7171296430991321    0.6598082024051513 T T T Se
