In36 Ni54 Se36
1.0
   9.4850132863949188    0.0000000000000000  -10.9523499483345681
  -0.0000000000000009   14.3173395703339921   -5.4761749741672832
   0.0000000000000000    0.0000000000000000   43.8093997933382653
In Ni Se In Ni Se In Ni Se
12 18 12 12 18 12 12 18 12
Selective dynamics
direct
   0.0000000000000000    0.0000000000000000    0.4300595238095238 F F F In
   0.5000000000000000    0.0000000000000000    0.3675595238095238 T T T In
   0.3333333333333333    0.1666666666666667    0.4092261904761905 T T T In
   0.8333333333333333    0.1666666666666667    0.3467261904761905 T T T In
   0.1666666666666667    0.3333333333333333    0.3258928571428571 T T T In
   0.6666666666666667    0.3333333333333333    0.3883928571428571 T T T In
   0.4999999999999999    0.5000000000000000    0.4300595238095237 F F F In
   0.0000000000000000    0.5000000000000000    0.3675595238095237 T T T In
   0.3333333333333333    0.6666666666666666    0.3467261904761905 T T T In
   0.8333333333333334    0.6666666666666666    0.4092261904761904 T T T In
   0.1666666666666665    0.8333333333333331    0.3883928571428570 T T T In
   0.6666666666666665    0.8333333333333331    0.3258928571428570 T T T In
   0.3333333333333333    0.1666666666666667    0.3467261904761905 T T T Ni
   0.8333333333333333    0.1666666666666667    0.4092261904761904 T T T Ni
   0.0833333333333334    0.1666666666666667    0.3154761904761905 T T T Ni
   0.5833333333333334    0.1666666666666667    0.3779761904761905 T T T Ni
   0.0833333333333333    0.1666666666666667    0.3779761904761905 T T T Ni
   0.5833333333333333    0.1666666666666667    0.3154761904761904 T T T Ni
   0.0000000000000000    0.5000000000000000    0.4300595238095238 F F F Ni
   0.5000000000000000    0.5000000000000000    0.3675595238095237 T T T Ni
   0.2500000000000000    0.5000000000000000    0.3363095238095238 T T T Ni
   0.7500000000000000    0.5000000000000000    0.3988095238095238 T T T Ni
   0.2500000000000000    0.5000000000000000    0.3988095238095238 T T T Ni
   0.7500000000000000    0.5000000000000000    0.3363095238095237 T T T Ni
   0.1666666666666666    0.8333333333333331    0.3258928571428571 T T T Ni
   0.6666666666666667    0.8333333333333331    0.3883928571428570 T T T Ni
   0.4166666666666667    0.8333333333333331    0.3571428571428571 T T T Ni
   0.9166666666666667    0.8333333333333331    0.4196428571428571 T T T Ni
   0.4166666666666666    0.8333333333333331    0.4196428571428571 T T T Ni
   0.9166666666666665    0.8333333333333331    0.3571428571428570 T T T Ni
   0.0000000000000000    0.2828703569008679    0.3404183184221323 T T T Se
   0.5000000000000000    0.2828703569008679    0.4029183184221323 T T T Se
   0.1666666666666667    0.0504629764324654    0.4155340625302486 T T T Se
   0.6666666666666667    0.0504629764324654    0.3530340625302486 T T T Se
   0.1666666666666667    0.6162036902342012    0.3612516517554656 T T T Se
   0.6666666666666667    0.6162036902342012    0.4237516517554656 F F F Se
   0.3333333333333333    0.3837963097657987    0.4363673958635819 F F F Se
   0.8333333333333335    0.3837963097657987    0.3738673958635819 T T T Se
   0.3333333333333333    0.9495370235675346    0.3820849850887990 T T T Se
   0.8333333333333334    0.9495370235675346    0.3195849850887989 T T T Se
   0.0000000000000000    0.7171296430991321    0.3947007291969153 T T T Se
   0.5000000000000000    0.7171296430991321    0.3322007291969153 T T T Se
   0.0000000000000000    0.0000000000000000    0.5550595238095237 F F F In
   0.5000000000000000    0.0000000000000000    0.4925595238095238 F F F In
   0.3333333333333333    0.1666666666666667    0.5342261904761905 F F F In
   0.8333333333333333    0.1666666666666667    0.4717261904761905 F F F In
   0.1666666666666667    0.3333333333333333    0.4508928571428571 F F F In
   0.6666666666666667    0.3333333333333333    0.5133928571428571 F F F In
   0.4999999999999999    0.5000000000000000    0.5550595238095237 F F F In
   0.0000000000000000    0.5000000000000000    0.4925595238095237 F F F In
   0.3333333333333333    0.6666666666666666    0.4717261904761905 F F F In
   0.8333333333333334    0.6666666666666666    0.5342261904761905 F F F In
   0.1666666666666665    0.8333333333333331    0.5133928571428570 F F F In
   0.6666666666666665    0.8333333333333331    0.4508928571428570 F F F In
   0.3333333333333333    0.1666666666666667    0.4717261904761905 F F F Ni
   0.8333333333333333    0.1666666666666667    0.5342261904761905 F F F Ni
   0.0833333333333334    0.1666666666666667    0.4404761904761905 F F F Ni
   0.5833333333333334    0.1666666666666667    0.5029761904761905 F F F Ni
   0.0833333333333333    0.1666666666666667    0.5029761904761905 F F F Ni
   0.5833333333333333    0.1666666666666667    0.4404761904761904 F F F Ni
   0.0000000000000000    0.5000000000000000    0.5550595238095237 F F F Ni
   0.5000000000000000    0.5000000000000000    0.4925595238095237 F F F Ni
   0.2500000000000000    0.5000000000000000    0.4613095238095238 F F F Ni
   0.7500000000000000    0.5000000000000000    0.5238095238095237 F F F Ni
   0.2500000000000000    0.5000000000000000    0.5238095238095237 F F F Ni
   0.7500000000000000    0.5000000000000000    0.4613095238095237 F F F Ni
   0.1666666666666666    0.8333333333333331    0.4508928571428571 F F F Ni
   0.6666666666666667    0.8333333333333331    0.5133928571428570 F F F Ni
   0.4166666666666667    0.8333333333333331    0.4821428571428571 F F F Ni
   0.9166666666666667    0.8333333333333331    0.5446428571428571 F F F Ni
   0.4166666666666666    0.8333333333333331    0.5446428571428571 F F F Ni
   0.9166666666666665    0.8333333333333331    0.4821428571428570 F F F Ni
   0.0000000000000000    0.2828703569008679    0.4654183184221323 F F F Se
   0.5000000000000000    0.2828703569008679    0.5279183184221323 F F F Se
   0.1666666666666667    0.0504629764324654    0.5405340625302486 F F F Se
   0.6666666666666667    0.0504629764324654    0.4780340625302486 F F F Se
   0.1666666666666667    0.6162036902342012    0.4862516517554656 F F F Se
   0.6666666666666667    0.6162036902342012    0.5487516517554656 F F F Se
   0.3333333333333333    0.3837963097657987    0.5613673958635819 F F F Se
   0.8333333333333335    0.3837963097657987    0.4988673958635819 F F F Se
   0.3333333333333333    0.9495370235675346    0.5070849850887990 F F F Se
   0.8333333333333334    0.9495370235675346    0.4445849850887989 F F F Se
   0.0000000000000000    0.7171296430991321    0.5197007291969153 F F F Se
   0.5000000000000000    0.7171296430991321    0.4572007291969153 F F F Se
   0.0000000000000000    0.0000000000000000    0.6800595238095237 T T T In
   0.5000000000000000    0.0000000000000000    0.6175595238095237 T T T In
   0.3333333333333333    0.1666666666666667    0.6592261904761905 T T T In
   0.8333333333333333    0.1666666666666667    0.5967261904761905 T T T In
   0.1666666666666667    0.3333333333333333    0.5758928571428571 F F F In
   0.6666666666666667    0.3333333333333333    0.6383928571428571 T T T In
   0.4999999999999999    0.5000000000000000    0.6800595238095237 T T T In
   0.0000000000000000    0.5000000000000000    0.6175595238095237 T T T In
   0.3333333333333333    0.6666666666666666    0.5967261904761905 T T T In
   0.8333333333333334    0.6666666666666666    0.6592261904761905 T T T In
   0.1666666666666665    0.8333333333333331    0.6383928571428570 T T T In
   0.6666666666666665    0.8333333333333331    0.5758928571428570 F F F In
   0.3333333333333333    0.1666666666666667    0.5967261904761905 T T T Ni
   0.8333333333333333    0.1666666666666667    0.6592261904761905 T T T Ni
   0.0833333333333334    0.1666666666666667    0.5654761904761905 F F F Ni
   0.5833333333333334    0.1666666666666667    0.6279761904761905 T T T Ni
   0.0833333333333333    0.1666666666666667    0.6279761904761905 T T T Ni
   0.5833333333333333    0.1666666666666667    0.5654761904761905 F F F Ni
   0.0000000000000000    0.5000000000000000    0.6800595238095237 T T T Ni
   0.5000000000000000    0.5000000000000000    0.6175595238095237 T T T Ni
   0.2500000000000000    0.5000000000000000    0.5863095238095237 T T T Ni
   0.7500000000000000    0.5000000000000000    0.6488095238095237 T T T Ni
   0.2500000000000000    0.5000000000000000    0.6488095238095237 T T T Ni
   0.7500000000000000    0.5000000000000000    0.5863095238095237 T T T Ni
   0.1666666666666666    0.8333333333333331    0.5758928571428571 F F F Ni
   0.6666666666666667    0.8333333333333331    0.6383928571428570 T T T Ni
   0.4166666666666667    0.8333333333333331    0.6071428571428571 T T T Ni
   0.9166666666666667    0.8333333333333331    0.6696428571428571 T T T Ni
   0.4166666666666666    0.8333333333333331    0.6696428571428571 T T T Ni
   0.9166666666666665    0.8333333333333331    0.6071428571428570 T T T Ni
   0.0000000000000000    0.2828703569008679    0.5904183184221323 T T T Se
   0.5000000000000000    0.2828703569008679    0.6529183184221323 T T T Se
   0.1666666666666667    0.0504629764324654    0.6655340625302486 T T T Se
   0.6666666666666667    0.0504629764324654    0.6030340625302486 T T T Se
   0.1666666666666667    0.6162036902342012    0.6112516517554656 T T T Se
   0.6666666666666667    0.6162036902342012    0.6737516517554656 T T T Se
   0.3333333333333333    0.3837963097657987    0.6863673958635819 T T T Se
   0.8333333333333335    0.3837963097657987    0.6238673958635819 T T T Se
   0.3333333333333333    0.9495370235675346    0.6320849850887990 T T T Se
   0.8333333333333334    0.9495370235675346    0.5695849850887988 F F F Se
   0.0000000000000000    0.7171296430991321    0.6447007291969153 T T T Se
   0.5000000000000000    0.7171296430991321    0.5822007291969153 T T T Se
