Zr24 Si24
1.0
   7.5854783200000000    0.0000000000000000    5.3171271699999991
   3.7927391599999969    7.0073035700000021    0.0000000000000005
   0.0000000000000000    0.0000000000000000   37.2198901900000010
Zr Si Zr Si Zr Si
8 8 8 8 8 8
Selective dynamics
direct
   0.2873828400000001    0.1752343199999999    0.3874531985714286 T T T Zr
   0.7873828400000000    0.1752343199999999    0.3160246271428571 T T T Zr
   0.7126171600000000    0.8247656800000001    0.4339753728571428 F F F Zr
   0.2126171600000000    0.8247656800000001    0.3625468014285714 T T T Zr
   0.9626171600000000    0.3247656799999999    0.3624197242857143 T T T Zr
   0.4626171600000001    0.3247656799999999    0.4338482957142857 F F F Zr
   0.0373828400000000    0.6752343199999999    0.3161517042857143 T T T Zr
   0.5373828400000000    0.6752343199999999    0.3875802757142857 T T T Zr
   0.3536525200000000    0.0426949600000000    0.3083269442857143 T T T Si
   0.8536525200000000    0.0426949600000000    0.3797555157142857 T T T Si
   0.6463474800000000    0.9573050399999999    0.3702444842857143 T T T Si
   0.1463474800000000    0.9573050399999999    0.2988159128571429 T T T Si
   0.8963474800000000    0.4573050399999999    0.3022276642857143 T T T Si
   0.3963474800000000    0.4573050399999999    0.3736562357142857 T T T Si
   0.1036525200000000    0.5426949599999998    0.3763437642857143 T T T Si
   0.6036525200000000    0.5426949599999999    0.3049151928571429 T T T Si
   0.2873828400000001    0.1752343199999999    0.5303103414285715 F F F Zr
   0.7873828400000000    0.1752343199999999    0.4588817700000000 F F F Zr
   0.7126171600000000    0.8247656800000001    0.5768325157142857 F F F Zr
   0.2126171600000000    0.8247656800000001    0.5054039442857143 F F F Zr
   0.9626171600000000    0.3247656799999999    0.5052768671428571 F F F Zr
   0.4626171600000001    0.3247656799999999    0.5767054385714285 F F F Zr
   0.0373828400000000    0.6752343199999999    0.4590088471428572 F F F Zr
   0.5373828400000000    0.6752343199999999    0.5304374185714286 F F F Zr
   0.3536525200000000    0.0426949600000000    0.4511840871428572 F F F Si
   0.8536525200000000    0.0426949600000000    0.5226126585714286 F F F Si
   0.6463474800000000    0.9573050399999999    0.5131016271428572 F F F Si
   0.1463474800000000    0.9573050399999999    0.4416730557142857 F F F Si
   0.8963474800000000    0.4573050399999999    0.4450848071428571 F F F Si
   0.3963474800000000    0.4573050399999999    0.5165133785714285 F F F Si
   0.1036525200000000    0.5426949599999998    0.5192009071428572 F F F Si
   0.6036525200000000    0.5426949599999999    0.4477723357142857 F F F Si
   0.2873828400000001    0.1752343199999999    0.6731674842857143 T T T Zr
   0.7873828400000000    0.1752343199999999    0.6017389128571429 F F F Zr
   0.7126171600000000    0.8247656800000001    0.7196896585714285 T T T Zr
   0.2126171600000000    0.8247656800000001    0.6482610871428571 T T T Zr
   0.9626171600000000    0.3247656799999999    0.6481340100000000 T T T Zr
   0.4626171600000001    0.3247656799999999    0.7195625814285714 T T T Zr
   0.0373828400000000    0.6752343199999999    0.6018659900000001 F F F Zr
   0.5373828400000000    0.6752343199999999    0.6732945614285715 T T T Zr
   0.3536525200000000    0.0426949600000000    0.5940412300000000 F F F Si
   0.8536525200000000    0.0426949600000000    0.6654698014285714 T T T Si
   0.6463474800000000    0.9573050399999999    0.6559587700000000 T T T Si
   0.1463474800000000    0.9573050399999999    0.5845301985714286 F F F Si
   0.8963474800000000    0.4573050399999999    0.5879419500000000 F F F Si
   0.3963474800000000    0.4573050399999999    0.6593705214285714 T T T Si
   0.1036525200000000    0.5426949599999998    0.6620580500000000 T T T Si
   0.6036525200000000    0.5426949599999999    0.5906294785714286 F F F Si
