Zr24 Si24
1.0
   5.3171271700000000    0.0000000000000000    0.0000000000000003
   0.0000000000000023   14.0146071400000007   -3.7927391599999996
   0.0000000000000000    0.0000000000000000   30.3419132800000000
Zr Si Zr Si Zr Si
8 8 8 8 8 8
Selective dynamics
direct
   0.1245552300000000    0.0876171600000000    0.3468896450000000 T T T Zr
   0.1245552300000000    0.5876171599999999    0.4093896450000000 T T T Zr
   0.8754447700000000    0.4123828400000000    0.3249853550000000 T T T Zr
   0.8754447700000000    0.9123828399999999    0.3874853550000000 T T T Zr
   0.6245552300000000    0.1623828399999999    0.4187353550000000 F F F Zr
   0.6245552300000000    0.6623828399999998    0.3562353550000000 T T T Zr
   0.3754447700000000    0.3376171599999999    0.3781396450000000 T T T Zr
   0.3754447700000000    0.8376171599999999    0.3156396450000000 T T T Zr
   0.6369411300000000    0.0213474800000000    0.3386059350000000 T T T Si
   0.6369411300000000    0.5213474800000000    0.4011059350000000 T T T Si
   0.3630588700000001    0.4786525199999999    0.3332690650000000 T T T Si
   0.3630588700000001    0.9786525199999998    0.3957690650000000 T T T Si
   0.1369411299999999    0.2286525199999999    0.4270190650000000 F F F Si
   0.1369411299999999    0.7286525199999999    0.3645190650000000 T T T Si
   0.8630588700000000    0.2713474799999999    0.3698559350000000 T T T Si
   0.8630588700000000    0.7713474800000000    0.4323559350000000 F F F Si
   0.1245552300000000    0.0876171600000000    0.4718896450000000 F F F Zr
   0.1245552300000000    0.5876171599999999    0.5343896450000000 F F F Zr
   0.8754447700000000    0.4123828400000000    0.4499853550000000 F F F Zr
   0.8754447700000000    0.9123828399999999    0.5124853550000000 F F F Zr
   0.6245552300000000    0.1623828399999999    0.5437353549999999 F F F Zr
   0.6245552300000000    0.6623828399999998    0.4812353550000000 F F F Zr
   0.3754447700000000    0.3376171599999999    0.5031396450000000 F F F Zr
   0.3754447700000000    0.8376171599999999    0.4406396450000000 F F F Zr
   0.6369411300000000    0.0213474800000000    0.4636059350000000 F F F Si
   0.6369411300000000    0.5213474800000000    0.5261059349999999 F F F Si
   0.3630588700000001    0.4786525199999999    0.4582690650000000 F F F Si
   0.3630588700000001    0.9786525199999998    0.5207690650000000 F F F Si
   0.1369411299999999    0.2286525199999999    0.5520190650000000 F F F Si
   0.1369411299999999    0.7286525199999999    0.4895190650000000 F F F Si
   0.8630588700000000    0.2713474799999999    0.4948559350000000 F F F Si
   0.8630588700000000    0.7713474800000000    0.5573559350000000 F F F Si
   0.1245552300000000    0.0876171600000000    0.5968896450000000 T T T Zr
   0.1245552300000000    0.5876171599999999    0.6593896450000000 T T T Zr
   0.8754447700000000    0.4123828400000000    0.5749853550000000 F F F Zr
   0.8754447700000000    0.9123828399999999    0.6374853550000000 T T T Zr
   0.6245552300000000    0.1623828399999999    0.6687353549999999 T T T Zr
   0.6245552300000000    0.6623828399999998    0.6062353550000000 T T T Zr
   0.3754447700000000    0.3376171599999999    0.6281396450000000 T T T Zr
   0.3754447700000000    0.8376171599999999    0.5656396450000000 F F F Zr
   0.6369411300000000    0.0213474800000000    0.5886059349999999 T T T Si
   0.6369411300000000    0.5213474800000000    0.6511059349999999 T T T Si
   0.3630588700000001    0.4786525199999999    0.5832690650000000 T T T Si
   0.3630588700000001    0.9786525199999998    0.6457690650000000 T T T Si
   0.1369411299999999    0.2286525199999999    0.6770190650000000 T T T Si
   0.1369411299999999    0.7286525199999999    0.6145190650000000 T T T Si
   0.8630588700000000    0.2713474799999999    0.6198559349999999 T T T Si
   0.8630588700000000    0.7713474800000000    0.6823559350000000 T T T Si
