Sr64 Rh32
1.0
  14.6038204399999998    0.0000000000000000   -7.3019102199999999
  -0.0000000000000041   14.6038204399999998   -7.3019102199999999
   0.0000000000000000    0.0000000000000000   36.5095510999999959
Sr Rh Sr Rh
32 16 32 16
Selective dynamics
direct
   0.6250000000000000    0.8750000000000001    0.4249999999999999 T T T Sr
   0.1250000000000000    0.3750000000000000    0.4249999999999999 T T T Sr
   0.1250000000000000    0.8750000000000001    0.3250000000000000 T T T Sr
   0.6250000000000000    0.3750000000000001    0.3250000000000000 T T T Sr
   0.8750000000000001    0.8750000000000001    0.4750000000000000 F F F Sr
   0.3750000000000000    0.3750000000000001    0.4749999999999999 F F F Sr
   0.3750000000000000    0.8750000000000001    0.3749999999999999 T T T Sr
   0.8750000000000001    0.3750000000000002    0.3750000000000000 T T T Sr
   0.8750000000000001    0.6250000000000001    0.4250000000000000 T T T Sr
   0.3750000000000000    0.1250000000000000    0.4249999999999999 T T T Sr
   0.3750000000000000    0.6250000000000001    0.3250000000000000 T T T Sr
   0.8750000000000001    0.1250000000000001    0.3250000000000000 T T T Sr
   0.6250000000000000    0.6250000000000001    0.3749999999999999 T T T Sr
   0.1250000000000000    0.1250000000000000    0.3749999999999999 T T T Sr
   0.1250000000000000    0.6250000000000001    0.4749999999999999 F F F Sr
   0.6250000000000000    0.1250000000000001    0.4749999999999999 F F F Sr
   0.6250000000000000    0.6250000000000001    0.4749999999999999 F F F Sr
   0.1250000000000000    0.1250000000000000    0.4749999999999999 F F F Sr
   0.1250000000000000    0.6250000000000001    0.3749999999999999 T T T Sr
   0.6250000000000000    0.1250000000000001    0.3749999999999999 T T T Sr
   0.8750000000000001    0.6250000000000001    0.3250000000000000 T T T Sr
   0.3750000000000000    0.1250000000000001    0.3250000000000000 T T T Sr
   0.3750000000000000    0.6250000000000001    0.4249999999999999 T T T Sr
   0.8750000000000001    0.1250000000000001    0.4250000000000000 T T T Sr
   0.8750000000000001    0.8750000000000001    0.3750000000000000 T T T Sr
   0.3750000000000000    0.3750000000000001    0.3749999999999999 T T T Sr
   0.3750000000000000    0.8750000000000001    0.4749999999999999 F F F Sr
   0.8750000000000001    0.3750000000000002    0.4750000000000000 F F F Sr
   0.6250000000000000    0.8750000000000001    0.3250000000000000 T T T Sr
   0.1250000000000000    0.3750000000000001    0.3250000000000000 T T T Sr
   0.1250000000000000    0.8750000000000001    0.4249999999999999 T T T Sr
   0.6250000000000000    0.3750000000000002    0.4250000000000000 T T T Sr
   0.5000000000000000    0.5000000000000000    0.4749999999999999 F F F Rh
   0.0000000000000000    0.0000000000000000    0.4749999999999999 F F F Rh
   0.0000000000000000    0.5000000000000000    0.3749999999999999 T T T Rh
   0.5000000000000000    0.0000000000000000    0.3749999999999999 T T T Rh
   0.7500000000000000    0.7500000000000000    0.3749999999999999 T T T Rh
   0.2500000000000000    0.2500000000000001    0.3749999999999999 T T T Rh
   0.2500000000000000    0.7500000000000000    0.4749999999999999 F F F Rh
   0.7500000000000000    0.2500000000000001    0.4749999999999999 F F F Rh
   0.5000000000000000    0.7500000000000000    0.4249999999999999 T T T Rh
   0.0000000000000000    0.2500000000000001    0.4249999999999999 T T T Rh
   0.0000000000000000    0.7500000000000000    0.3250000000000000 T T T Rh
   0.5000000000000000    0.2500000000000001    0.3250000000000000 T T T Rh
   0.7500000000000000    0.5000000000000001    0.4250000000000000 T T T Rh
   0.2500000000000000    0.0000000000000000    0.4249999999999999 T T T Rh
   0.2500000000000000    0.5000000000000001    0.3250000000000000 T T T Rh
   0.7500000000000000    0.0000000000000001    0.3250000000000000 T T T Rh
   0.6250000000000000    0.8750000000000001    0.6250000000000000 T T T Sr
   0.1250000000000000    0.3750000000000000    0.6250000000000000 T T T Sr
   0.1250000000000000    0.8750000000000001    0.5249999999999999 F F F Sr
   0.6250000000000000    0.3750000000000001    0.5249999999999999 F F F Sr
   0.8750000000000001    0.8750000000000001    0.6750000000000000 T T T Sr
   0.3750000000000000    0.3750000000000001    0.6749999999999999 T T T Sr
   0.3750000000000000    0.8750000000000001    0.5750000000000000 T T T Sr
   0.8750000000000001    0.3750000000000002    0.5750000000000000 T T T Sr
   0.8750000000000001    0.6250000000000001    0.6250000000000000 T T T Sr
   0.3750000000000000    0.1250000000000000    0.6250000000000000 T T T Sr
   0.3750000000000000    0.6250000000000001    0.5249999999999999 F F F Sr
   0.8750000000000001    0.1250000000000001    0.5249999999999999 F F F Sr
   0.6250000000000000    0.6250000000000001    0.5750000000000000 T T T Sr
   0.1250000000000000    0.1250000000000000    0.5750000000000000 T T T Sr
   0.1250000000000000    0.6250000000000001    0.6749999999999999 T T T Sr
   0.6250000000000000    0.1250000000000001    0.6749999999999999 T T T Sr
   0.6250000000000000    0.6250000000000001    0.6749999999999999 T T T Sr
   0.1250000000000000    0.1250000000000000    0.6749999999999999 T T T Sr
   0.1250000000000000    0.6250000000000001    0.5750000000000000 T T T Sr
   0.6250000000000000    0.1250000000000001    0.5750000000000000 T T T Sr
   0.8750000000000001    0.6250000000000001    0.5250000000000000 F F F Sr
   0.3750000000000000    0.1250000000000001    0.5249999999999999 F F F Sr
   0.3750000000000000    0.6250000000000001    0.6250000000000000 T T T Sr
   0.8750000000000001    0.1250000000000001    0.6250000000000000 T T T Sr
   0.8750000000000001    0.8750000000000001    0.5750000000000000 T T T Sr
   0.3750000000000000    0.3750000000000001    0.5750000000000000 T T T Sr
   0.3750000000000000    0.8750000000000001    0.6749999999999999 T T T Sr
   0.8750000000000001    0.3750000000000002    0.6750000000000000 T T T Sr
   0.6250000000000000    0.8750000000000001    0.5249999999999999 F F F Sr
   0.1250000000000000    0.3750000000000001    0.5249999999999999 F F F Sr
   0.1250000000000000    0.8750000000000001    0.6250000000000000 T T T Sr
   0.6250000000000000    0.3750000000000002    0.6250000000000000 T T T Sr
   0.5000000000000000    0.5000000000000000    0.6749999999999999 T T T Rh
   0.0000000000000000    0.0000000000000000    0.6749999999999999 T T T Rh
   0.0000000000000000    0.5000000000000000    0.5750000000000000 T T T Rh
   0.5000000000000000    0.0000000000000000    0.5750000000000000 T T T Rh
   0.7500000000000000    0.7500000000000000    0.5750000000000000 T T T Rh
   0.2500000000000000    0.2500000000000001    0.5750000000000000 T T T Rh
   0.2500000000000000    0.7500000000000000    0.6749999999999999 T T T Rh
   0.7500000000000000    0.2500000000000001    0.6749999999999999 T T T Rh
   0.5000000000000000    0.7500000000000000    0.6250000000000000 T T T Rh
   0.0000000000000000    0.2500000000000001    0.6250000000000000 T T T Rh
   0.0000000000000000    0.7500000000000000    0.5249999999999999 F F F Rh
   0.5000000000000000    0.2500000000000001    0.5249999999999999 F F F Rh
   0.7500000000000000    0.5000000000000001    0.6250000000000000 T T T Rh
   0.2500000000000000    0.0000000000000000    0.6250000000000000 T T T Rh
   0.2500000000000000    0.5000000000000001    0.5249999999999999 F F F Rh
   0.7500000000000000    0.0000000000000001    0.5249999999999999 F F F Rh
