Ti12 Al24
1.0
   3.9109351093051981    0.0000000000000000    0.0000000000000002
  -0.0000000000000034   12.0755388473363166    3.9889417199999988
   0.0000000000000000    0.0000000000000000   27.9225920400000014
Ti Al Ti Al Ti Al
4 8 4 8 4 8
Selective dynamics
direct
   0.5000000000000000    0.6566557550000000    0.3228587016666666 T T T Ti
   0.0000000000000000    0.8433442449999998    0.2961889173809524 T T T Ti
   0.0000000000000000    0.1566557550000001    0.3942872730952380 T T T Ti
   0.5000000000000000    0.3433442449999999    0.3676174888095238 T T T Ti
   0.5000000000000000    0.0000000000000000    0.4166666666666666 F F F Al
   0.0000000000000000    0.0000000000000000    0.3452380952380952 T T T Al
   0.5000000000000000    0.8276501850000000    0.3698594973809524 T T T Al
   0.0000000000000000    0.6723498149999999    0.3920452645238095 T T T Al
   0.0000000000000000    0.4999999999999999    0.3452380952380952 T T T Al
   0.5000000000000000    0.4999999999999999    0.4166666666666666 F F F Al
   0.0000000000000000    0.3276501850000000    0.2984309259523809 T T T Al
   0.5000000000000000    0.1723498150000000    0.3206166930952380 T T T Al
   0.5000000000000000    0.6566557550000000    0.4657158445238095 F F F Ti
   0.0000000000000000    0.8433442449999998    0.4390460602380952 F F F Ti
   0.0000000000000000    0.1566557550000001    0.5371444159523808 F F F Ti
   0.5000000000000000    0.3433442449999999    0.5104746316666666 F F F Ti
   0.5000000000000000    0.0000000000000000    0.5595238095238095 F F F Al
   0.0000000000000000    0.0000000000000000    0.4880952380952380 F F F Al
   0.5000000000000000    0.8276501850000000    0.5127166402380952 F F F Al
   0.0000000000000000    0.6723498149999999    0.5349024073809523 F F F Al
   0.0000000000000000    0.4999999999999999    0.4880952380952380 F F F Al
   0.5000000000000000    0.4999999999999999    0.5595238095238095 F F F Al
   0.0000000000000000    0.3276501850000000    0.4412880688095238 F F F Al
   0.5000000000000000    0.1723498150000000    0.4634738359523809 F F F Al
   0.5000000000000000    0.6566557550000000    0.6085729873809523 T T T Ti
   0.0000000000000000    0.8433442449999998    0.5819032030952380 F F F Ti
   0.0000000000000000    0.1566557550000001    0.6800015588095237 T T T Ti
   0.5000000000000000    0.3433442449999999    0.6533317745238094 T T T Ti
   0.5000000000000000    0.0000000000000000    0.7023809523809523 T T T Al
   0.0000000000000000    0.0000000000000000    0.6309523809523809 T T T Al
   0.5000000000000000    0.8276501850000000    0.6555737830952381 T T T Al
   0.0000000000000000    0.6723498149999999    0.6777595502380952 T T T Al
   0.0000000000000000    0.4999999999999999    0.6309523809523809 T T T Al
   0.5000000000000000    0.4999999999999999    0.7023809523809523 T T T Al
   0.0000000000000000    0.3276501850000000    0.5841452116666666 F F F Al
   0.5000000000000000    0.1723498150000000    0.6063309788095237 T T T Al
