Ti6 Pd18
1.0
   3.8976635200098708    0.0000000000000000    0.0000000000000002
   0.0000000000000013    7.7953270400197416   -3.8976635200098708
   0.0000000000000000    0.0000000000000000   31.1813081600789666
Ti Pd Ti Pd Ti Pd
2 6 2 6 2 6
Selective dynamics
direct
   0.0000000000000000    0.5000000000000000    0.3593750000000000 T T T Ti
   0.0000000000000000    0.0000000000000000    0.4218750000000000 T T T Ti
   0.5000000000000000    0.2500000000000000    0.3281250000000000 T T T Pd
   0.4999999999999999    0.7500000000000000    0.3906250000000000 T T T Pd
   0.5000000000000000    0.5000000000000000    0.4218750000000000 T T T Pd
   0.4999999999999999    0.0000000000000000    0.3593750000000000 T T T Pd
   0.0000000000000000    0.2500000000000000    0.3906250000000000 T T T Pd
   0.0000000000000000    0.7500000000000000    0.3281250000000000 T T T Pd
   0.0000000000000000    0.5000000000000000    0.4843750000000000 F F F Ti
   0.0000000000000000    0.0000000000000000    0.5468750000000000 F F F Ti
   0.5000000000000000    0.2500000000000000    0.4531250000000000 F F F Pd
   0.4999999999999999    0.7500000000000000    0.5156250000000000 F F F Pd
   0.5000000000000000    0.5000000000000000    0.5468750000000000 F F F Pd
   0.4999999999999999    0.0000000000000000    0.4843750000000000 F F F Pd
   0.0000000000000000    0.2500000000000000    0.5156250000000000 F F F Pd
   0.0000000000000000    0.7500000000000000    0.4531250000000000 F F F Pd
   0.0000000000000000    0.5000000000000000    0.6093750000000000 T T T Ti
   0.0000000000000000    0.0000000000000000    0.6718750000000000 T T T Ti
   0.5000000000000000    0.2500000000000000    0.5781250000000000 T T T Pd
   0.4999999999999999    0.7500000000000000    0.6406250000000000 T T T Pd
   0.5000000000000000    0.5000000000000000    0.6718750000000000 T T T Pd
   0.4999999999999999    0.0000000000000000    0.6093750000000000 T T T Pd
   0.0000000000000000    0.2500000000000000    0.6406250000000000 T T T Pd
   0.0000000000000000    0.7500000000000000    0.5781250000000000 T T T Pd
