Si32 Rh32
1.0
   4.6860786900000004    0.0000000000000000   -4.6860786899999995
   0.0000000000000015    9.3721573799999991   -4.6860786899999995
   0.0000000000000000    0.0000000000000000   42.1747082100000057
Si Rh Si Rh Si Rh Si Rh
8 8 8 8 8 8 8 8
Selective dynamics
direct
   0.3419011199999999    0.3290494400000000    0.3629499377777777 T T T Si
   0.3419011199999999    0.8290494400000000    0.3073943822222222 T T T Si
   0.6580988800000001    0.0790494400000001    0.2796166044444444 T T T Si
   0.6580988800000001    0.5790494400000000    0.3351721599999999 T T T Si
   0.1580988800000001    0.1709505600000000    0.3805164800000000 T T T Si
   0.1580988800000001    0.6709505600000001    0.3249609244444445 T T T Si
   0.8419011199999999    0.4209505600000000    0.2824725333333333 T T T Si
   0.8419011199999999    0.9209505600000000    0.3380280888888889 T T T Si
   0.6532927300000000    0.1733536350000000    0.3456504038888888 T T T Rh
   0.6532927300000000    0.6733536350000000    0.2900948483333333 T T T Rh
   0.3467072700000000    0.4233536350000001    0.3178726261111111 T T T Rh
   0.3467072700000000    0.9233536350000001    0.3734281816666667 T T T Rh
   0.8467072700000000    0.3266463650000000    0.3286178783333333 T T T Rh
   0.8467072700000000    0.8266463650000000    0.3841734338888889 T T T Rh
   0.1532927300000000    0.0766463650000000    0.3134146472222222 T T T Rh
   0.1532927300000000    0.5766463650000000    0.3689702027777778 T T T Rh
   0.3419011199999999    0.3290494400000000    0.4740610488888889 F F F Si
   0.3419011199999999    0.8290494400000000    0.4185054933333333 F F F Si
   0.6580988800000001    0.0790494400000001    0.3907277155555555 F F F Si
   0.6580988800000001    0.5790494400000000    0.4462832711111111 F F F Si
   0.1580988800000001    0.1709505600000000    0.4916275911111111 F F F Si
   0.1580988800000001    0.6709505600000001    0.4360720355555555 F F F Si
   0.8419011199999999    0.4209505600000000    0.3935836444444444 F F F Si
   0.8419011199999999    0.9209505600000000    0.4491392000000000 F F F Si
   0.6532927300000000    0.1733536350000000    0.4567615150000000 F F F Rh
   0.6532927300000000    0.6733536350000000    0.4012059594444444 F F F Rh
   0.3467072700000000    0.4233536350000001    0.4289837372222222 F F F Rh
   0.3467072700000000    0.9233536350000001    0.4845392927777777 F F F Rh
   0.8467072700000000    0.3266463650000000    0.4397289894444444 F F F Rh
   0.8467072700000000    0.8266463650000000    0.4952845450000000 F F F Rh
   0.1532927300000000    0.0766463650000000    0.4245257583333333 F F F Rh
   0.1532927300000000    0.5766463650000000    0.4800813138888889 F F F Rh
   0.3419011199999999    0.3290494400000000    0.5851721599999999 F F F Si
   0.3419011199999999    0.8290494400000000    0.5296166044444444 F F F Si
   0.6580988800000001    0.0790494400000001    0.5018388266666667 F F F Si
   0.6580988800000001    0.5790494400000000    0.5573943822222222 F F F Si
   0.1580988800000001    0.1709505600000000    0.6027387022222221 F F F Si
   0.1580988800000001    0.6709505600000001    0.5471831466666667 F F F Si
   0.8419011199999999    0.4209505600000000    0.5046947555555555 F F F Si
   0.8419011199999999    0.9209505600000000    0.5602503111111110 F F F Si
   0.6532927300000000    0.1733536350000000    0.5678726261111111 F F F Rh
   0.6532927300000000    0.6733536350000000    0.5123170705555555 F F F Rh
   0.3467072700000000    0.4233536350000001    0.5400948483333333 F F F Rh
   0.3467072700000000    0.9233536350000001    0.5956504038888889 F F F Rh
   0.8467072700000000    0.3266463650000000    0.5508401005555555 F F F Rh
   0.8467072700000000    0.8266463650000000    0.6063956561111111 F F F Rh
   0.1532927300000000    0.0766463650000000    0.5356368694444444 F F F Rh
   0.1532927300000000    0.5766463650000000    0.5911924250000000 F F F Rh
   0.3419011199999999    0.3290494400000000    0.6962832711111111 T T T Si
   0.3419011199999999    0.8290494400000000    0.6407277155555555 T T T Si
   0.6580988800000001    0.0790494400000001    0.6129499377777777 T T T Si
   0.6580988800000001    0.5790494400000000    0.6685054933333333 T T T Si
   0.1580988800000001    0.1709505600000000    0.7138498133333333 T T T Si
   0.1580988800000001    0.6709505600000001    0.6582942577777777 T T T Si
   0.8419011199999999    0.4209505600000000    0.6158058666666666 T T T Si
   0.8419011199999999    0.9209505600000000    0.6713614222222222 T T T Si
   0.6532927300000000    0.1733536350000000    0.6789837372222222 T T T Rh
   0.6532927300000000    0.6733536350000000    0.6234281816666666 T T T Rh
   0.3467072700000000    0.4233536350000001    0.6512059594444444 T T T Rh
   0.3467072700000000    0.9233536350000001    0.7067615150000000 T T T Rh
   0.8467072700000000    0.3266463650000000    0.6619512116666666 T T T Rh
   0.8467072700000000    0.8266463650000000    0.7175067672222222 T T T Rh
   0.1532927300000000    0.0766463650000000    0.6467479805555555 T T T Rh
   0.1532927300000000    0.5766463650000000    0.7023035361111111 T T T Rh
