Si32 Rh32
1.0
   4.6860786900000004    0.0000000000000000   -4.6860786899999995
   0.0000000000000015    9.3721573799999991   -4.6860786899999995
   0.0000000000000000    0.0000000000000000   42.1747082100000057
Si Rh Si Rh Si Rh Si Rh
8 8 8 8 8 8 8 8
Selective dynamics
direct
   0.3419011199999999    0.3290494400000000    0.3698943822222222 T T T Si
   0.3419011199999999    0.8290494400000000    0.3143388266666667 T T T Si
   0.6580988800000001    0.0790494400000001    0.2865610488888889 T T T Si
   0.6580988800000001    0.5790494400000000    0.3421166044444444 T T T Si
   0.1580988800000001    0.1709505600000000    0.3874609244444445 F F F Si
   0.1580988800000001    0.6709505600000001    0.3319053688888889 T T T Si
   0.8419011199999999    0.4209505600000000    0.2894169777777778 T T T Si
   0.8419011199999999    0.9209505600000000    0.3449725333333333 T T T Si
   0.6532927300000000    0.1733536350000000    0.3525948483333333 T T T Rh
   0.6532927300000000    0.6733536350000000    0.2970392927777777 T T T Rh
   0.3467072700000000    0.4233536350000001    0.3248170705555555 T T T Rh
   0.3467072700000000    0.9233536350000001    0.3803726261111111 T T T Rh
   0.8467072700000000    0.3266463650000000    0.3355623227777778 T T T Rh
   0.8467072700000000    0.8266463650000000    0.2800067672222222 T T T Rh
   0.1532927300000000    0.0766463650000000    0.3203590916666667 T T T Rh
   0.1532927300000000    0.5766463650000000    0.3759146472222222 T T T Rh
   0.3419011199999999    0.3290494400000000    0.4810054933333333 F F F Si
   0.3419011199999999    0.8290494400000000    0.4254499377777777 F F F Si
   0.6580988800000001    0.0790494400000001    0.3976721600000000 F F F Si
   0.6580988800000001    0.5790494400000000    0.4532277155555555 F F F Si
   0.1580988800000001    0.1709505600000000    0.4985720355555556 F F F Si
   0.1580988800000001    0.6709505600000001    0.4430164800000000 F F F Si
   0.8419011199999999    0.4209505600000000    0.4005280888888889 F F F Si
   0.8419011199999999    0.9209505600000000    0.4560836444444444 F F F Si
   0.6532927300000000    0.1733536350000000    0.4637059594444444 F F F Rh
   0.6532927300000000    0.6733536350000000    0.4081504038888888 F F F Rh
   0.3467072700000000    0.4233536350000001    0.4359281816666667 F F F Rh
   0.3467072700000000    0.9233536350000001    0.4914837372222222 F F F Rh
   0.8467072700000000    0.3266463650000000    0.4466734338888889 F F F Rh
   0.8467072700000000    0.8266463650000000    0.3911178783333333 F F F Rh
   0.1532927300000000    0.0766463650000000    0.4314702027777778 F F F Rh
   0.1532927300000000    0.5766463650000000    0.4870257583333333 F F F Rh
   0.3419011199999999    0.3290494400000000    0.5921166044444444 F F F Si
   0.3419011199999999    0.8290494400000000    0.5365610488888888 F F F Si
   0.6580988800000001    0.0790494400000001    0.5087832711111111 F F F Si
   0.6580988800000001    0.5790494400000000    0.5643388266666667 F F F Si
   0.1580988800000001    0.1709505600000000    0.6096831466666667 F F F Si
   0.1580988800000001    0.6709505600000001    0.5541275911111111 F F F Si
   0.8419011199999999    0.4209505600000000    0.5116392000000000 F F F Si
   0.8419011199999999    0.9209505600000000    0.5671947555555555 F F F Si
   0.6532927300000000    0.1733536350000000    0.5748170705555555 F F F Rh
   0.6532927300000000    0.6733536350000000    0.5192615150000000 F F F Rh
   0.3467072700000000    0.4233536350000001    0.5470392927777777 F F F Rh
   0.3467072700000000    0.9233536350000001    0.6025948483333333 F F F Rh
   0.8467072700000000    0.3266463650000000    0.5577845450000000 F F F Rh
   0.8467072700000000    0.8266463650000000    0.5022289894444445 F F F Rh
   0.1532927300000000    0.0766463650000000    0.5425813138888889 F F F Rh
   0.1532927300000000    0.5766463650000000    0.5981368694444444 F F F Rh
   0.3419011199999999    0.3290494400000000    0.7032277155555555 T T T Si
   0.3419011199999999    0.8290494400000000    0.6476721599999999 T T T Si
   0.6580988800000001    0.0790494400000001    0.6198943822222223 T T T Si
   0.6580988800000001    0.5790494400000000    0.6754499377777777 T T T Si
   0.1580988800000001    0.1709505600000000    0.7207942577777777 T T T Si
   0.1580988800000001    0.6709505600000001    0.6652387022222221 T T T Si
   0.8419011199999999    0.4209505600000000    0.6227503111111110 T T T Si
   0.8419011199999999    0.9209505600000000    0.6783058666666666 T T T Si
   0.6532927300000000    0.1733536350000000    0.6859281816666667 T T T Rh
   0.6532927300000000    0.6733536350000000    0.6303726261111111 T T T Rh
   0.3467072700000000    0.4233536350000001    0.6581504038888888 T T T Rh
   0.3467072700000000    0.9233536350000001    0.7137059594444444 T T T Rh
   0.8467072700000000    0.3266463650000000    0.6688956561111110 T T T Rh
   0.8467072700000000    0.8266463650000000    0.6133401005555555 F F F Rh
   0.1532927300000000    0.0766463650000000    0.6536924250000000 T T T Rh
   0.1532927300000000    0.5766463650000000    0.7092479805555556 T T T Rh
