Pd2 Cl4
1.0
   0.0000000000000000    5.9045779416517821   -0.0894676587806055
   4.2735184967198654    0.0000000000000000    0.0000000000000000
   0.0000000000000000   -1.9466058814536165   -6.1423514128561081
Pd Cl
2 4
direct
   0.0000000000000000   -0.0000000000000000    0.5000000000000000 Pd
   0.0000000000000000    0.5000000000000000    0.0000000000000000 Pd
   0.7714446456819803    0.7563086605068621    0.6924967452774681 Cl
   0.2285553543180200    0.2563086605068553    0.8075032547225319 Cl
   0.2285553543180200    0.2436913394931492    0.3075032547225223 Cl
   0.7714446456819803    0.7436913394931379    0.1924967452774785 Cl
