Be20 Pt4
1.0
   5.9782563519996081    0.0000000000000000    0.0000000000000004
   0.0000000000000010    5.9782563519996081    0.0000000000000004
   0.0000000000000000    0.0000000000000000    5.9782563519996081
Be Pt
20 4
direct
   0.2500000000000000    0.7500000000000000    0.7500000000000000 Be
   0.3755837590277264    0.8755837590277267    0.1244162409722735 Be
   0.3755837590277264    0.1244162409722735    0.8755837590277267 Be
   0.1244162409722735    0.8755837590277267    0.3755837590277264 Be
   0.1244162409722735    0.1244162409722735    0.6244162409722733 Be
   0.2500000000000000    0.2500000000000000    0.2500000000000000 Be
   0.3755837590277264    0.3755837590277264    0.6244162409722733 Be
   0.3755837590277264    0.6244162409722733    0.3755837590277264 Be
   0.1244162409722735    0.3755837590277264    0.8755837590277267 Be
   0.1244162409722735    0.6244162409722733    0.1244162409722735 Be
   0.7500000000000000    0.7500000000000000    0.2500000000000000 Be
   0.8755837590277267    0.8755837590277267    0.6244162409722733 Be
   0.8755837590277267    0.1244162409722735    0.3755837590277264 Be
   0.6244162409722733    0.8755837590277267    0.8755837590277267 Be
   0.6244162409722733    0.1244162409722735    0.1244162409722735 Be
   0.7500000000000000    0.2500000000000000    0.7500000000000000 Be
   0.8755837590277267    0.3755837590277264    0.1244162409722735 Be
   0.8755837590277267    0.6244162409722733    0.8755837590277267 Be
   0.6244162409722733    0.3755837590277264    0.3755837590277264 Be
   0.6244162409722733    0.6244162409722733    0.6244162409722733 Be
  -0.0000000000000000   -0.0000000000000000   -0.0000000000000000 Pt
  -0.0000000000000000    0.5000000000000000    0.5000000000000000 Pt
   0.5000000000000000   -0.0000000000000000    0.5000000000000000 Pt
   0.5000000000000000    0.5000000000000000   -0.0000000000000000 Pt
