Mg4 Ti8
1.0
   0.0000000000000000   11.1942326590980379   -0.0181149424918959
   2.8969266618050540    0.0000000000000000    0.0000000000000000
   0.0000000000000000   -1.9103313246522127   -6.8519923489273022
Mg Ti
4 8
direct
   0.6077996511505481   -0.0000000000000000    0.7215602243933740 Mg
   0.9435395024144451   -0.0000000000000000    0.3862580759539760 Mg
   0.1077996511505449    0.5000000000000000    0.7215602243933740 Mg
   0.4435395024144426    0.5000000000000000    0.3862580759539760 Mg
   0.9974539160212429    0.0000000000000000    0.0027935340808078 Ti
   0.8281046766755827    0.5000000000000000    0.6793304775942145 Ti
   0.6748426659887412   -0.0000000000000000    0.3198229588500817 Ti
   0.7815925877494595    0.5000000000000000    0.0569027291275555 Ti
   0.4974539160212423    0.5000000000000000    0.0027935340808078 Ti
   0.3281046766755821   -0.0000000000000000    0.6793304775942145 Ti
   0.1748426659887383    0.5000000000000000    0.3198229588500817 Ti
   0.2815925877494521    0.0000000000000000    0.0569027291275555 Ti
