Te2 Rh2
1.0
   2.0314214296035566   -3.5185251276575666    0.0000000000000000
   2.0314214296035566    3.5185251276575666   -0.0000000000000000
  -0.0000000000000000   -0.0000000000000000    5.6827961672157032
Te Rh
2 2
direct
   0.3333333333333357    0.6666666666666643    0.2500000000000000 Te
   0.6666666666666643    0.3333333333333357    0.7500000000000000 Te
  -0.0000000000000000    0.0000000000000000    0.0000000000000000 Rh
  -0.0000000000000000    0.0000000000000000    0.5000000000000000 Rh
