In3 Cu3 Te6
1.0
   2.2192237994751363   -3.8438083740569864   -0.0000000000000000
   2.2192237994751363    3.8438083740569882    0.0000000000000000
   0.0000000000000000   -0.0000000000000001   21.9470439068104213
In Cu Te
3 3 6
direct
   0.3333333333333357    0.6666666666666643    0.1758593374352266 In
   0.0000000000000000   -0.0000000000000000    0.5091926707685617 In
   0.6666666666666643    0.3333333333333357    0.8425260041018903 In
   0.6666666666666643    0.3333333333333357    0.3245757253539593 Cu
   0.3333333333333357    0.6666666666666643    0.6579090586872938 Cu
  -0.0000000000000000   -0.0000000000000000    0.9912423920206295 Cu
   0.0000000000000000    0.0000000000000000    0.1135967863295804 Te
   0.3333333333333357    0.6666666666666643    0.3026361508812366 Te
   0.6666666666666643    0.3333333333333357    0.4469301196629080 Te
   0.0000000000000000    0.0000000000000000    0.6359694842145640 Te
   0.3333333333333357    0.6666666666666643    0.7802634529962458 Te
   0.6666666666666643    0.3333333333333357    0.9693028175478997 Te
