Mg6 Zn6
1.0
   3.0673715252146989   -0.0000000000000000    0.0000000000000002
   0.0000000000000024   15.0745905683845169    0.0000000000000009
   0.0000000000000000   -0.0000000000000000    4.8070186075323340
Mg Zn
6 6
direct
   0.5000000000000000    0.5010683380910667    0.0000000000000000 Mg
   0.5000000000000000    0.8269206959708263    0.0000000000000000 Mg
  -0.0000000000000000    0.5610660635024580    0.5000000000000000 Mg
  -0.0000000000000000    0.0010683380910681    0.0000000000000000 Mg
  -0.0000000000000000    0.3269206959708258    0.0000000000000000 Mg
   0.5000000000000000    0.0610660635024582    0.5000000000000000 Mg
   0.0000000000000000    0.6653584269718267    0.0000000000000000 Zn
  -0.0000000000000000    0.8874075712502894    0.5000000000000000 Zn
   0.5000000000000000    0.7248459042135362    0.5000000000000000 Zn
   0.5000000000000000    0.1653584269718265   -0.0000000000000000 Zn
   0.5000000000000000    0.3874075712502913    0.5000000000000000 Zn
   0.0000000000000000    0.2248459042135355    0.5000000000000000 Zn
