Zr6 Ta2
1.0
   3.1555075790881317   -5.4654994506493173    0.0000000000000000
   3.1555075790881317    5.4654994506493173   -0.0000000000000000
  -0.0000000000000000   -0.0000000000000000    5.1053843679533673
Zr Ta
6 2
direct
   0.3428842359352506    0.1714421179676253    0.7500000000000000 Zr
   0.8285578820323745    0.1714421179676253    0.7500000000000000 Zr
   0.8285578820323745    0.6571157640647490    0.7500000000000000 Zr
   0.6571157640647490    0.8285578820323745    0.2500000000000000 Zr
   0.1714421179676253    0.8285578820323745    0.2500000000000000 Zr
   0.1714421179676253    0.3428842359352506    0.2500000000000000 Zr
   0.6666666666666643    0.3333333333333357    0.2500000000000000 Ta
   0.3333333333333357    0.6666666666666643    0.7500000000000000 Ta
