Y6 In2
1.0
   3.4459641373875045   -5.9685849670154170   -0.0000000000000000
   3.4459641373875045    5.9685849670154170    0.0000000000000000
  -0.0000000000000000    0.0000000000000000    5.6321908294587573
Y In
6 2
direct
   0.3421849445387600    0.1710924722693800    0.7500000000000000 Y
   0.8289075277306202    0.1710924722693800    0.7500000000000000 Y
   0.8289075277306202    0.6578150554612396    0.7500000000000000 Y
   0.6578150554612396    0.8289075277306202    0.2500000000000000 Y
   0.1710924722693800    0.8289075277306202    0.2500000000000000 Y
   0.1710924722693800    0.3421849445387600    0.2500000000000000 Y
   0.6666666666666643    0.3333333333333357    0.2500000000000000 In
   0.3333333333333357    0.6666666666666643    0.7500000000000000 In
