In2 Ag6
1.0
   3.1273482413181828    0.0000000000000001    0.0000000000000002
   0.0000000000000008    5.1665401559584394    0.0000000000000003
   0.0000000000000000    0.0000000000000000    9.7905122390980868
In Ag
2 6
direct
   0.0000000000000000   -0.0000000000000000    0.0000000000000000 In
   0.5000000000000000    0.5000000000000000    0.0000000000000000 In
   0.5000000000000000   -0.0000000000000000    0.7421297238339016 Ag
  -0.0000000000000000    0.0000000000000000    0.5000000000000000 Ag
   0.5000000000000000    0.0000000000000000    0.2578702761660918 Ag
  -0.0000000000000000    0.5000000000000000    0.7421297238339016 Ag
   0.5000000000000000    0.5000000000000000    0.5000000000000000 Ag
  -0.0000000000000000    0.5000000000000000    0.2578702761660918 Ag
