Fe4 Co2 Se8
1.0
   0.0000000000000000   12.2488583342941748    0.0166114789578986
   3.4640429187729671    0.0000000000000000    0.0000000000000000
   0.0000000000000000   -2.7911155233855403   -5.4451532869509132
Fe Co Se
4 2 8
direct
   0.2585198162928191    0.0000000000000000    0.3062883190599717 Fe
   0.2414801837071803    0.5000000000000000    0.6937116809400272 Fe
   0.7585198162928203    0.5000000000000000    0.3062883190599717 Fe
   0.7414801837071797    0.0000000000000000    0.6937116809400272 Fe
   0.0000000000000000    0.0000000000000000    0.0000000000000000 Co
   0.5000000000000000    0.5000000000000000    0.0000000000000000 Co
   0.3642760814370760   -0.0000000000000000    0.0208632278998735 Se
   0.1357239185629244    0.5000000000000000    0.9791367721001265 Se
   0.1069441955962329    0.0000000000000000    0.4434139024326296 Se
   0.3930558044037661    0.5000000000000000    0.5565860975673699 Se
   0.8642760814370770    0.5000000000000000    0.0208632278998735 Se
   0.6357239185629230   -0.0000000000000000    0.9791367721001265 Se
   0.6069441955962324    0.5000000000000000    0.4434139024326296 Se
   0.8930558044037676   -0.0000000000000000    0.5565860975673699 Se
