Li8 Sn4 Pt4
1.0
   6.3432974169425185    0.0000000000000000    0.0000000000000004
   0.0000000000000010    6.3432974169425185    0.0000000000000004
   0.0000000000000000    0.0000000000000000    6.3432974169425185
Li Sn Pt
8 4 4
direct
   0.5000000000000000    0.0000000000000000    0.0000000000000000 Li
   0.2500000000000000    0.2500000000000000    0.7500000000000000 Li
   0.5000000000000000    0.5000000000000000    0.5000000000000000 Li
   0.2500000000000000    0.7500000000000000    0.2500000000000000 Li
  -0.0000000000000000    0.0000000000000000    0.5000000000000000 Li
   0.7500000000000000    0.2500000000000000    0.2500000000000000 Li
  -0.0000000000000000    0.5000000000000000    0.0000000000000000 Li
   0.7500000000000000    0.7500000000000000    0.7500000000000000 Li
   0.0000000000000000   -0.0000000000000000    0.0000000000000000 Sn
   0.0000000000000000    0.5000000000000000    0.5000000000000000 Sn
   0.5000000000000000   -0.0000000000000000    0.5000000000000000 Sn
   0.5000000000000000    0.5000000000000000    0.0000000000000000 Sn
   0.2500000000000000    0.2500000000000000    0.2500000000000000 Pt
   0.2500000000000000    0.7500000000000000    0.7500000000000000 Pt
   0.7500000000000000    0.2500000000000000    0.7500000000000000 Pt
   0.7500000000000000    0.7500000000000000    0.2500000000000000 Pt
