Sc3 Sn1
1.0
   4.5199483633333335    0.0000000000000000    0.0000000000000003
   0.0000000000000007    4.5199483633333335    0.0000000000000003
   0.0000000000000000    0.0000000000000000    4.5199483633333335
Sc Sn
3 1
direct
   0.0000000000000000    0.5000000000000000    0.5000000000000000 Sc
   0.5000000000000000    0.0000000000000000    0.5000000000000000 Sc
   0.5000000000000000    0.5000000000000000    0.0000000000000000 Sc
   0.0000000000000000    0.0000000000000000    0.0000000000000000 Sn
