Ba2 Zn2 In6
1.0
   4.8745179715970641    0.0000000000000000    0.0000000000000003
   0.0000000000000009    4.8745179715970641    0.0000000000000003
   0.0000000000000000    0.0000000000000000   11.9918428296847317
Ba Zn In
2 2 6
direct
  -0.0000000000000000   -0.0000000000000000    0.0033056937310612 Ba
   0.5000000000000000    0.5000000000000000    0.5033056937310649 Ba
   0.5000000000000000    0.5000000000000000    0.1195504427858645 Zn
   0.0000000000000000    0.0000000000000000    0.6195504427858630 Zn
  -0.0000000000000000    0.5000000000000000    0.2419757293999098 In
   0.5000000000000000   -0.0000000000000000    0.2419757293999098 In
  -0.0000000000000000    0.0000000000000000    0.3931923946832557 In
   0.5000000000000000    0.0000000000000000    0.7419757293999094 In
  -0.0000000000000000    0.5000000000000000    0.7419757293999094 In
   0.5000000000000000    0.5000000000000000    0.8931923946832546 In
