Ni6 Mo2
1.0
   4.2391416020438406    0.0000000000000000    0.0000000000000003
   0.0000000000000007    4.4660633603667348    0.0000000000000003
   0.0000000000000000    0.0000000000000000    5.0299143927341969
Ni Mo
6 2
direct
   0.5000000000000000    0.1598582753696847    0.7514217916502037 Ni
  -0.0000000000000000    0.8401417246303151    0.7485782083497963 Ni
   0.5000000000000000    0.6653601440071831   -0.0000000000000000 Ni
   0.0000000000000000    0.3346398559928168    0.5000000000000000 Ni
  -0.0000000000000000    0.8401417246303151    0.2514217916502032 Ni
   0.5000000000000000    0.1598582753696847    0.2485782083497967 Ni
   0.5000000000000000    0.6544971029636800    0.5000000000000000 Mo
   0.0000000000000000    0.3455028970363201   -0.0000000000000000 Mo
