Nb1 Ru3
1.0
   1.3803302341554451   -2.3908020967806776   -0.0000000000000000
   1.3803302341554451    2.3908020967806776    0.0000000000000000
  -0.0000000000000000    0.0000000000000000    8.9939531289915262
Nb Ru
1 3
direct
   0.0000000000000000   -0.0000000000000000    0.5000000000000000 Nb
   0.0000000000000000   -0.0000000000000000   -0.0000000000000000 Ru
   0.3333333333333357    0.6666666666666643    0.7655123052388008 Ru
   0.3333333333333357    0.6666666666666643    0.2344876947611988 Ru
