Ca8 Ag4 Pd4
1.0
   7.2663485703615001    0.0000000000000000    0.0000000000000004
   0.0000000000000012    7.2663485703615001    0.0000000000000004
   0.0000000000000000    0.0000000000000000    7.2663485703615001
Ca Ag Pd
8 4 4
direct
   0.2500000000000000    0.7500000000000000    0.7500000000000000 Ca
   0.2500000000000000    0.2500000000000000    0.7500000000000000 Ca
   0.2500000000000000    0.2500000000000000    0.2500000000000000 Ca
   0.2500000000000000    0.7500000000000000    0.2500000000000000 Ca
   0.7500000000000000    0.7500000000000000    0.2500000000000000 Ca
   0.7500000000000000    0.2500000000000000    0.2500000000000000 Ca
   0.7500000000000000    0.2500000000000000    0.7500000000000000 Ca
   0.7500000000000000    0.7500000000000000    0.7500000000000000 Ca
   0.5000000000000000   -0.0000000000000000   -0.0000000000000000 Ag
   0.5000000000000000    0.5000000000000000    0.5000000000000000 Ag
   0.0000000000000000   -0.0000000000000000    0.5000000000000000 Ag
   0.0000000000000000    0.5000000000000000   -0.0000000000000000 Ag
   0.0000000000000000    0.0000000000000000    0.0000000000000000 Pd
  -0.0000000000000000    0.5000000000000000    0.5000000000000000 Pd
   0.5000000000000000   -0.0000000000000000    0.5000000000000000 Pd
   0.5000000000000000    0.5000000000000000    0.0000000000000000 Pd
