Ti6 Be2
1.0
   3.8418222618131828   -0.0000000000000000    0.0000000000000002
   0.0000000000000006    3.8418222618131828    0.0000000000000002
   0.0000000000000000   -0.0000000000000000    8.0863520875636770
Ti Be
6 2
direct
   0.0000000000000000    0.5000000000000000    0.2500000000000000 Ti
   0.5000000000000000   -0.0000000000000000    0.2500000000000000 Ti
   0.5000000000000000    0.5000000000000000   -0.0000000000000000 Ti
   0.5000000000000000   -0.0000000000000000    0.7500000000000000 Ti
  -0.0000000000000000    0.5000000000000000    0.7500000000000000 Ti
   0.0000000000000000    0.0000000000000000    0.5000000000000000 Ti
   0.0000000000000000   -0.0000000000000000   -0.0000000000000000 Be
   0.5000000000000000    0.5000000000000000    0.5000000000000000 Be
