Ga2 Cu6
1.0
   3.6910252086140809    0.0000000000000000    0.0000000000000002
   0.0000000000000006    3.6910252086140809    0.0000000000000002
   0.0000000000000000    0.0000000000000000    7.4780617599824080
Ga Cu
2 6
direct
  -0.0000000000000000   -0.0000000000000000    0.0000000000000000 Ga
   0.5000000000000000    0.5000000000000000    0.5000000000000000 Ga
  -0.0000000000000000    0.5000000000000000    0.2500000000000000 Cu
   0.5000000000000000    0.0000000000000000    0.2500000000000000 Cu
   0.5000000000000000    0.5000000000000000    0.0000000000000000 Cu
   0.5000000000000000    0.0000000000000000    0.7500000000000000 Cu
   0.0000000000000000    0.5000000000000000    0.7500000000000000 Cu
   0.0000000000000000   -0.0000000000000000    0.5000000000000000 Cu
