Hf4 Ga6 Cu2
1.0
   0.0000000000000000    9.9235623721774679   -0.0384415469589584
   4.1204543012301693    0.0000000000000000    0.0000000000000000
   0.0000000000000000   -4.2536075155193389   -4.9099184604505881
Hf Ga Cu
4 6 2
direct
   0.4549896119526577   -0.0000000000000000    0.1980346463829549 Hf
   0.5484475084390836   -0.0000000000000000    0.7964246660490562 Hf
   0.9549896119526577    0.5000000000000000    0.1980346463829549 Hf
   0.0484475084390843    0.5000000000000000    0.7964246660490562 Hf
   0.6474875553543826    0.5000000000000000    0.6113839587728480 Ga
   0.1731580072616271    0.0000000000000000    0.2092908684784179 Ga
   0.8414928770835035   -0.0000000000000000    0.7954770620557957 Ga
   0.1474875553543818   -0.0000000000000000    0.6113839587728480 Ga
   0.6731580072616269    0.5000000000000000    0.2092908684784179 Ga
   0.3414928770835037    0.5000000000000000    0.7954770620557957 Ga
   0.3344244399087385    0.5000000000000000    0.3893877882609222 Cu
   0.8344244399087389    0.0000000000000000    0.3893877882609222 Cu
