Sn2 Sb2 Pt2
1.0
   0.0000000000000000    5.4459844064224088    0.0010499634687221
   3.9971433630900952    0.0000000000000000    0.0000000000000000
   0.0000000000000000   -0.2072179265480022   -6.6986326865553920
Sn Sb Pt
2 2 2
direct
   0.2116617656033679   -0.0000000000000000    0.6393642603318769 Sn
   0.7883382343966315    0.0000000000000000    0.3606357396681243 Sn
   0.7069035757093515    0.5000000000000000    0.8663409218910334 Sb
   0.2930964242906483    0.5000000000000000    0.1336590781089660 Sb
   0.5000000000000000    0.5000000000000000    0.5000000000000000 Pt
  -0.0000000000000000   -0.0000000000000000   -0.0000000000000000 Pt
