Ga6 Ni10
1.0
   6.7805430515952176    0.0000000000000000    0.0000000000000004
   0.0000000000000012    7.5424770983992673    0.0000000000000005
   0.0000000000000000    0.0000000000000000    3.7518074626551137
Ga Ni
6 10
direct
   0.5000000000000000    0.2187771530047838    0.5000000000000000 Ga
   0.5000000000000000    0.7812228469952156    0.5000000000000000 Ga
   0.0000000000000000    0.0000000000000000   -0.0000000000000000 Ga
   0.0000000000000000    0.7187771530047844    0.5000000000000000 Ga
   0.0000000000000000    0.2812228469952163    0.5000000000000000 Ga
   0.5000000000000000    0.5000000000000000   -0.0000000000000000 Ga
   0.7748000169268724    0.0000000000000000    0.5000000000000000 Ni
   0.2251999830731280    0.0000000000000000    0.5000000000000000 Ni
   0.2500000000000000    0.7500000000000000   -0.0000000000000000 Ni
   0.5000000000000000    0.0000000000000000   -0.0000000000000000 Ni
   0.2500000000000000    0.2500000000000000   -0.0000000000000000 Ni
   0.2748000169268718    0.5000000000000000    0.5000000000000000 Ni
   0.7251999830731276    0.5000000000000000    0.5000000000000000 Ni
   0.7500000000000000    0.2500000000000000   -0.0000000000000000 Ni
   0.0000000000000000    0.5000000000000000   -0.0000000000000000 Ni
   0.7500000000000000    0.7500000000000000   -0.0000000000000000 Ni
