Co2 Sb2 Te2
1.0
   0.0000000000000000    5.3223329539873223   -0.0011397279036125
   3.8129386421657272    0.0000000000000000    0.0000000000000000
   0.0000000000000000   -0.1325026581281863   -6.2644742078146844
Co Sb Te
2 2 2
direct
   0.5000000000000000    0.5000000000000000    0.5000000000000000 Co
   0.0000000000000000    0.0000000000000000    0.0000000000000000 Co
   0.2810811049665847    0.5000000000000000    0.8619417457885471 Sb
   0.7189188950334160    0.5000000000000000    0.1380582542114533 Sb
   0.7752601815629269    0.0000000000000000    0.6436357806083665 Te
   0.2247398184370731    0.0000000000000000    0.3563642193916333 Te
