In6 Ni9 Se6
1.0
   2.7378528712143311   -4.7421002765914508    0.0000000000000000
   2.7378528712143537    4.7421002765914499   -0.0000000000000000
  -0.0000000000000000   -0.0000000000000000   14.3169447913769776
In Ni Se
6 9 6
direct
  -0.0000000000000000   -0.0000000000000000    0.0000000000000000 In
   0.3333333333333357    0.6666666666666643    0.1666666666666643 In
   0.6666666666666643    0.3333333333333357    0.3333333333333357 In
  -0.0000000000000000   -0.0000000000000000    0.5000000000000000 In
   0.3333333333333357    0.6666666666666643    0.6666666666666643 In
   0.6666666666666643    0.3333333333333357    0.8333333333333357 In
   0.8333333333333357    0.6666666666666643    0.1666666666666643 Ni
   0.8333333333333357    0.1666666666666643    0.1666666666666643 Ni
   0.3333333333333357    0.1666666666666643    0.1666666666666643 Ni
   0.5000000000000000   -0.0000000000000000    0.5000000000000000 Ni
   0.5000000000000000    0.5000000000000000    0.5000000000000000 Ni
   0.0000000000000000    0.5000000000000000    0.5000000000000000 Ni
   0.1666666666666643    0.3333333333333357    0.8333333333333357 Ni
   0.1666666666666643    0.8333333333333357    0.8333333333333357 Ni
   0.6666666666666643    0.8333333333333357    0.8333333333333357 Ni
  -0.0000000000000000    0.0000000000000000    0.2828894455949046 Se
   0.6666666666666643    0.3333333333333357    0.0504438877384282 Se
   0.6666666666666643    0.3333333333333357    0.6162227789282444 Se
   0.3333333333333357    0.6666666666666643    0.3837772210717597 Se
   0.3333333333333357    0.6666666666666643    0.9495561122615730 Se
   0.0000000000000000   -0.0000000000000000    0.7171105544050913 Se
