Co2 Rh4 Se8
1.0
   0.0000000000000000   12.1824976194530681   -0.0091661284158830
   3.7298137677901573    0.0000000000000000    0.0000000000000000
   0.0000000000000000   -3.2562686256125191   -5.5356867511729968
Co Rh Se
2 4 8
direct
  -0.0000000000000000   -0.0000000000000000   -0.0000000000000000 Co
   0.5000000000000000    0.5000000000000000   -0.0000000000000000 Co
   0.2373656393329375    0.5000000000000000    0.7198619827055978 Rh
   0.2626343606670624    0.0000000000000000    0.2801380172944027 Rh
   0.7373656393329375   -0.0000000000000000    0.7198619827055978 Rh
   0.7626343606670625    0.5000000000000000    0.2801380172944027 Rh
   0.1288313783096550    0.5000000000000000    0.9726956933339989 Se
   0.3711686216903448   -0.0000000000000000    0.0273043066660011 Se
   0.3830955554044861    0.5000000000000000    0.5538672515813673 Se
   0.1169044445955138   -0.0000000000000000    0.4461327484186331 Se
   0.6288313783096547   -0.0000000000000000    0.9726956933339989 Se
   0.8711686216903453    0.5000000000000000    0.0273043066660011 Se
   0.8830955554044865   -0.0000000000000000    0.5538672515813673 Se
   0.6169044445955135    0.5000000000000000    0.4461327484186331 Se
