V4 Re4 Mo4
1.0
   3.0767507084182739   -0.0000000000000000    0.0000000000000002
   0.0000000000000007    4.4247566725396634    0.0000000000000003
  -0.0000000000000000   -0.0000000000000000   12.9849076897702851
V Re Mo
4 4 4
direct
   0.5000000000000000    0.0000000000000000    0.8315722987334614 V
   0.5000000000000000    0.5000000000000000    0.3315722987334621 V
   0.0000000000000000    0.0000000000000000    0.3315722987334621 V
   0.0000000000000000    0.5000000000000000    0.8315722987334614 V
   0.0000000000000000   -0.0000000000000000    0.6708013686362125 Re
   0.0000000000000000    0.5000000000000000    0.1708013686362120 Re
   0.5000000000000000   -0.0000000000000000    0.1708013686362120 Re
   0.5000000000000000    0.5000000000000000    0.6708013686362125 Re
   0.0000000000000000   -0.0000000000000000    0.9976253326303289 Mo
   0.0000000000000000    0.5000000000000000    0.4976253326303288 Mo
   0.5000000000000000   -0.0000000000000000    0.4976253326303288 Mo
   0.5000000000000000    0.5000000000000000    0.9976253326303289 Mo
