V2 Cr4 Te8
1.0
   0.0000000000000000   13.9905966772173898    0.0040645802477991
   4.0098617643313155    0.0000000000000000    0.0000000000000000
   0.0000000000000000   -3.3610898869977017   -6.1377164445894872
V Cr Te
2 4 8
direct
   0.0000000000000000   -0.0000000000000000    0.0000000000000000 V
   0.5000000000000000    0.5000000000000000    0.0000000000000000 V
   0.2585501339848230    0.0000000000000000    0.2770990513359711 Cr
   0.2414498660151767    0.5000000000000000    0.7229009486640284 Cr
   0.7585501339848237    0.5000000000000000    0.2770990513359711 Cr
   0.7414498660151763   -0.0000000000000000    0.7229009486640284 Cr
   0.1205756171264470   -0.0000000000000000    0.4509044004232379 Te
   0.3794243828735526    0.5000000000000000    0.5490955995767646 Te
   0.3689210601461998   -0.0000000000000000    0.0303805214508115 Te
   0.1310789398538003    0.5000000000000000    0.9696194785491885 Te
   0.6205756171264478    0.5000000000000000    0.4509044004232379 Te
   0.8794243828735522   -0.0000000000000000    0.5490955995767646 Te
   0.8689210601462007    0.5000000000000000    0.0303805214508115 Te
   0.6310789398537993   -0.0000000000000000    0.9696194785491885 Te
