Ba2 Ge6 Ir2
1.0
   4.6009303388426828    0.0000000000000000    0.0000000000000003
   0.0000000000000007    4.6009303388426828    0.0000000000000003
   0.0000000000000000    0.0000000000000000   10.3360364759036187
Ba Ge Ir
2 6 2
direct
   0.5000000000000000    0.5000000000000000    0.0895230256748590 Ba
  -0.0000000000000000   -0.0000000000000000    0.5895230256748595 Ba
   0.0000000000000000   -0.0000000000000000    0.0012541395690269 Ge
   0.5000000000000000    0.0000000000000000    0.3418281893284977 Ge
   0.0000000000000000    0.5000000000000000    0.3418281893284977 Ge
   0.5000000000000000    0.5000000000000000    0.5012541395690268 Ge
  -0.0000000000000000    0.5000000000000000    0.8418281893284982 Ge
   0.5000000000000000    0.0000000000000000    0.8418281893284982 Ge
  -0.0000000000000000    0.0000000000000000    0.2405674660991246 Ir
   0.5000000000000000    0.5000000000000000    0.7405674660991249 Ir
