Sn2 Ir6
1.0
   2.8424359291539174   -4.9232434465538342   -0.0000000000000000
   2.8424359291539174    4.9232434465538342    0.0000000000000000
   0.0000000000000000    0.0000000000000000    4.5427824594417112
Sn Ir
2 6
direct
   0.6666666666666643    0.3333333333333357    0.2500000000000000 Sn
   0.3333333333333357    0.6666666666666643    0.7500000000000000 Sn
   0.3251104390379666    0.1625552195189833    0.7500000000000000 Ir
   0.8374447804810169    0.1625552195189833    0.7500000000000000 Ir
   0.8374447804810169    0.6748895609620335    0.7500000000000000 Ir
   0.6748895609620335    0.8374447804810169    0.2500000000000000 Ir
   0.1625552195189833    0.8374447804810169    0.2500000000000000 Ir
   0.1625552195189833    0.3251104390379666    0.2500000000000000 Ir
