Al6 V2
1.0
   3.7686278796816928    0.0000000000000000    0.0000000000000002
   0.0000000000000006    3.7686278796816928    0.0000000000000002
   0.0000000000000000    0.0000000000000000    8.3120849756421649
Al V
6 2
direct
   0.5000000000000000    0.5000000000000000   -0.0000000000000000 Al
   0.5000000000000000    0.0000000000000000    0.7500000000000000 Al
   0.0000000000000000    0.5000000000000000    0.7500000000000000 Al
   0.0000000000000000    0.0000000000000000    0.5000000000000000 Al
   0.0000000000000000    0.5000000000000000    0.2500000000000000 Al
   0.5000000000000000    0.0000000000000000    0.2500000000000000 Al
  -0.0000000000000000   -0.0000000000000000    0.0000000000000000 V
   0.5000000000000000    0.5000000000000000    0.5000000000000000 V
