Co8 Ge8
1.0
   0.0000000000000000   11.7285716036719645    0.0039473646380420
   3.7601515067550642    0.0000000000000000    0.0000000000000000
   0.0000000000000000   -0.8124791247286677   -4.8623162404141098
Co Ge
8 8
direct
   0.0000000000000000    0.0000000000000000    0.0000000000000000 Co
   0.0000000000000000   -0.0000000000000000    0.5000000000000000 Co
   0.6961921611562357    0.5000000000000000    0.3258860257695402 Co
   0.8038078388437643   -0.0000000000000000    0.6741139742304598 Co
   0.5000000000000000    0.5000000000000000    0.0000000000000000 Co
   0.5000000000000000    0.5000000000000000    0.5000000000000000 Co
   0.1961921611562361    0.0000000000000000    0.3258860257695402 Co
   0.3038078388437635    0.5000000000000000    0.6741139742304598 Co
   0.6832762822445509    0.5000000000000000    0.8182991336752160 Ge
   0.8167237177554491    0.0000000000000000    0.1817008663247837 Ge
   0.9302059334260774    0.5000000000000000    0.7179524141038535 Ge
   0.5697940665739226   -0.0000000000000000    0.2820475858961464 Ge
   0.1832762822445507    0.0000000000000000    0.8182991336752160 Ge
   0.3167237177554495    0.5000000000000000    0.1817008663247837 Ge
   0.4302059334260774   -0.0000000000000000    0.7179524141038535 Ge
   0.0697940665739226    0.5000000000000000    0.2820475858961464 Ge
