Ga3 Pt2
1.0
   2.1467028218950368   -3.7181983562736849    0.0000000000000000
   2.1467028218950368    3.7181983562736849    0.0000000000000000
   0.0000000000000000    0.0000000000000000    5.3305070404749566
Ga Pt
3 2
direct
  -0.0000000000000000   -0.0000000000000000    0.0000000000000000 Ga
   0.3333333333333357    0.6666666666666643    0.6435920444282952 Ga
   0.6666666666666643    0.3333333333333357    0.3564079555717046 Ga
   0.3333333333333357    0.6666666666666643    0.1656664649247757 Pt
   0.6666666666666643    0.3333333333333357    0.8343335350752248 Pt
