Sc8 Co4
1.0
   6.2980293827611442    0.0000000000000000    0.0000000000000004
   0.0000000000000010    6.2980293827611442    0.0000000000000004
   0.0000000000000000    0.0000000000000000    5.6391601814683252
Sc Co
8 4
direct
   0.3217635461168336    0.8217635461168337   -0.0000000000000000 Sc
   0.1782364538831664    0.3217635461168336    0.0000000000000000 Sc
   0.1782364538831664    0.6782364538831663    0.5000000000000000 Sc
   0.3217635461168336    0.1782364538831664    0.5000000000000000 Sc
   0.8217635461168337    0.3217635461168336    0.5000000000000000 Sc
   0.6782364538831663    0.8217635461168337    0.5000000000000000 Sc
   0.6782364538831663    0.1782364538831664    0.0000000000000000 Sc
   0.8217635461168337    0.6782364538831663   -0.0000000000000000 Sc
   0.0000000000000000    0.0000000000000000    0.7500000000000000 Co
   0.0000000000000000    0.0000000000000000    0.2500000000000000 Co
   0.5000000000000000    0.5000000000000000    0.2500000000000000 Co
   0.5000000000000000    0.5000000000000000    0.7500000000000000 Co
