Ca4 Zn4
1.0
   4.1774676647475655    0.0000000000000000    0.0000000000000003
   0.0000000000000018   11.3081193504078801    0.0000000000000007
   0.0000000000000000   -0.0000000000000000    4.4988195911609852
Ca Zn
4 4
direct
   0.0000000000000000    0.8540074894615883    0.7500000000000000 Ca
   0.5000000000000000    0.6459925105384117    0.2500000000000000 Ca
   0.5000000000000000    0.3540074894615817    0.7500000000000000 Ca
  -0.0000000000000000    0.1459925105384184    0.2500000000000000 Ca
   0.0000000000000000    0.5634027665684248    0.7500000000000000 Zn
   0.5000000000000000    0.9365972334315752    0.2500000000000000 Zn
   0.5000000000000000    0.0634027665684240    0.7500000000000000 Zn
   0.0000000000000000    0.4365972334315770    0.2500000000000000 Zn
