Mn4 In4 Pd8
1.0
   6.4107651329318669    0.0000000000000000    0.0000000000000004
   0.0000000000000010    6.4107651329318669    0.0000000000000004
   0.0000000000000000    0.0000000000000000    6.4107651329318669
Mn In Pd
4 4 8
direct
   0.5000000000000000    0.0000000000000000    0.0000000000000000 Mn
   0.5000000000000000    0.5000000000000000    0.5000000000000000 Mn
   0.0000000000000000   -0.0000000000000000    0.5000000000000000 Mn
  -0.0000000000000000    0.5000000000000000   -0.0000000000000000 Mn
   0.0000000000000000    0.0000000000000000   -0.0000000000000000 In
   0.0000000000000000    0.5000000000000000    0.5000000000000000 In
   0.5000000000000000    0.0000000000000000    0.5000000000000000 In
   0.5000000000000000    0.5000000000000000    0.0000000000000000 In
   0.2500000000000000    0.7500000000000000    0.7500000000000000 Pd
   0.2500000000000000    0.2500000000000000    0.7500000000000000 Pd
   0.2500000000000000    0.2500000000000000    0.2500000000000000 Pd
   0.2500000000000000    0.7500000000000000    0.2500000000000000 Pd
   0.7500000000000000    0.7500000000000000    0.2500000000000000 Pd
   0.7500000000000000    0.2500000000000000    0.2500000000000000 Pd
   0.7500000000000000    0.2500000000000000    0.7500000000000000 Pd
   0.7500000000000000    0.7500000000000000    0.7500000000000000 Pd
