Sr2 Co4 As4
1.0
   3.9747636636223529   -0.0000000000000000    0.0000000000000002
   0.0000000000000006    3.9747636636223529    0.0000000000000002
  -0.0000000000000000   -0.0000000000000000   11.6221474338295874
Sr Co As
2 4 4
direct
   0.0000000000000000    0.0000000000000000   -0.0000000000000000 Sr
   0.5000000000000000    0.5000000000000000    0.5000000000000000 Sr
   0.0000000000000000    0.5000000000000000    0.2500000000000000 Co
   0.5000000000000000   -0.0000000000000000    0.2500000000000000 Co
   0.5000000000000000    0.0000000000000000    0.7500000000000000 Co
  -0.0000000000000000    0.5000000000000000    0.7500000000000000 Co
   0.0000000000000000   -0.0000000000000000    0.3544722693015523 As
   0.5000000000000000    0.5000000000000000    0.1455277306984395 As
   0.5000000000000000    0.5000000000000000    0.8544722693015576 As
  -0.0000000000000000    0.0000000000000000    0.6455277306984424 As
