Cr3 Te4
1.0
   2.0094662099448382   -3.4804975717173257   -0.0000000000000000
   2.0094662099448386    3.4804975717173265    0.0000000000000000
  -0.0000000000000000    0.0000000000000000   12.6457767862684758
Cr Te
3 4
direct
  -0.0000000000000000    0.0000000000000000    0.5000000000000000 Cr
   0.0000000000000000    0.0000000000000000    0.2439302325737127 Cr
  -0.0000000000000000   -0.0000000000000000    0.7560697674262871 Cr
   0.6666666666666643    0.3333333333333357    0.1340128241626702 Te
   0.6666666666666643    0.3333333333333357    0.6260317137945760 Te
   0.3333333333333357    0.6666666666666643    0.8659871758373296 Te
   0.3333333333333357    0.6666666666666643    0.3739682862054237 Te
