Zn2 Se2
1.0
   4.1129631206807016   -0.0000000000000000    0.0000000000000003
   0.0000000000000007    4.1129631206807016    0.0000000000000003
  -0.0000000000000000   -0.0000000000000000    6.0562362638794038
Zn Se
2 2
direct
  -0.0000000000000000   -0.0000000000000000   -0.0000000000000000 Zn
   0.5000000000000000    0.5000000000000000   -0.0000000000000000 Zn
   0.0000000000000000    0.5000000000000000    0.2461330755128463 Se
   0.5000000000000000   -0.0000000000000000    0.7538669244871539 Se
