Ba2 As4 Rh4
1.0
   4.0930948807712433   -0.0000000000000000    0.0000000000000002
   0.0000000000000007    4.0930948807712433    0.0000000000000002
   0.0000000000000000    0.0000000000000000   12.9997100339796301
Ba As Rh
2 4 4
direct
   0.0000000000000000   -0.0000000000000000    0.0000000000000000 Ba
   0.5000000000000000    0.5000000000000000    0.5000000000000000 Ba
  -0.0000000000000000   -0.0000000000000000    0.3562221107289061 As
   0.5000000000000000    0.5000000000000000    0.1437778892710893 As
   0.5000000000000000    0.5000000000000000    0.8562221107289150 As
   0.0000000000000000    0.0000000000000000    0.6437778892710850 As
   0.0000000000000000    0.5000000000000000    0.2500000000000000 Rh
   0.5000000000000000    0.0000000000000000    0.2500000000000000 Rh
   0.5000000000000000    0.0000000000000000    0.7500000000000000 Rh
  -0.0000000000000000    0.5000000000000000    0.7500000000000000 Rh
