In4 Cl4
1.0
   4.4358249097147153    0.0000000000000000    0.0000000000000003
   0.0000000000000020   12.4461434826219026    0.0000000000000008
  -0.0000000000000000   -0.0000000000000000    4.4912594299647335
In Cl
4 4
direct
   0.0000000000000000    0.6136081832773937    0.2503303765395174 In
   0.5000000000000000    0.8863918167226063    0.7503303765395191 In
   0.5000000000000000    0.1136081832773943    0.2503303765395174 In
  -0.0000000000000000    0.3863918167226055    0.7503303765395191 In
   0.0000000000000000    0.8445251021082647    0.2656696234604808 Cl
   0.5000000000000000    0.6554748978917353    0.7656696234604792 Cl
   0.5000000000000000    0.3445251021082665    0.2656696234604808 Cl
   0.0000000000000000    0.1554748978917304    0.7656696234604792 Cl
