Sr2 Cd4 Ge4
1.0
   4.5795065372514046    0.0000000000000000    0.0000000000000003
   0.0000000000000007    4.5795065372514046    0.0000000000000003
   0.0000000000000000    0.0000000000000000   11.8230717909232066
Sr Cd Ge
2 4 4
direct
  -0.0000000000000000    0.0000000000000000   -0.0000000000000000 Sr
   0.5000000000000000    0.5000000000000000    0.5000000000000000 Sr
   0.0000000000000000    0.5000000000000000    0.7500000000000000 Cd
   0.5000000000000000    0.0000000000000000    0.7500000000000000 Cd
   0.5000000000000000    0.0000000000000000    0.2500000000000000 Cd
  -0.0000000000000000    0.5000000000000000    0.2500000000000000 Cd
   0.0000000000000000   -0.0000000000000000    0.6083187734804798 Ge
   0.5000000000000000    0.5000000000000000    0.8916812265195202 Ge
   0.5000000000000000    0.5000000000000000    0.1083187734804795 Ge
  -0.0000000000000000    0.0000000000000000    0.3916812265195205 Ge
