Ni1 Ag3
1.0
   4.0041310126855993    0.0000000000000000    0.0000000000000002
   0.0000000000000006    4.0041310126855993    0.0000000000000002
   0.0000000000000000   -0.0000000000000000    4.0041310126855993
Ni Ag
1 3
direct
   0.5000000000000000    0.5000000000000000    0.5000000000000000 Ni
   0.5000000000000000    0.0000000000000000    0.0000000000000000 Ag
   0.0000000000000000   -0.0000000000000000    0.5000000000000000 Ag
  -0.0000000000000000    0.5000000000000000    0.0000000000000000 Ag
