Ru2 Rh6
1.0
   2.7248683021330344   -4.7196103432283580   -0.0000000000000000
   2.7248683021330344    4.7196103432283580   -0.0000000000000000
   0.0000000000000000   -0.0000000000000000    4.3509166850030487
Ru Rh
2 6
direct
   0.3333333333333357    0.6666666666666643    0.7500000000000000 Ru
   0.6666666666666643    0.3333333333333357    0.2500000000000000 Ru
   0.1674499039102442    0.3348998078204883    0.2500000000000000 Rh
   0.6651001921795117    0.8325500960897558    0.2500000000000000 Rh
   0.1674499039102442    0.8325500960897558    0.2500000000000000 Rh
   0.8325500960897558    0.6651001921795117    0.7500000000000000 Rh
   0.3348998078204883    0.1674499039102442    0.7500000000000000 Rh
   0.8325500960897558    0.1674499039102442    0.7500000000000000 Rh
