Tl4 Ga4 Se8
1.0
   8.2296689416654729    0.0000000000000000    0.0000000000000005
   0.0000000000000013    8.2296689416654729    0.0000000000000005
   0.0000000000000000    0.0000000000000000    6.5331034491412305
Tl Ga Se
4 4 8
direct
   0.0000000000000000   -0.0000000000000000    0.7500000000000000 Tl
  -0.0000000000000000    0.0000000000000000    0.2500000000000000 Tl
   0.5000000000000000    0.5000000000000000    0.2500000000000000 Tl
   0.5000000000000000    0.5000000000000000    0.7500000000000000 Tl
   0.5000000000000000   -0.0000000000000000    0.2500000000000000 Ga
   0.5000000000000000    0.0000000000000000    0.7500000000000000 Ga
  -0.0000000000000000    0.5000000000000000    0.7500000000000000 Ga
  -0.0000000000000000    0.5000000000000000    0.2500000000000000 Ga
   0.3407893825590726    0.1592106174409274    0.0000000000000000 Se
   0.3407893825590726    0.8407893825590727    0.5000000000000000 Se
   0.6592106174409273    0.8407893825590727    0.0000000000000000 Se
   0.6592106174409273    0.1592106174409274    0.5000000000000000 Se
   0.8407893825590727    0.6592106174409273    0.5000000000000000 Se
   0.8407893825590727    0.3407893825590726   -0.0000000000000000 Se
   0.1592106174409274    0.3407893825590726    0.5000000000000000 Se
   0.1592106174409274    0.6592106174409273    0.0000000000000000 Se
