Fe2 Sb2 As2
1.0
   3.0516887136110453   -0.0000000000000000    0.0000000000000002
   0.0000000000000009    5.5585867805090947    0.0000000000000003
   0.0000000000000000   -0.0000000000000000    6.2658288688260537
Fe Sb As
2 2 2
direct
   0.0000000000000000    0.2734824117534634    0.6919919487012471 Fe
   0.5000000000000000    0.7265175882465363    0.1919919487012470 Fe
  -0.0000000000000000    0.0706730639777143    0.0571639308686666 Sb
   0.5000000000000000    0.9293269360222861    0.5571639308686664 Sb
   0.0000000000000000    0.4417910682818096    0.3432441204300912 As
   0.5000000000000000    0.5582089317181903    0.8432441204300912 As
