Nb1 Ni3
1.0
   3.6869264951010710    0.0000000000000000    0.0000000000000002
   0.0000000000000006    3.6869264951010710    0.0000000000000002
  -0.0000000000000000    0.0000000000000000    3.6869264951010710
Nb Ni
1 3
direct
  -0.0000000000000000   -0.0000000000000000    0.0000000000000000 Nb
  -0.0000000000000000    0.5000000000000000    0.5000000000000000 Ni
   0.5000000000000000    0.5000000000000000    0.0000000000000000 Ni
   0.5000000000000000    0.0000000000000000    0.5000000000000000 Ni
