In32 Au16
1.0
  13.4397734067667987    0.0000000000000000   -6.7198867033833993
  -0.0000000000000038   13.4397734067667987   -6.7198867033833993
   0.0000000000000000    0.0000000000000000    6.7198867033833993
In Au
32 16
direct
   0.6250000000000000    0.8749999999999999    0.7499999999999999 In
   0.1250000000000000    0.3750000000000000    0.7500000000000000 In
   0.1250000000000000    0.8749999999999999    0.2499999999999998 In
   0.6250000000000000    0.3749999999999999    0.2500000000000000 In
   0.8749999999999999    0.8749999999999999    0.9999999999999998 In
   0.3750000000000000    0.3749999999999999    0.0000000000000000 In
   0.3750000000000000    0.8749999999999999    0.5000000000000000 In
   0.8749999999999999    0.3749999999999999    0.4999999999999998 In
   0.8749999999999999    0.6249999999999999    0.7499999999999998 In
   0.3750000000000000    0.1250000000000000    0.7500000000000000 In
   0.3750000000000000    0.6249999999999999    0.2500000000000000 In
   0.8749999999999999    0.1250000000000000    0.2499999999999998 In
   0.6250000000000000    0.6249999999999999    0.4999999999999999 In
   0.1250000000000000    0.1250000000000000    0.4999999999999999 In
   0.1250000000000000    0.6249999999999999    0.9999999999999999 In
   0.6250000000000000    0.1250000000000000    0.9999999999999999 In
   0.6250000000000000    0.6249999999999999    0.9999999999999999 In
   0.1250000000000000    0.1250000000000000    0.0000000000000000 In
   0.1250000000000000    0.6249999999999999    0.5000000000000000 In
   0.6250000000000000    0.1250000000000000    0.4999999999999998 In
   0.8749999999999999    0.6250000000000000    0.2500000000000000 In
   0.3750000000000000    0.1250000000000000    0.2500000000000000 In
   0.3750000000000000    0.6250000000000000    0.7500000000000000 In
   0.8749999999999999    0.1250000000000000    0.7499999999999998 In
   0.8749999999999999    0.8749999999999999    0.4999999999999998 In
   0.3750000000000000    0.3749999999999999    0.5000000000000000 In
   0.3750000000000000    0.8749999999999999    0.0000000000000000 In
   0.8749999999999999    0.3749999999999999    0.9999999999999998 In
   0.6250000000000000    0.8749999999999999    0.2499999999999998 In
   0.1250000000000000    0.3749999999999999    0.2500000000000000 In
   0.1250000000000000    0.8749999999999999    0.7500000000000000 In
   0.6250000000000000    0.3749999999999999    0.7499999999999998 In
   0.5000000000000000    0.4999999999999999    0.0000000000000000 Au
   0.0000000000000000    0.0000000000000000    0.0000000000000000 Au
   0.0000000000000000    0.5000000000000000    0.5000000000000000 Au
   0.5000000000000000    0.0000000000000000    0.5000000000000000 Au
   0.7500000000000000    0.7500000000000000    0.5000000000000001 Au
   0.2500000000000000    0.2500000000000000    0.4999999999999999 Au
   0.2500000000000000    0.7500000000000000    0.0000000000000000 Au
   0.7500000000000000    0.2499999999999999    0.9999999999999999 Au
   0.5000000000000000    0.7500000000000000    0.7500000000000000 Au
   0.0000000000000000    0.2500000000000000    0.7500000000000000 Au
   0.0000000000000000    0.7500000000000000    0.2500000000000000 Au
   0.5000000000000000    0.2499999999999999    0.2500000000000000 Au
   0.7500000000000000    0.4999999999999999    0.7499999999999999 Au
   0.2500000000000000    0.0000000000000000    0.7499999999999999 Au
   0.2500000000000000    0.4999999999999999    0.2499999999999998 Au
   0.7500000000000000    0.0000000000000000    0.2500000000000000 Au
