Sc2 Ag4
1.0
   3.5628779130463739    0.0000000000000000    3.5628779130463739
   7.1257558260927478    8.9883454182215683   -0.0000000000000018
   0.0000000000000000    0.0000000000000000    3.5628779130463739
Sc Ag
2 4
direct
   0.0000000000000000    0.0000000000000000    0.0000000000000000 Sc
   0.5000000000000000    0.5000000000000000    0.0000000000000000 Sc
   0.1667394884267850    0.1666302557866075    0.3332605115732150 Ag
   0.3332605115732150    0.3333697442133925    0.6667394884267850 Ag
   0.6667394884267850    0.6666302557866075    0.3332605115732150 Ag
   0.8332605115732150    0.8333697442133925    0.6667394884267850 Ag
