Zr2 Au4
1.0
   8.8627816240461996    0.0000000000000000    0.0000000000000005
   0.0000000000000006    3.5849685429766365   -3.5849685429766360
   0.0000000000000000    0.0000000000000000    3.5849685429766369
Zr Au
2 4
direct
   0.0000000000000000    0.0000000000000000    0.0000000000000000 Zr
   0.5000000000000000    0.5000000000000000    0.0000000000000000 Zr
   0.8317036937408986    0.5000000000000000    0.0000000000000000 Au
   0.6682963062591014    0.0000000000000000    0.0000000000000000 Au
   0.3317036937408986    0.0000000000000000    0.0000000000000000 Au
   0.1682963062591014    0.5000000000000000    0.0000000000000000 Au
