V1 Zn3
1.0
   3.8289332109596459    0.0000000000000000   -3.8289332109596455
  -0.0000000000000002    3.8289332109596459   -3.8289332109596455
   0.0000000000000000    0.0000000000000000    3.8289332109596459
V Zn
1 3
direct
   0.0000000000000000    0.0000000000000000    0.0000000000000000 V
   0.4999999999999999    0.4999999999999999    0.0000000000000000 Zn
   0.4999999999999999    0.9999999999999999    0.0000000000000000 Zn
   0.0000000000000000    0.4999999999999999    0.0000000000000000 Zn
