Zr4 As4
1.0
  12.9600018959940151    0.0000000000000000    0.0000000000000008
   0.0000000000000005    3.3196198687887857   -5.7497502745573144
   0.0000000000000000    0.0000000000000000    3.8331668497048748
Zr As
4 4
direct
   0.3836727906721933    0.6666666666666666    0.0000000000000000 Zr
   0.8836727906721933    0.3333333333333334    0.0000000000000000 Zr
   0.6163272093278067    0.3333333333333333    0.9999999999999998 Zr
   0.1163272093278067    0.6666666666666665    0.9999999999999998 Zr
   0.5000000000000000    0.0000000000000000    0.0000000000000000 As
   0.0000000000000000    0.0000000000000000    0.0000000000000000 As
   0.7500000000000000    0.6666666666666666    0.0000000000000000 As
   0.2499999999999999    0.3333333333333333    0.9999999999999998 As
