Te8 Ru4
1.0
   8.1259154237563926    0.0000000000000000    5.3470901170557248
   4.0629577118781945    6.4626766659339232    0.0000000000000005
   0.0000000000000000    0.0000000000000000    5.3470901170557266
Te Ru
8 4
direct
   0.3167393530308404    0.3665212939383195    0.9050682331920397 Te
   0.8167393530308402    0.3665212939383195    0.4050682331920398 Te
   0.1832606469691599    0.6334787060616804    0.5949317668079599 Te
   0.6832606469691598    0.6334787060616806    0.0949317668079601 Te
   0.1832606469691599    0.1334787060616805    0.5385469392537201 Te
   0.6832606469691598    0.1334787060616805    0.0385469392537203 Te
   0.8167393530308403    0.8665212939383197    0.4614530607462797 Te
   0.3167393530308402    0.8665212939383197    0.9614530607462797 Te
   0.5000000000000001    0.0000000000000000    0.4999999999999999 Ru
   0.0000000000000000    0.0000000000000000    0.0000000000000000 Ru
   0.0000000000000001    0.5000000000000000    0.4999999999999998 Ru
   0.5000000000000000    0.5000000000000001    0.9999999999999999 Ru
