Re2 Os2
1.0
   4.7923431737902860    0.0000000000000000    0.0000000000000003
  -0.0000000000000003    4.3935078329309967    2.7668606214368872
   0.0000000000000000    0.0000000000000000    2.7668606214368872
Re Os
2 2
direct
   0.3333333333333333    0.5000000000000000    0.5000000000000000 Re
   0.8333333333333333    0.4999999999999999    0.0000000000000000 Re
   0.5000000000000000    0.0000000000000000    0.5000000000000000 Os
   0.0000000000000000    0.0000000000000000    0.0000000000000000 Os
