Bi4 Pt4
1.0
   5.5749569654075941    0.0000000000000000    0.0000000000000003
   0.0000000000000012    7.6617380270790845   -8.8470130247889980
   0.0000000000000000    0.0000000000000000    4.4235065123944999
Bi Pt
4 4
direct
   0.2500000000000000    0.3333333333333333    0.6666666666666667 Bi
   0.2500000000000000    0.8333333333333334    0.1666666666666666 Bi
   0.7500000000000000    0.1666666666666666    0.8333333333333334 Bi
   0.7500000000000000    0.6666666666666667    0.3333333333333334 Bi
   0.0000000000000000    0.4999999999999999    0.5000000000000000 Pt
   0.0000000000000000    0.0000000000000000    0.0000000000000000 Pt
   0.5000000000000000    0.4999999999999999    0.5000000000000000 Pt
   0.5000000000000000    0.0000000000000000    0.0000000000000000 Pt
