Cu2 Pd6
1.0
   7.8882202315396279    0.0000000000000000    0.0000000000000005
   0.0000000000000006    3.8435299684936020   -3.8435299684936015
   0.0000000000000000    0.0000000000000000    3.8435299684936020
Cu Pd
2 6
direct
   0.0000000000000000    0.0000000000000000    0.0000000000000000 Cu
   0.5000000000000000    0.5000000000000000    0.0000000000000000 Cu
   0.7500000000000000    0.5000000000000000    0.5000000000000000 Pd
   0.7500000000000000    0.0000000000000000    0.5000000000000000 Pd
   0.0000000000000000    0.5000000000000000    0.0000000000000000 Pd
   0.2500000000000000    0.0000000000000000    0.5000000000000000 Pd
   0.2500000000000000    0.5000000000000000    0.5000000000000000 Pd
   0.5000000000000000    0.0000000000000000    0.0000000000000000 Pd
