Al16 Pd16
1.0
   9.8085331963362741    0.0000000000000000   -4.9042665981681370
  -0.0000000000000028    9.8085331963362741   -4.9042665981681370
   0.0000000000000000    0.0000000000000000    4.9042665981681370
Al Pd
16 16
direct
   0.9221123333264422    0.9221123333264424    0.6884493333057691 Al
   0.4221123333264423    0.4221123333264423    0.6884493333057693 Al
   0.4221123333264423    0.9221123333264424    0.1884493333057695 Al
   0.9221123333264422    0.4221123333264423    0.1884493333057691 Al
   0.5778876666735577    0.6721123333264423    0.9057753333471155 Al
   0.0778876666735577    0.1721123333264423    0.9057753333471155 Al
   0.0778876666735577    0.6721123333264423    0.4057753333471155 Al
   0.5778876666735577    0.1721123333264423    0.4057753333471155 Al
   0.8278876666735577    0.5778876666735577    0.7500000000000001 Al
   0.3278876666735577    0.0778876666735577    0.7500000000000000 Al
   0.3278876666735577    0.5778876666735577    0.2500000000000000 Al
   0.8278876666735577    0.0778876666735578    0.2500000000000000 Al
   0.6721123333264423    0.8278876666735577    0.6557753333471155 Al
   0.1721123333264423    0.3278876666735577    0.6557753333471155 Al
   0.1721123333264423    0.8278876666735577    0.1557753333471155 Al
   0.6721123333264423    0.3278876666735577    0.1557753333471155 Al
   0.5734729984676932    0.5734729984676931    0.2938919938707725 Pd
   0.0734729984676931    0.0734729984676932    0.2938919938707726 Pd
   0.0734729984676931    0.5734729984676932    0.7938919938707726 Pd
   0.5734729984676932    0.0734729984676932    0.7938919938707726 Pd
   0.9265270015323068    0.8234729984676931    0.1030540030646137 Pd
   0.4265270015323068    0.3234729984676932    0.1030540030646137 Pd
   0.4265270015323068    0.8234729984676931    0.6030540030646137 Pd
   0.9265270015323068    0.3234729984676932    0.6030540030646137 Pd
   0.6765270015323068    0.9265270015323069    0.2500000000000002 Pd
   0.1765270015323069    0.4265270015323069    0.2500000000000002 Pd
   0.1765270015323069    0.9265270015323069    0.7500000000000002 Pd
   0.6765270015323068    0.4265270015323068    0.7500000000000000 Pd
   0.8234729984676932    0.6765270015323068    0.3530540030646137 Pd
   0.3234729984676932    0.1765270015323069    0.3530540030646137 Pd
   0.3234729984676932    0.6765270015323068    0.8530540030646137 Pd
   0.8234729984676932    0.1765270015323069    0.8530540030646137 Pd
