Al4 Pd4
1.0
   4.9042665981681370    0.0000000000000000    4.9042665981681361
   4.9042665981681370    4.9042665981681379   -0.0000000000000011
   0.0000000000000000    0.0000000000000000    4.9042665981681370
Al Pd
4 4
direct
   0.3115506666942307    0.8442246666528844    0.5326739999586536 Al
   0.0000000000000000    0.3442246666528844    0.1557753333471155 Al
   0.4999999999999999    0.1557753333471154    0.1557753333471155 Al
   0.1884493333057691    0.6557753333471154    0.1557753333471155 Al
   0.7061080061292274    0.1469459969353863    0.4408379908061589 Pd
   0.0000000000000000    0.6469459969353862    0.8530540030646134 Pd
   0.5000000000000000    0.8530540030646135    0.8530540030646137 Pd
   0.7938919938707725    0.3530540030646135    0.8530540030646139 Pd
