V4 Ni8
1.0
   2.5366006812898476    0.0000000000000000    0.0000000000000002
   0.0000000000000024   15.2241982481760001   -3.5620521701969126
   0.0000000000000000    0.0000000000000000    3.5620521701969121
V Ni
4 8
direct
   0.0000000000000000    0.5000000000000000    0.5000000000000000 V
   0.0000000000000000    0.0000000000000000    0.0000000000000000 V
   0.5000000000000000    0.2500000000000000    0.7500000000000000 V
   0.5000000000000000    0.7500000000000000    0.2500000000000000 V
   0.5000000000000000    0.4161153070013696    0.9161153070013697 Ni
   0.5000000000000000    0.9161153070013696    0.4161153070013697 Ni
   0.0000000000000000    0.3338846929986303    0.3338846929986303 Ni
   0.0000000000000000    0.8338846929986303    0.8338846929986303 Ni
   0.0000000000000000    0.1661153070013697    0.1661153070013697 Ni
   0.0000000000000000    0.6661153070013697    0.6661153070013697 Ni
   0.5000000000000000    0.0838846929986303    0.5838846929986303 Ni
   0.5000000000000000    0.5838846929986302    0.0838846929986302 Ni
