Y16 Pb32
1.0
  33.6472929167764576    0.0000000000000000   -4.5437558553346102
   0.0000000000000035    9.0884611848431867   -4.5437558553346147
   0.0000000000000000    0.0000000000000000    4.5437558553346173
Y Pb
16 32
direct
   0.9521898268030400    0.6249999999999999    0.5771898268030398 Y
   0.4521898268030400    0.1250000000000000    0.5771898268030399 Y
   0.4521898268030400    0.6249999999999999    0.0771898268030398 Y
   0.9521898268030400    0.1249999999999999    0.0771898268030398 Y
   0.7978101731969600    0.8750000000000000    0.1728101731969600 Y
   0.2978101731969600    0.3749999999999999    0.1728101731969600 Y
   0.2978101731969600    0.8749999999999999    0.6728101731969600 Y
   0.7978101731969600    0.3749999999999999    0.6728101731969600 Y
   0.7021898268030400    0.6250000000000000    0.8271898268030399 Y
   0.2021898268030400    0.1250000000000000    0.8271898268030400 Y
   0.2021898268030400    0.6250000000000000    0.3271898268030400 Y
   0.7021898268030400    0.1250000000000000    0.3271898268030400 Y
   0.5478101731969600    0.8750000000000000    0.4228101731969598 Y
   0.0478101731969600    0.3750000000000000    0.4228101731969600 Y
   0.0478101731969600    0.8750000000000000    0.9228101731969600 Y
   0.5478101731969600    0.3749999999999999    0.9228101731969599 Y
   0.9664001901474116    0.8749999999999999    0.3414001901474115 Pb
   0.4664001901474117    0.3749999999999999    0.3414001901474117 Pb
   0.4664001901474117    0.8749999999999999    0.8414001901474117 Pb
   0.9664001901474116    0.3749999999999999    0.8414001901474117 Pb
   0.7835998098525883    0.6250000000000000    0.4085998098525882 Pb
   0.2835998098525883    0.1250000000000000    0.4085998098525882 Pb
   0.2835998098525883    0.6250000000000000    0.9085998098525881 Pb
   0.7835998098525883    0.1250000000000000    0.9085998098525881 Pb
   0.8737995983508187    0.8750000000000000    0.7487995983508184 Pb
   0.3737995983508187    0.3749999999999999    0.7487995983508187 Pb
   0.3737995983508187    0.8749999999999999    0.2487995983508184 Pb
   0.8737995983508187    0.3749999999999999    0.2487995983508184 Pb
   0.8762004016491813    0.6249999999999999    0.0012004016491811 Pb
   0.3762004016491813    0.1250000000000000    0.0012004016491813 Pb
   0.3762004016491813    0.6249999999999999    0.5012004016491813 Pb
   0.8762004016491813    0.1249999999999999    0.5012004016491813 Pb
   0.7164001901474117    0.8750000000000000    0.5914001901474116 Pb
   0.2164001901474118    0.3750000000000000    0.5914001901474117 Pb
   0.2164001901474118    0.8749999999999999    0.0914001901474117 Pb
   0.7164001901474117    0.3749999999999999    0.0914001901474117 Pb
   0.5335998098525883    0.6249999999999999    0.6585998098525880 Pb
   0.0335998098525883    0.1250000000000000    0.6585998098525883 Pb
   0.0335998098525883    0.6250000000000000    0.1585998098525883 Pb
   0.5335998098525883    0.1250000000000000    0.1585998098525883 Pb
   0.6237995983508187    0.8749999999999999    0.9987995983508186 Pb
   0.1237995983508187    0.3749999999999999    0.9987995983508187 Pb
   0.1237995983508187    0.8749999999999999    0.4987995983508187 Pb
   0.6237995983508187    0.3749999999999999    0.4987995983508184 Pb
   0.6262004016491813    0.6249999999999999    0.2512004016491812 Pb
   0.1262004016491813    0.1250000000000000    0.2512004016491813 Pb
   0.1262004016491813    0.6250000000000000    0.7512004016491813 Pb
   0.6262004016491813    0.1250000000000000    0.7512004016491812 Pb
