Nb10 Te8
1.0
  14.7178530645097663    0.0000000000000000    0.0000000000000009
   7.3589265322548840    7.3589265322548849    3.6851788252582707
   0.0000000000000000    0.0000000000000000    3.6851788252582711
Nb Te
10 8
direct
   0.0000000000000000    0.0000000000000000    0.0000000000000000 Nb
   0.3807766074473947    0.3073386763225194    0.6926613236774806 Nb
   0.8118847162300860    0.0688918912173087    0.4311081087826913 Nb
   0.1881152837699140    0.9311081087826913    0.5688918912173087 Nb
   0.6192233925526054    0.6926613236774806    0.3073386763225194 Nb
   0.5000000000000000    0.0000000000000000    0.5000000000000000 Nb
   0.8807766074473946    0.3073386763225194    0.1926613236774806 Nb
   0.3118847162300860    0.0688918912173085    0.9311081087826913 Nb
   0.6881152837699140    0.9311081087826913    0.0688918912173087 Nb
   0.1192233925526054    0.6926613236774806    0.8073386763225194 Nb
   0.2850937301517115    0.6538610637960787    0.3461389362039214 Te
   0.5610452060522099    0.2240485240995016    0.2759514759004984 Te
   0.4389547939477901    0.7759514759004986    0.7240485240995014 Te
   0.7149062698482885    0.3461389362039213    0.6538610637960787 Te
   0.7850937301517114    0.6538610637960787    0.8461389362039213 Te
   0.0610452060522100    0.2240485240995015    0.7759514759004985 Te
   0.9389547939477900    0.7759514759004986    0.2240485240995014 Te
   0.2149062698482887    0.3461389362039213    0.1538610637960787 Te
