Nb10 Te8
1.0
  10.4070937064220654    0.0000000000000000    0.0000000000000006
  -0.0000000000000029   10.4070937064220637    7.3703576505165422
   0.0000000000000000    0.0000000000000000    3.6851788252582711
Nb Te
10 8
direct
   0.0000000000000000    0.0000000000000000    0.0000000000000000 Nb
   0.3807766074473947    0.6881152837699140    0.6237694324601718 Nb
   0.8118847162300860    0.8807766074473946    0.7384467851052107 Nb
   0.1881152837699140    0.1192233925526054    0.2615532148947888 Nb
   0.6192233925526054    0.3118847162300860    0.3762305675398281 Nb
   0.5000000000000000    0.5000000000000000    0.5000000000000000 Nb
   0.8807766074473946    0.1881152837699139    0.1237694324601719 Nb
   0.3118847162300860    0.3807766074473945    0.2384467851052108 Nb
   0.6881152837699140    0.6192233925526054    0.7615532148947892 Nb
   0.1192233925526054    0.8118847162300860    0.8762305675398281 Nb
   0.2850937301517115    0.9389547939477901    0.1220904121044198 Te
   0.5610452060522099    0.7850937301517115    0.9298125396965771 Te
   0.4389547939477901    0.2149062698482888    0.0701874603034227 Te
   0.7149062698482885    0.0610452060522099    0.8779095878955800 Te
   0.7850937301517114    0.4389547939477901    0.6220904121044195 Te
   0.0610452060522100    0.2850937301517115    0.4298125396965771 Te
   0.9389547939477900    0.7149062698482886    0.5701874603034227 Te
   0.2149062698482887    0.5610452060522100    0.3779095878955800 Te
