Nb2 Co6
1.0
   4.1391759497285383    0.0000000000000000    0.0000000000000003
   0.0000000000000007    4.4754768986392239   -7.7517533765439310
   0.0000000000000000    0.0000000000000000    5.1678355843626189
Nb Co
2 6
direct
   0.2500000000000000    0.3333333333333334    0.0000000000000000 Nb
   0.7500000000000000    0.6666666666666665    0.9999999999999998 Nb
   0.7500000000000000    0.1577784264578206    0.0000000000000000 Co
   0.7500000000000000    0.1577784264578206    0.4733352793734618 Co
   0.2500000000000000    0.3155568529156412    0.4733352793734618 Co
   0.2500000000000000    0.8422215735421794    0.0000000000000000 Co
   0.2500000000000000    0.8422215735421794    0.5266647206265382 Co
   0.7500000000000000    0.6844431470843588    0.5266647206265382 Co
