Pd6 Pb2
1.0
   4.1087257917002464    0.0000000000000000   -4.1087257917002455
   0.0000000000000013    8.2174515834004929   -4.1087257917002464
   0.0000000000000000    0.0000000000000000    4.1087257917002464
Pd Pb
6 2
direct
   0.0000000000000000    0.2500000000000000    0.7500000000000000 Pd
   0.0000000000000000    0.7500000000000000    0.2500000000000000 Pd
   0.5000000000000000    0.2500000000000000    0.7499999999999999 Pd
   0.5000000000000000    0.7500000000000000    0.2500000000000000 Pd
   0.5000000000000000    0.0000000000000000    0.0000000000000000 Pd
   0.5000000000000000    0.4999999999999999    0.5000000000000000 Pd
   0.0000000000000000    0.0000000000000000    0.0000000000000000 Pb
   0.0000000000000000    0.5000000000000000    0.5000000000000000 Pb
