Ti12 Sn4
1.0
  10.5210916763156739    0.0000000000000000    0.0000000000000006
   0.0000000000000008    4.7500726316171527    0.0000000000000003
   0.0000000000000000    0.0000000000000000    5.7662332554080047
Ti Sn
12 4
direct
   0.3223724123971347    0.7500000000000000    0.5000000000000000 Ti
   0.1776275876028653    0.2500000000000000    0.0000000000000000 Ti
   0.0732188900604687    0.7500000000000000    0.2409120769511369 Ti
   0.4267811099395313    0.2500000000000000    0.7409120769511369 Ti
   0.4267811099395313    0.2500000000000000    0.2590879230488632 Ti
   0.0732188900604687    0.7500000000000000    0.7590879230488632 Ti
   0.8223724123971348    0.7500000000000000    0.0000000000000000 Ti
   0.6776275876028652    0.2500000000000000    0.5000000000000000 Ti
   0.5732188900604686    0.7499999999999999    0.7409120769511368 Ti
   0.9267811099395313    0.2500000000000000    0.2409120769511368 Ti
   0.9267811099395313    0.2500000000000000    0.7590879230488633 Ti
   0.5732188900604686    0.7500000000000000    0.2590879230488632 Ti
   0.3328365353930866    0.7499999999999999    0.0000000000000000 Sn
   0.1671634646069133    0.2500000000000000    0.5000000000000001 Sn
   0.8328365353930867    0.7500000000000000    0.5000000000000000 Sn
   0.6671634646069133    0.2500000000000000    0.0000000000000000 Sn
