V4 Re4
1.0
   8.7314754716227228    0.0000000000000000   -3.0439152697170444
  -0.0000000000000012    4.2558060123164037   -3.0439152697170471
   0.0000000000000000    0.0000000000000000    3.0439152697170471
V Re
4 4
direct
   0.0000000000000000    0.4999999999999999    0.0000000000000000 V
   0.5000000000000000    0.5000000000000000    0.5000000000000000 V
   0.2500000000000000    0.4999999999999999    0.7500000000000000 V
   0.7500000000000000    0.5000000000000000    0.2500000000000000 V
   0.0000000000000000    0.0000000000000000    0.0000000000000000 Re
   0.5000000000000000    0.0000000000000000    0.5000000000000001 Re
   0.2500000000000000    0.0000000000000000    0.7500000000000001 Re
   0.7500000000000000    0.0000000000000000    0.2500000000000002 Re
