Ti6 Te8
1.0
  14.4874647335328692    0.0000000000000000   -3.8074624090601796
  11.1175270145396805    6.1793932948040116    0.0000000000000008
   0.0000000000000000    0.0000000000000000    3.8074624090601810
Ti Te
6 8
direct
   0.0000000000000000    0.0000000000000000    0.0000000000000000 Ti
   0.4525054232606570    0.2956218847306431    0.9525054232606570 Ti
   0.0474945767393428    0.7043781152693569    0.0474945767393428 Ti
   0.4999999999999999    0.0000000000000000    0.0000000000000000 Ti
   0.9525054232606570    0.2956218847306431    0.9525054232606570 Ti
   0.5474945767393429    0.7043781152693569    0.0474945767393429 Ti
   0.8259385669793992    0.0392159970458081    0.3259385669793992 Te
   0.6740614330206007    0.9607840029541919    0.6740614330206007 Te
   0.3409893398908749    0.5512006486997691    0.3409893398908749 Te
   0.1590106601091250    0.4487993513002309    0.6590106601091250 Te
   0.3259385669793990    0.0392159970458081    0.3259385669793990 Te
   0.1740614330206007    0.9607840029541919    0.6740614330206007 Te
   0.8409893398908750    0.5512006486997691    0.3409893398908750 Te
   0.6590106601091249    0.4487993513002309    0.6590106601091249 Te
