Zr16 Sb8
1.0
  15.9853405218238880    0.0000000000000000    0.0000000000000010
   0.0000000000000013    8.2730923282638802   -4.1365461641319401
   0.0000000000000000    0.0000000000000000    4.1365461641319410
Zr Sb
16 8
direct
   0.0000000000000000    0.5000000000000000    0.0000000000000000 Zr
   0.0000000000000000    0.0000000000000000    0.5000000000000000 Zr
   0.0000000000000000    0.2500000000000000    0.2500000000000000 Zr
   0.0000000000000000    0.7500000000000000    0.7500000000000000 Zr
   0.6773531317027306    0.5000000000000000    0.5000000000000000 Zr
   0.6773531317027306    0.0000000000000000    0.0000000000000000 Zr
   0.8226468682972694    0.2500000000000000    0.7500000000000000 Zr
   0.8226468682972694    0.7500000000000000    0.2499999999999999 Zr
   0.5000000000000000    0.2500000000000000    0.2500000000000000 Zr
   0.5000000000000000    0.7500000000000000    0.7500000000000000 Zr
   0.5000000000000000    0.5000000000000000    0.0000000000000000 Zr
   0.5000000000000000    0.0000000000000000    0.5000000000000000 Zr
   0.1773531317027306    0.2500000000000000    0.7500000000000000 Zr
   0.1773531317027306    0.7500000000000000    0.2499999999999999 Zr
   0.3226468682972693    0.5000000000000000    0.5000000000000000 Zr
   0.3226468682972693    0.0000000000000000    0.0000000000000000 Zr
   0.8615123776578599    0.5000000000000000    0.5000000000000000 Sb
   0.8615123776578599    0.0000000000000000    0.0000000000000000 Sb
   0.6384876223421401    0.2500000000000000    0.7500000000000000 Sb
   0.6384876223421401    0.7500000000000000    0.2499999999999999 Sb
   0.3615123776578599    0.2500000000000000    0.7500000000000000 Sb
   0.3615123776578599    0.7500000000000000    0.2499999999999999 Sb
   0.1384876223421400    0.5000000000000000    0.5000000000000000 Sb
   0.1384876223421400    0.0000000000000000    0.0000000000000000 Sb
