Zn2 Cu2
1.0
   2.9686024378580442    0.0000000000000000   -2.9686024378580438
   0.0000000000000010    5.9372048757160876   -2.9686024378580438
   0.0000000000000000    0.0000000000000000    2.9686024378580442
Zn Cu
2 2
direct
   0.5000000000000000    0.2500000000000001    0.2500000000000000 Zn
   0.5000000000000000    0.7500000000000000    0.7500000000000000 Zn
   0.0000000000000000    0.0000000000000000    0.0000000000000000 Cu
   0.0000000000000000    0.5000000000000000    0.5000000000000000 Cu
