Ti8 Pd16
1.0
   6.9756060049717741    0.0000000000000000   -3.0749989360700631
   0.0000000000000028   17.3581002168096994   -3.0749989360700640
   0.0000000000000000    0.0000000000000000    3.0749989360700640
Ti Pd
8 16
direct
   0.5000000000000000    0.5000000000000000    0.0000000000000002 Ti
   0.0000000000000000    0.0000000000000000    0.0000000000000000 Ti
   0.0000000000000000    0.5000000000000000    0.5000000000000000 Ti
   0.5000000000000000    0.0000000000000000    0.5000000000000000 Ti
   0.7500000000000001    0.7500000000000000    0.0000000000000000 Ti
   0.2500000000000000    0.2500000000000000    0.0000000000000000 Ti
   0.2500000000000000    0.7499999999999999    0.5000000000000000 Ti
   0.7500000000000001    0.2500000000000000    0.5000000000000000 Ti
   0.7500000000000001    0.5791902656667941    0.8291902656667942 Pd
   0.2500000000000000    0.0791902656667940    0.8291902656667940 Pd
   0.2500000000000000    0.5791902656667940    0.3291902656667940 Pd
   0.7500000000000001    0.0791902656667940    0.3291902656667940 Pd
   0.5000000000000000    0.6708097343332060    0.1708097343332062 Pd
   0.0000000000000000    0.1708097343332060    0.1708097343332060 Pd
   0.0000000000000000    0.6708097343332060    0.6708097343332060 Pd
   0.5000000000000000    0.1708097343332060    0.6708097343332060 Pd
   0.5000000000000000    0.8291902656667940    0.3291902656667942 Pd
   0.0000000000000000    0.3291902656667940    0.3291902656667940 Pd
   0.0000000000000000    0.8291902656667940    0.8291902656667940 Pd
   0.5000000000000000    0.3291902656667940    0.8291902656667940 Pd
   0.7500000000000001    0.9208097343332061    0.1708097343332062 Pd
   0.2500000000000000    0.4208097343332060    0.1708097343332060 Pd
   0.2500000000000000    0.9208097343332060    0.6708097343332060 Pd
   0.7500000000000001    0.4208097343332060    0.6708097343332060 Pd
