Ag12 Pt48
1.0
   4.8437299249530126    0.0000000000000000   -5.5930575521069308
  -0.0000000000000200   70.4824150637459894   -2.7965287760534747
   0.0000000000000000    0.0000000000000000    2.7965287760534663
Ag Pt
12 48
direct
   0.5000000000000000    0.5000000000000000    0.0000000000000000 Ag
   0.0000000000000000    0.0000000000000000    0.0000000000000000 Ag
   0.0000000000000000    0.5000000000000000    0.5000000000000000 Ag
   0.5000000000000000    0.0000000000000000    0.5000000000000001 Ag
   0.6666666666666666    0.6666666666666666    0.0000000000000002 Ag
   0.1666666666666667    0.1666666666666667    0.0000000000000002 Ag
   0.1666666666666667    0.6666666666666667    0.5000000000000002 Ag
   0.6666666666666666    0.1666666666666667    0.5000000000000002 Ag
   0.8333333333333334    0.8333333333333334    0.0000000000000002 Ag
   0.3333333333333333    0.3333333333333334    0.0000000000000000 Ag
   0.3333333333333333    0.8333333333333335    0.5000000000000002 Ag
   0.8333333333333333    0.3333333333333334    0.5000000000000002 Ag
   0.8333333333333334    0.5339960530047646    0.7006627196714315 Pt
   0.3333333333333333    0.0339960530047646    0.7006627196714313 Pt
   0.3333333333333333    0.5339960530047647    0.2006627196714315 Pt
   0.8333333333333333    0.0339960530047646    0.2006627196714315 Pt
   0.6666666666666666    0.5669564481237863    0.9002897814571198 Pt
   0.1666666666666667    0.0669564481237863    0.9002897814571198 Pt
   0.1666666666666667    0.5669564481237863    0.4002897814571198 Pt
   0.6666666666666666    0.0669564481237863    0.4002897814571198 Pt
   0.5000000000000000    0.5997102185428803    0.0997102185428804 Pt
   0.0000000000000000    0.0997102185428804    0.0997102185428804 Pt
   0.0000000000000000    0.5997102185428803    0.5997102185428803 Pt
   0.5000000000000000    0.0997102185428804    0.5997102185428805 Pt
   0.8333333333333334    0.6326706136619021    0.7993372803285689 Pt
   0.3333333333333334    0.1326706136619021    0.7993372803285689 Pt
   0.3333333333333334    0.6326706136619021    0.2993372803285690 Pt
   0.8333333333333334    0.1326706136619021    0.2993372803285690 Pt
   0.5000000000000000    0.7006627196714312    0.2006627196714313 Pt
   0.0000000000000000    0.2006627196714312    0.2006627196714312 Pt
   0.0000000000000000    0.7006627196714312    0.7006627196714312 Pt
   0.5000000000000000    0.2006627196714313    0.7006627196714313 Pt
   0.8333333333333334    0.7336231147904529    0.9002897814571196 Pt
   0.3333333333333333    0.2336231147904530    0.9002897814571196 Pt
   0.3333333333333333    0.7336231147904531    0.4002897814571196 Pt
   0.8333333333333334    0.2336231147904530    0.4002897814571200 Pt
   0.6666666666666666    0.7663768852095471    0.0997102185428806 Pt
   0.1666666666666667    0.2663768852095471    0.0997102185428806 Pt
   0.1666666666666667    0.7663768852095472    0.5997102185428806 Pt
   0.6666666666666666    0.2663768852095471    0.5997102185428806 Pt
   0.5000000000000000    0.7993372803285688    0.2993372803285688 Pt
   0.0000000000000000    0.2993372803285688    0.2993372803285688 Pt
   0.0000000000000000    0.7993372803285688    0.7993372803285688 Pt
   0.5000000000000000    0.2993372803285688    0.7993372803285689 Pt
   0.6666666666666666    0.8673293863380980    0.2006627196714312 Pt
   0.1666666666666666    0.3673293863380979    0.2006627196714312 Pt
   0.1666666666666666    0.8673293863380980    0.7006627196714312 Pt
   0.6666666666666666    0.3673293863380980    0.7006627196714315 Pt
   0.5000000000000000    0.9002897814571196    0.4002897814571196 Pt
   0.0000000000000000    0.4002897814571196    0.4002897814571196 Pt
   0.0000000000000000    0.9002897814571196    0.9002897814571196 Pt
   0.5000000000000000    0.4002897814571196    0.9002897814571197 Pt
   0.8333333333333334    0.9330435518762137    0.0997102185428804 Pt
   0.3333333333333333    0.4330435518762137    0.0997102185428804 Pt
   0.3333333333333333    0.9330435518762137    0.5997102185428804 Pt
   0.8333333333333333    0.4330435518762137    0.5997102185428806 Pt
   0.6666666666666667    0.9660039469952353    0.2993372803285688 Pt
   0.1666666666666668    0.4660039469952355    0.2993372803285690 Pt
   0.1666666666666668    0.9660039469952354    0.7993372803285688 Pt
   0.6666666666666667    0.4660039469952355    0.7993372803285690 Pt
