Ta2 Pd4
1.0
   2.8976858332024662    0.0000000000000000    0.0000000000000002
   0.0000000000000014    8.4956357437495189    0.0000000000000005
   0.0000000000000000    0.0000000000000000    3.8655177582236853
Ta Pd
2 4
direct
   0.0000000000000000    0.0000000000000000    0.0000000000000000 Ta
   0.5000000000000000    0.5000000000000000    0.5000000000000000 Ta
   0.0000000000000000    0.6651138253629298    0.0000000000000000 Pd
   0.5000000000000000    0.8348861746370702    0.5000000000000000 Pd
   0.5000000000000000    0.1651138253629298    0.5000000000000000 Pd
   0.0000000000000000    0.3348861746370702    0.0000000000000000 Pd
