Ga2 Mo6
1.0
   4.9662111392587747    0.0000000000000000    0.0000000000000003
   0.0000000000000008    4.9662111392587747    0.0000000000000003
   0.0000000000000000    0.0000000000000000    4.9662111392587747
Ga Mo
2 6
direct
   0.0000000000000000    0.0000000000000000    0.0000000000000000 Ga
   0.5000000000000000    0.5000000000000000    0.5000000000000000 Ga
   0.0000000000000000    0.5000000000000000    0.2500000000000000 Mo
   0.0000000000000000    0.5000000000000001    0.7500000000000000 Mo
   0.5000000000000000    0.2500000000000000    0.0000000000000000 Mo
   0.5000000000000000    0.7500000000000000    0.0000000000000000 Mo
   0.7500000000000000    0.0000000000000000    0.5000000000000000 Mo
   0.2500000000000000    0.0000000000000000    0.4999999999999999 Mo
