Zr8 Ni8
1.0
  19.9447521526683609    0.0000000000000000   -3.3034862269939791
   0.0000000000000007    4.0794515896430648   -3.3034862269939818
   0.0000000000000000    0.0000000000000000    3.3034862269939809
Zr Ni
8 8
direct
   0.4304769792807824    0.2500000000000001    0.1804769792807825 Zr
   0.9304769792807824    0.2500000000000002    0.6804769792807828 Zr
   0.3195230207192175    0.7500000000000000    0.0695230207192175 Zr
   0.8195230207192176    0.7500000000000000    0.5695230207192177 Zr
   0.1804769792807825    0.2500000000000001    0.4304769792807825 Zr
   0.6804769792807825    0.2500000000000001    0.9304769792807827 Zr
   0.0695230207192174    0.7500000000000001    0.3195230207192175 Zr
   0.5695230207192175    0.7500000000000001    0.8195230207192175 Zr
   0.2915532609204599    0.2500000000000001    0.0415532609204601 Ni
   0.7915532609204599    0.2500000000000002    0.5415532609204601 Ni
   0.4584467390795400    0.7500000000000001    0.2084467390795401 Ni
   0.9584467390795399    0.7500000000000001    0.7084467390795399 Ni
   0.0415532609204600    0.2500000000000000    0.2915532609204600 Ni
   0.5415532609204600    0.2500000000000001    0.7915532609204601 Ni
   0.2084467390795400    0.7500000000000000    0.4584467390795401 Ni
   0.7084467390795400    0.7500000000000001    0.9584467390795401 Ni
