Bi4 Rh4
1.0
   3.6127745194286209    0.0000000000000000   -2.0858363413135361
  -0.0000000000000007   11.4584679803685603   -4.1716726826270669
   0.0000000000000000    0.0000000000000000    4.1716726826270705
Bi Rh
4 4
direct
   0.3333333333333333    0.3750000000000000    0.0416666666666665 Bi
   0.3333333333333333    0.8749999999999999    0.5416666666666665 Bi
   0.6666666666666667    0.1250000000000000    0.4583333333333334 Bi
   0.6666666666666667    0.6250000000000000    0.9583333333333334 Bi
   0.0000000000000000    0.0000000000000000    0.0000000000000000 Rh
   0.0000000000000000    0.5000000000000000    0.5000000000000000 Rh
   0.0000000000000000    0.2500000000000000    0.2500000000000000 Rh
   0.0000000000000000    0.7500000000000000    0.7500000000000000 Rh
