Sr2 Ag10
1.0
   9.9299705338510282    0.0000000000000000    0.0000000000000006
   0.0000000000000009    5.7330711607639433   -4.7012285846219619
   0.0000000000000000    0.0000000000000000    4.7012285846219628
Sr Ag
2 10
direct
   0.5000000000000000    0.5000000000000000    0.4999999999999999 Sr
   0.0000000000000000    0.0000000000000000    0.0000000000000000 Sr
   0.1666666666666667    0.5000000000000000    0.4999999999999999 Ag
   0.6666666666666667    0.0000000000000000    0.0000000000000000 Ag
   0.2500000000000000    0.7500000000000000    0.2499999999999999 Ag
   0.7500000000000000    0.2500000000000000    0.7500000000000000 Ag
   0.5000000000000000    0.0000000000000000    0.5000000000000000 Ag
   0.0000000000000000    0.5000000000000000    0.0000000000000001 Ag
   0.2500000000000000    0.2500000000000000    0.7500000000000000 Ag
   0.7500000000000000    0.7500000000000000    0.2500000000000001 Ag
   0.3333333333333333    0.9999999999999999    0.9999999999999999 Ag
   0.8333333333333333    0.4999999999999999    0.5000000000000000 Ag
