Sc8 Zn24
1.0
  10.2580559110081371    0.0000000000000000  -11.8449826831655614
  -0.0000000000000005    8.7814583842099498   -5.9224913415827798
   0.0000000000000000    0.0000000000000000    5.9224913415827807
Sc Zn
8 24
direct
   0.6666666666666667    0.6250000000000000    0.9583333333333333 Sc
   0.1666666666666667    0.1250000000000000    0.9583333333333334 Sc
   0.1666666666666667    0.6250000000000000    0.4583333333333333 Sc
   0.6666666666666666    0.1250000000000000    0.4583333333333333 Sc
   0.8333333333333334    0.8750000000000000    0.0416666666666667 Sc
   0.3333333333333334    0.3750000000000000    0.0416666666666667 Sc
   0.3333333333333334    0.8750000000000000    0.5416666666666667 Sc
   0.8333333333333335    0.3750000000000000    0.5416666666666670 Sc
   0.9208036732585079    0.6250000000000000    0.2290183662925394 Zn
   0.4208036732585079    0.1250000000000000    0.2290183662925394 Zn
   0.4208036732585079    0.6250000000000000    0.7290183662925394 Zn
   0.9208036732585079    0.1250000000000000    0.7290183662925396 Zn
   0.9208036732585079    0.6250000000000000    0.7041963267414921 Zn
   0.4208036732585079    0.1250000000000000    0.7041963267414921 Zn
   0.4208036732585079    0.6250000000000000    0.2041963267414921 Zn
   0.9208036732585079    0.1250000000000000    0.2041963267414921 Zn
   0.5791963267414921    0.8750000000000000    0.7709816337074606 Zn
   0.0791963267414921    0.3750000000000000    0.7709816337074606 Zn
   0.0791963267414921    0.8750000000000000    0.2709816337074606 Zn
   0.5791963267414921    0.3750000000000000    0.2709816337074606 Zn
   0.5791963267414921    0.8750000000000000    0.2958036732585079 Zn
   0.0791963267414921    0.3750000000000000    0.2958036732585079 Zn
   0.0791963267414921    0.8750000000000000    0.7958036732585079 Zn
   0.5791963267414921    0.3750000000000000    0.7958036732585079 Zn
   0.8416073465170157    0.8750000000000000    0.5582146930340315 Zn
   0.3416073465170157    0.3750000000000000    0.5582146930340315 Zn
   0.3416073465170157    0.8750000000000000    0.0582146930340315 Zn
   0.8416073465170157    0.3750000000000000    0.0582146930340319 Zn
   0.6583926534829843    0.6250000000000000    0.4417853069659685 Zn
   0.1583926534829843    0.1250000000000000    0.4417853069659685 Zn
   0.1583926534829843    0.6250000000000000    0.9417853069659685 Zn
   0.6583926534829843    0.1250000000000000    0.9417853069659685 Zn
