Zr2 Zn6
1.0
   5.1025566761322914    0.0000000000000000   -2.9459624705202989
   0.0000000000000007    4.3901119660008874    0.0000000000000003
   0.0000000000000000    0.0000000000000000    5.8919249410406005
Zr Zn
2 6
direct
   0.3333333333333334    0.2500000000000000    0.6666666666666666 Zr
   0.6666666666666666    0.7500000000000000    0.3333333333333333 Zr
   0.1580049135348459    0.7500000000000000    0.3160098270696919 Zn
   0.1580049135348459    0.7500000000000000    0.8419950864651541 Zn
   0.6839901729303082    0.7500000000000000    0.8419950864651542 Zn
   0.8419950864651541    0.2500000000000000    0.6839901729303083 Zn
   0.8419950864651541    0.2500000000000000    0.1580049135348459 Zn
   0.3160098270696919    0.2500000000000000    0.1580049135348459 Zn
