Ti8 Sn4
1.0
   8.2360605686807595    0.0000000000000000    0.0000000000000005
  -0.0000000000000003    5.6399434511527087    4.7550917863898983
   0.0000000000000000    0.0000000000000000    4.7550917863898992
Ti Sn
8 4
direct
   0.1666666666666667    0.7499999999999999    0.7500000000000000 Ti
   0.6666666666666667    0.7500000000000000    0.2500000000000001 Ti
   0.3333333333333333    0.2500000000000000    0.7499999999999999 Ti
   0.8333333333333333    0.2500000000000001    0.2499999999999999 Ti
   0.5000000000000000    0.5000000000000000    0.0000000000000000 Ti
   0.0000000000000000    0.5000000000000000    0.5000000000000000 Ti
   0.5000000000000000    0.0000000000000000    0.5000000000000000 Ti
   0.0000000000000000    0.0000000000000000    0.0000000000000000 Ti
   0.1666666666666667    0.2500000000000000    0.2500000000000000 Sn
   0.6666666666666667    0.2500000000000000    0.7500000000000000 Sn
   0.3333333333333333    0.7500000000000000    0.2500000000000000 Sn
   0.8333333333333333    0.7500000000000000    0.7500000000000000 Sn
