In6 Pd4
1.0
   3.9920124097933227    0.0000000000000000   -2.3047894394025006
   0.0000000000000018   11.2436236479702920   -4.6095788788050012
   0.0000000000000000    0.0000000000000000    4.6095788788050029
In Pd
6 4
direct
   0.0000000000000000    0.0000000000000000    0.0000000000000000 In
   0.0000000000000000    0.5000000000000000    0.5000000000000000 In
   0.6666666666666666    0.3224921148441882    0.6558254481775215 In
   0.6666666666666666    0.8224921148441882    0.1558254481775214 In
   0.3333333333333334    0.1775078851558118    0.8441745518224787 In
   0.3333333333333334    0.6775078851558117    0.3441745518224786 In
   0.6666666666666666    0.0749744224530118    0.4083077557863452 Pd
   0.6666666666666666    0.5749744224530118    0.9083077557863452 Pd
   0.3333333333333334    0.4250255775469882    0.0916922442136550 Pd
   0.3333333333333334    0.9250255775469881    0.5916922442136550 Pd
