Na6 Cd2
1.0
   7.0501669341610604    0.0000000000000000    0.0000000000000004
  -3.5250834670805324    6.1056236659045293    0.0000000000000004
   0.0000000000000000    0.0000000000000000    5.6781497742174150
Na Cd
6 2
direct
   0.3470322556457754    0.1735161278228877    0.7499999999999999 Na
   0.8264838721771123    0.1735161278228877    0.7499999999999999 Na
   0.8264838721771123    0.6529677443542244    0.7499999999999999 Na
   0.6529677443542244    0.8264838721771123    0.2500000000000000 Na
   0.1735161278228877    0.8264838721771123    0.2500000000000000 Na
   0.1735161278228877    0.3470322556457754    0.2500000000000000 Na
   0.6666666666666666    0.3333333333333334    0.2500000000000000 Cd
   0.3333333333333334    0.6666666666666667    0.7499999999999999 Cd
