Ca8 Cd16
1.0
  15.0229043785014991    0.0000000000000000   -5.0084740957421143
   0.0000000000000014    8.5666133147616534   -5.0084740957421161
   0.0000000000000000    0.0000000000000000    5.0084740957421170
Ca Cd
8 16
direct
   0.3749999999999999    0.0368854242025876    0.9118854242025876 Ca
   0.8749999999999999    0.0368854242025877    0.4118854242025878 Ca
   0.1250000000000000    0.9631145757974124    0.5881145757974124 Ca
   0.6250000000000000    0.9631145757974124    0.0881145757974124 Ca
   0.1250000000000000    0.5368854242025877    0.6618854242025877 Ca
   0.6250000000000000    0.5368854242025877    0.1618854242025878 Ca
   0.3749999999999999    0.4631145757974125    0.8381145757974126 Ca
   0.8749999999999999    0.4631145757974126    0.3381145757974127 Ca
   0.2294855162089391    0.1650830098017657    0.3945685260107047 Cd
   0.7294855162089390    0.1650830098017657    0.8945685260107048 Cd
   0.2705144837910609    0.8349169901982343    0.1054314739892952 Cd
   0.7705144837910608    0.8349169901982344    0.6054314739892954 Cd
   0.2294855162089391    0.3349169901982344    0.0644025064071736 Cd
   0.7294855162089390    0.3349169901982345    0.5644025064071736 Cd
   0.2705144837910609    0.6650830098017658    0.4355974935928268 Cd
   0.7705144837910608    0.6650830098017659    0.9355974935928268 Cd
   0.4794855162089390    0.6650830098017658    0.6445685260107050 Cd
   0.9794855162089390    0.6650830098017659    0.1445685260107048 Cd
   0.0205144837910609    0.3349169901982343    0.8554314739892952 Cd
   0.5205144837910609    0.3349169901982343    0.3554314739892952 Cd
   0.4794855162089390    0.8349169901982343    0.3144025064071734 Cd
   0.9794855162089390    0.8349169901982344    0.8144025064071736 Cd
   0.0205144837910609    0.1650830098017657    0.1855974935928266 Cd
   0.5205144837910609    0.1650830098017657    0.6855974935928266 Cd
