Ga32 Ru16
1.0
   8.2708558488437181    0.0000000000000000    0.0000000000000005
   0.0000000000000028   17.5579989446595341   -4.7785008478238105
   0.0000000000000000    0.0000000000000000    4.7785008478238122
Ga Ru
32 16
direct
   0.3307311241019448    0.0000000000000000    0.5000000000000000 Ga
   0.3307311241019448    0.4999999999999999    0.0000000000000000 Ga
   0.6692688758980552    0.0000000000000000    0.5000000000000000 Ga
   0.6692688758980552    0.4999999999999999    0.0000000000000000 Ga
   0.9192688758980552    0.1250000000000000    0.8749999999999999 Ga
   0.9192688758980552    0.6250000000000000    0.3750000000000000 Ga
   0.5807311241019448    0.1250000000000000    0.8749999999999999 Ga
   0.5807311241019448    0.6249999999999999    0.3749999999999998 Ga
   0.8307311241019448    0.2500000000000000    0.7500000000000000 Ga
   0.8307311241019448    0.7500000000000000    0.2500000000000000 Ga
   0.1692688758980552    0.2500000000000000    0.7500000000000001 Ga
   0.1692688758980552    0.7500000000000000    0.2500000000000002 Ga
   0.4192688758980552    0.3750000000000000    0.1250000000000000 Ga
   0.4192688758980552    0.8750000000000000    0.6250000000000000 Ga
   0.0807311241019448    0.3750000000000000    0.1250000000000000 Ga
   0.0807311241019448    0.8750000000000000    0.6250000000000000 Ga
   0.3307311241019448    0.2500000000000000    0.2500000000000000 Ga
   0.3307311241019448    0.7500000000000000    0.7500000000000000 Ga
   0.6692688758980552    0.2500000000000000    0.2500000000000000 Ga
   0.6692688758980552    0.7500000000000000    0.7500000000000000 Ga
   0.9192688758980552    0.3750000000000000    0.6250000000000000 Ga
   0.9192688758980552    0.8750000000000000    0.1250000000000000 Ga
   0.5807311241019448    0.3750000000000000    0.6250000000000000 Ga
   0.5807311241019448    0.8750000000000000    0.1250000000000000 Ga
   0.8307311241019448    0.0000000000000000    0.0000000000000000 Ga
   0.8307311241019448    0.4999999999999999    0.4999999999999999 Ga
   0.1692688758980552    0.0000000000000000    0.0000000000000000 Ga
   0.1692688758980552    0.5000000000000000    0.5000000000000000 Ga
   0.4192688758980552    0.1250000000000000    0.3750000000000000 Ga
   0.4192688758980552    0.6249999999999999    0.8749999999999999 Ga
   0.0807311241019448    0.1250000000000000    0.3749999999999999 Ga
   0.0807311241019448    0.6249999999999999    0.8749999999999999 Ga
   0.0000000000000000    0.0000000000000000    0.5000000000000000 Ru
   0.0000000000000000    0.4999999999999999    0.0000000000000000 Ru
   0.2500000000000000    0.1250000000000000    0.8750000000000000 Ru
   0.2500000000000000    0.6249999999999999    0.3750000000000000 Ru
   0.5000000000000000    0.2500000000000000    0.7499999999999999 Ru
   0.5000000000000000    0.7500000000000000    0.2500000000000000 Ru
   0.7500000000000000    0.3749999999999999    0.1250000000000000 Ru
   0.7500000000000000    0.8750000000000000    0.6249999999999998 Ru
   0.0000000000000000    0.2500000000000000    0.2500000000000000 Ru
   0.0000000000000000    0.7500000000000000    0.7500000000000000 Ru
   0.2500000000000000    0.3750000000000000    0.6250000000000000 Ru
   0.2500000000000000    0.8750000000000000    0.1250000000000000 Ru
   0.5000000000000000    0.0000000000000000    0.0000000000000000 Ru
   0.5000000000000000    0.4999999999999999    0.4999999999999999 Ru
   0.7500000000000000    0.1250000000000000    0.3749999999999999 Ru
   0.7500000000000000    0.6249999999999999    0.8749999999999999 Ru
