Ni24 Mo8
1.0
   8.9321267230345338    0.0000000000000000   -4.2391416034010465
   0.0000000000000016   10.0598287927116630   -4.2391416034010474
   0.0000000000000000    0.0000000000000000    4.2391416034010492
Ni Mo
24 8
direct
   0.9200708622691529    0.8757108958237937    0.2957817580929465 Ni
   0.4200708622691529    0.3757108958237937    0.2957817580929465 Ni
   0.4200708622691529    0.8757108958237937    0.7957817580929465 Ni
   0.9200708622691529    0.3757108958237937    0.7957817580929465 Ni
   0.5799291377308470    0.8742891041762061    0.4542182419070531 Ni
   0.0799291377308471    0.3742891041762063    0.4542182419070533 Ni
   0.0799291377308471    0.8742891041762062    0.9542182419070533 Ni
   0.5799291377308470    0.3742891041762063    0.9542182419070533 Ni
   0.6673199280797455    0.4999999999999999    0.6673199280797455 Ni
   0.1673199280797455    0.0000000000000000    0.6673199280797455 Ni
   0.1673199280797455    0.4999999999999999    0.1673199280797455 Ni
   0.6673199280797455    0.0000000000000000    0.1673199280797455 Ni
   0.8326800719202545    0.7499999999999999    0.5826800719202545 Ni
   0.3326800719202545    0.2499999999999999    0.5826800719202544 Ni
   0.3326800719202545    0.7500000000000000    0.0826800719202545 Ni
   0.8326800719202545    0.2499999999999999    0.0826800719202545 Ni
   0.5799291377308470    0.6257108958237938    0.2056400335546408 Ni
   0.0799291377308471    0.1257108958237938    0.2056400335546409 Ni
   0.0799291377308471    0.6257108958237938    0.7056400335546409 Ni
   0.5799291377308470    0.1257108958237938    0.7056400335546408 Ni
   0.9200708622691529    0.6242891041762062    0.0443599664453591 Ni
   0.4200708622691529    0.1242891041762062    0.0443599664453591 Ni
   0.4200708622691529    0.6242891041762062    0.5443599664453591 Ni
   0.9200708622691529    0.1242891041762062    0.5443599664453591 Ni
   0.6727514485120345    0.7499999999999999    0.9227514485120345 Mo
   0.1727514485120345    0.2500000000000000    0.9227514485120345 Mo
   0.1727514485120345    0.7500000000000000    0.4227514485120345 Mo
   0.6727514485120345    0.2500000000000000    0.4227514485120345 Mo
   0.8272485514879655    0.4999999999999999    0.3272485514879655 Mo
   0.3272485514879655    0.0000000000000000    0.3272485514879654 Mo
   0.3272485514879655    0.4999999999999999    0.8272485514879654 Mo
   0.8272485514879655    0.0000000000000000    0.8272485514879654 Mo
