Sc4 Pt12
1.0
   8.0067308754308346    0.0000000000000000   -4.0033654377154173
  -0.0000000000000023    8.0067308754308346   -4.0033654377154173
   0.0000000000000000    0.0000000000000000    4.0033654377154173
Sc Pt
4 12
direct
   0.5000000000000000    0.5000000000000000    0.0000000000000001 Sc
   0.0000000000000000    0.0000000000000000    0.0000000000000000 Sc
   0.0000000000000000    0.5000000000000000    0.5000000000000000 Sc
   0.5000000000000000    0.0000000000000000    0.5000000000000000 Sc
   0.7500000000000000    0.4999999999999999    0.7500000000000001 Pt
   0.2500000000000000    0.0000000000000000    0.7500000000000000 Pt
   0.2500000000000000    0.4999999999999999    0.2500000000000000 Pt
   0.7500000000000000    0.0000000000000000    0.2500000000000000 Pt
   0.5000000000000000    0.7500000000000000    0.7500000000000001 Pt
   0.0000000000000000    0.2500000000000000    0.7500000000000000 Pt
   0.0000000000000000    0.7500000000000000    0.2500000000000000 Pt
   0.5000000000000000    0.2500000000000000    0.2500000000000000 Pt
   0.7500000000000000    0.7500000000000000    0.5000000000000001 Pt
   0.2500000000000000    0.2500000000000000    0.5000000000000000 Pt
   0.2500000000000000    0.7500000000000000    0.0000000000000000 Pt
   0.7500000000000000    0.2500000000000000    0.0000000000000000 Pt
