Ni12 Sn4
1.0
   9.2000597866238145    0.0000000000000000    0.0000000000000006
   0.0000000000000009    5.3116569943679117   -4.2594112284710066
   0.0000000000000000    0.0000000000000000    4.2594112284710075
Ni Sn
12 4
direct
   0.0797661585671783    0.2392984757015349    0.4892984757015350 Ni
   0.5797661585671783    0.7392984757015348    0.9892984757015348 Ni
   0.1595323171343566    0.0000000000000000    0.7500000000000000 Ni
   0.6595323171343566    0.5000000000000000    0.2500000000000000 Ni
   0.4202338414328218    0.7392984757015350    0.4892984757015350 Ni
   0.9202338414328217    0.2392984757015348    0.9892984757015348 Ni
   0.0797661585671783    0.7607015242984652    0.0107015242984652 Ni
   0.5797661585671783    0.2607015242984650    0.5107015242984650 Ni
   0.3404676828656435    0.5000000000000001    0.7500000000000001 Ni
   0.8404676828656434    0.0000000000000000    0.2500000000000000 Ni
   0.4202338414328218    0.2607015242984652    0.0107015242984652 Ni
   0.9202338414328217    0.7607015242984652    0.5107015242984652 Ni
   0.3333333333333334    0.0000000000000001    0.2500000000000001 Sn
   0.8333333333333333    0.5000000000000000    0.7500000000000000 Sn
   0.1666666666666666    0.5000000000000000    0.2500000000000000 Sn
   0.6666666666666665    0.0000000000000000    0.7500000000000000 Sn
