Be4 Pd8
1.0
   9.8651585794890853    0.0000000000000000    0.0000000000000006
   0.0000000000000009    5.5471170393991400   -2.7735585196995700
   0.0000000000000000    0.0000000000000000    2.7735585196995705
Be Pd
4 8
direct
   0.0000000000000000    0.5000000000000000    0.5000000000000000 Be
   0.0000000000000000    0.0000000000000000    0.0000000000000000 Be
   0.5000000000000000    0.2500000000000000    0.7500000000000000 Be
   0.5000000000000000    0.7500000000000000    0.2500000000000000 Be
   0.6434696494877201    0.5000000000000000    0.5000000000000000 Pd
   0.6434696494877201    0.0000000000000000    0.0000000000000000 Pd
   0.8565303505122799    0.2500000000000000    0.7500000000000000 Pd
   0.8565303505122799    0.7500000000000000    0.2500000000000000 Pd
   0.1434696494877200    0.2500000000000000    0.7500000000000000 Pd
   0.1434696494877200    0.7500000000000000    0.2500000000000000 Pd
   0.3565303505122798    0.5000000000000000    0.5000000000000000 Pd
   0.3565303505122798    0.0000000000000000    0.0000000000000000 Pd
