Nb2 Ir2
1.0
   4.0610077807599367    0.0000000000000000    0.0000000000000002
   4.0610077807599376    4.0610077807599385    3.8928813997506859
   0.0000000000000000    0.0000000000000000    3.8928813997506864
Nb Ir
2 2
direct
   0.5000000000000000    0.0000000000000000    0.5000000000000000 Nb
   0.5000000000000000    0.5000000000000000    0.0000000000000000 Nb
   0.0000000000000000    0.5000000000000000    0.5000000000000000 Ir
   0.0000000000000000    0.0000000000000000    0.0000000000000000 Ir
