Sr4 Pd4
1.0
   4.2791442911485982    0.0000000000000000    0.0000000000000003
   0.0000000000000018   11.4070155760014984    0.0000000000000007
   0.0000000000000000    0.0000000000000000    4.5563106913416558
Sr Pd
4 4
direct
   0.5000000000000001    0.6394497591426358    0.7500000000000000 Sr
   0.0000000000000000    0.8605502408573643    0.2500000000000000 Sr
   0.0000000000000000    0.1394497591426358    0.7500000000000000 Sr
   0.4999999999999999    0.3605502408573643    0.2500000000000000 Sr
   0.5000000000000000    0.9291500440497202    0.7500000000000000 Pd
   0.0000000000000000    0.5708499559502799    0.2500000000000000 Pd
   0.0000000000000000    0.4291500440497203    0.7500000000000000 Pd
   0.4999999999999999    0.0708499559502798    0.2500000000000000 Pd
