Sr8 Pd8
1.0
   4.2791442911485982    0.0000000000000000    0.0000000000000003
  -0.0000000000000065   22.8140311520030039    4.5563106913416478
   0.0000000000000000    0.0000000000000000    4.5563106913416558
Sr Pd
8 8
direct
   0.4999999999999999    0.3197248795713179    0.9302751204286821 Sr
   0.4999999999999999    0.8197248795713179    0.4302751204286821 Sr
   0.0000000000000000    0.4302751204286822    0.3197248795713179 Sr
   0.0000000000000000    0.9302751204286822    0.8197248795713179 Sr
   0.0000000000000000    0.0697248795713179    0.1802751204286821 Sr
   0.0000000000000000    0.5697248795713179    0.6802751204286821 Sr
   0.5000000000000000    0.1802751204286821    0.5697248795713179 Sr
   0.5000000000000000    0.6802751204286822    0.0697248795713179 Sr
   0.5000000000000000    0.4645750220248601    0.7854249779751399 Pd
   0.4999999999999999    0.9645750220248601    0.2854249779751400 Pd
   0.0000000000000000    0.2854249779751399    0.4645750220248601 Pd
   0.0000000000000000    0.7854249779751401    0.9645750220248600 Pd
   0.0000000000000000    0.2145750220248601    0.0354249779751399 Pd
   0.0000000000000000    0.7145750220248602    0.5354249779751399 Pd
   0.5000000000000000    0.0354249779751399    0.7145750220248601 Pd
   0.5000000000000000    0.5354249779751399    0.2145750220248601 Pd
