Ru12 W4
1.0
  14.5705960614084997    0.0000000000000000    0.0000000000000009
   4.1630274461167147    3.6052875249889276    4.3643954104325928
   0.0000000000000000    0.0000000000000000    4.3643954104325928
Ru W
12 4
direct
   0.5832599210086045    0.0837003949569776    0.6662996050430225 Ru
   0.0832599210086045    0.5837003949569777    0.1662996050430223 Ru
   0.5832599210086045    0.5832599210086045    0.1667400789913955 Ru
   0.0832599210086045    0.0832599210086045    0.6667400789913955 Ru
   0.8334801579827911    0.3330396840344179    0.4169603159655821 Ru
   0.3334801579827911    0.8330396840344179    0.9169603159655821 Ru
   0.9167400789913956    0.4162996050430224    0.8337003949569777 Ru
   0.4167400789913955    0.9162996050430223    0.3337003949569777 Ru
   0.9167400789913956    0.9167400789913956    0.3332599210086045 Ru
   0.4167400789913955    0.4167400789913955    0.8332599210086045 Ru
   0.6665198420172090    0.1669603159655821    0.0830396840344179 Ru
   0.1665198420172090    0.6669603159655821    0.5830396840344180 Ru
   0.6666666666666667    0.6666666666666667    0.5833333333333333 W
   0.1666666666666667    0.1666666666666666    0.0833333333333335 W
   0.8333333333333335    0.8333333333333333    0.9166666666666667 W
   0.3333333333333334    0.3333333333333333    0.4166666666666667 W
