Ni12 Sn16
1.0
  14.4436201242336573    0.0000000000000000    3.2067760862650325
   9.7905856834014564    6.7495134921552440    8.4740471878831904
   0.0000000000000000    0.0000000000000000    5.2672711016181584
Ni Sn
12 16
direct
   0.5000000000000000    0.5000000000000000    0.4999999999999999 Ni
   0.0000000000000000    0.0000000000000000    0.0000000000000000 Ni
   0.7499999999999999    0.9658304241624692    0.6976551942894886 Ni
   0.2500000000000000    0.4658304241624691    0.1976551942894886 Ni
   0.5000000000000000    0.2841695758375310    0.0523448057105111 Ni
   0.0000000000000000    0.7841695758375309    0.5523448057105114 Ni
   0.7499999999999999    0.7500000000000002    0.2499999999999998 Ni
   0.2500000000000000    0.2500000000000001    0.7499999999999999 Ni
   0.5000000000000000    0.7158304241624693    0.9476551942894884 Ni
   0.0000000000000000    0.2158304241624692    0.4476551942894884 Ni
   0.7499999999999999    0.5341695758375310    0.8023448057105111 Ni
   0.2500000000000000    0.0341695758375309    0.3023448057105114 Ni
   0.7499999999999999    0.1775163512637904    0.1358235513378643 Sn
   0.2500000000000000    0.6775163512637903    0.6358235513378645 Sn
   0.5000000000000000    0.0724836487362098    0.6141764486621353 Sn
   0.0000000000000000    0.5724836487362097    0.1141764486621355 Sn
   0.7499999999999999    0.9215515328361763    0.2663187712117645 Sn
   0.2500000000000000    0.4215515328361761    0.7663187712117647 Sn
   0.5000000000000000    0.3284484671638239    0.4836812287882353 Sn
   0.0000000000000000    0.8284484671638239    0.9836812287882353 Sn
   0.5000000000000000    0.9275163512637904    0.3858235513378643 Sn
   0.0000000000000000    0.4275163512637904    0.8858235513378644 Sn
   0.7499999999999999    0.3224836487362098    0.3641764486621355 Sn
   0.2500000000000000    0.8224836487362099    0.8641764486621353 Sn
   0.5000000000000000    0.6715515328361762    0.5163187712117645 Sn
   0.0000000000000000    0.1715515328361762    0.0163187712117645 Sn
   0.7499999999999999    0.5784484671638239    0.2336812287882353 Sn
   0.2500000000000000    0.0784484671638239    0.7336812287882353 Sn
