Zn2 Au2
1.0
   3.1867619785496508    0.0000000000000000    0.0000000000000002
   0.0000000000000010    6.3735239570993016   -3.1867619785496508
   0.0000000000000000    0.0000000000000000    3.1867619785496508
Zn Au
2 2
direct
   0.5000000000000000    0.2500000000000000    0.7500000000000000 Zn
   0.5000000000000000    0.7500000000000000    0.2500000000000000 Zn
   0.0000000000000000    0.5000000000000000    0.4999999999999999 Au
   0.0000000000000000    0.0000000000000000    0.0000000000000000 Au
