Re12 Ni4
1.0
  14.3094086617132685    0.0000000000000000    0.0000000000000009
   4.0884024747752195    3.5406604040505072    4.3644993015708575
   0.0000000000000000    0.0000000000000000    4.3644993015708575
Re Ni
12 4
direct
   0.6662017443764369    0.1675965112471260    0.0824034887528740 Re
   0.1662017443764369    0.6675965112471260    0.5824034887528738 Re
   0.9168991278117814    0.9168991278117815    0.3331008721882185 Re
   0.4168991278117814    0.4168991278117816    0.8331008721882184 Re
   0.9168991278117814    0.4155043609410924    0.8344956390589076 Re
   0.4168991278117814    0.9155043609410924    0.3344956390589076 Re
   0.8337982556235629    0.3324034887528740    0.4175965112471260 Re
   0.3337982556235629    0.8324034887528740    0.9175965112471260 Re
   0.5831008721882184    0.5831008721882186    0.1668991278117811 Re
   0.0831008721882184    0.0831008721882186    0.6668991278117813 Re
   0.5831008721882185    0.0844956390589077    0.6655043609410922 Re
   0.0831008721882184    0.5844956390589076    0.1655043609410924 Re
   0.8333333333333333    0.8333333333333335    0.9166666666666663 Ni
   0.3333333333333333    0.3333333333333335    0.4166666666666665 Ni
   0.6666666666666666    0.6666666666666665    0.5833333333333335 Ni
   0.1666666666666666    0.1666666666666665    0.0833333333333335 Ni
