K1 Au5
1.0
  10.0463006117356652    0.0000000000000000    0.0000000000000006
   5.0231503058678335    2.9001171812727442    4.5575007615750058
   0.0000000000000000    0.0000000000000000    4.5575007615750067
K Au
1 5
direct
   0.0000000000000000    0.0000000000000000    0.0000000000000000 K
   0.6666666666666666    0.0000000000000001    0.9999999999999999 Au
   0.5000000000000000    0.5000000000000000    0.9999999999999999 Au
   0.0000000000000000    0.5000000000000000    0.9999999999999999 Au
   0.4999999999999999    0.0000000000000001    0.4999999999999998 Au
   0.3333333333333333    0.0000000000000000    0.0000000000000000 Au
