Nb4 Pt4
1.0
   2.8005954529544854    0.0000000000000000    0.0000000000000002
   0.0000000000000016   10.0942119242769799   -4.6461322041162534
   0.0000000000000000    0.0000000000000000    4.6461322041162534
Nb Pt
4 4
direct
   0.0000000000000000    0.0892723883767008    0.8392723883767008 Nb
   0.0000000000000000    0.5892723883767008    0.3392723883767007 Nb
   0.0000000000000000    0.4107276116232991    0.6607276116232991 Nb
   0.0000000000000000    0.9107276116232991    0.1607276116232991 Nb
   0.5000000000000000    0.3369079219439204    0.0869079219439204 Pt
   0.5000000000000000    0.8369079219439204    0.5869079219439204 Pt
   0.5000000000000000    0.1630920780560795    0.4130920780560795 Pt
   0.5000000000000000    0.6630920780560795    0.9130920780560794 Pt
