Mo4 W4
1.0
   3.1731383335255274    0.0000000000000000    0.0000000000000002
   0.0000000000000014    8.9745054521165866   -4.4941243224777194
   0.0000000000000000    0.0000000000000000    4.4941243224777203
Mo W
4 4
direct
   0.0000000000000000    0.5000000000000000    0.5000000000000000 Mo
   0.0000000000000000    0.0000000000000000    0.0000000000000000 Mo
   0.5000000000000000    0.5000000000000000    0.0000000000000000 Mo
   0.5000000000000000    0.0000000000000000    0.5000000000000000 Mo
   0.5000000000000000    0.2500000000000000    0.2500000000000000 W
   0.5000000000000000    0.7500000000000000    0.7500000000000000 W
   0.0000000000000000    0.2500000000000000    0.7500000000000000 W
   0.0000000000000000    0.7500000000000000    0.2500000000000000 W
