Ca4 Ag4
1.0
  11.4403627114764781    0.0000000000000000    0.0000000000000007
   0.0000000000000008    4.7211577758249375    0.0000000000000003
   0.0000000000000000    0.0000000000000000    4.0429683042866023
Ca Ag
4 4
direct
   0.8583637007296578    0.7500000000000001    0.0000000000000000 Ca
   0.6416362992703422    0.2500000000000001    0.5000000000000000 Ca
   0.3583637007296578    0.7500000000000000    0.4999999999999999 Ca
   0.1416362992703422    0.2500000000000000    0.0000000000000000 Ca
   0.5752937402721382    0.7500000000000000    0.0000000000000000 Ag
   0.9247062597278619    0.2500000000000000    0.5000000000000000 Ag
   0.0752937402721381    0.7500000000000001    0.4999999999999999 Ag
   0.4247062597278620    0.2500000000000000    0.0000000000000000 Ag
