Rb12 Au28
1.0
   5.7134249735970215    0.0000000000000000    0.0000000000000003
  -0.0000000000000009   14.6981686622816063  -13.6672205163785971
   0.0000000000000000    0.0000000000000000   13.6672205163785971
Rb Au
12 28
direct
   0.5000000000000000    0.2500000000000000    0.4130333324645007 Rb
   0.5000000000000000    0.7500000000000000    0.9130333324645008 Rb
   0.0000000000000000    0.2500000000000000    0.5869666675354992 Rb
   0.0000000000000000    0.7500000000000000    0.0869666675354992 Rb
   0.5000000000000000    0.5000000000000000    0.5000000000000000 Rb
   0.5000000000000000    0.0000000000000000    0.0000000000000000 Rb
   0.0000000000000000    0.2500000000000000    0.9130333324645008 Rb
   0.0000000000000000    0.7500000000000000    0.4130333324645008 Rb
   0.5000000000000000    0.2500000000000000    0.0869666675354992 Rb
   0.5000000000000000    0.7500000000000000    0.5869666675354992 Rb
   0.0000000000000000    0.5000000000000000    0.0000000000000000 Rb
   0.0000000000000000    0.0000000000000000    0.5000000000000000 Rb
   0.5000000000000000    0.0977523121771533    0.4897678166066406 Au
   0.5000000000000000    0.5977523121771533    0.9897678166066406 Au
   0.0000000000000000    0.4022476878228467    0.5102321833933594 Au
   0.0000000000000000    0.9022476878228467    0.0102321833933594 Au
   0.0000000000000000    0.0977523121771533    0.2057368077476660 Au
   0.0000000000000000    0.5977523121771533    0.7057368077476660 Au
   0.5000000000000000    0.4022476878228467    0.7942631922523340 Au
   0.5000000000000000    0.9022476878228467    0.2942631922523340 Au
   0.2500000000000000    0.4999999999999999    0.7500000000000000 Au
   0.2500000000000000    0.0000000000000000    0.2500000000000000 Au
   0.7500000000000000    0.4999999999999999    0.7500000000000000 Au
   0.7500000000000000    0.0000000000000000    0.2500000000000001 Au
   0.0000000000000000    0.2500000000000000    0.2500000000000000 Au
   0.0000000000000000    0.7500000000000000    0.7500000000000000 Au
   0.0000000000000000    0.0977523121771533    0.9897678166066406 Au
   0.0000000000000000    0.5977523121771533    0.4897678166066406 Au
   0.5000000000000000    0.4022476878228467    0.0102321833933594 Au
   0.5000000000000000    0.9022476878228467    0.5102321833933594 Au
   0.5000000000000000    0.0977523121771533    0.7057368077476660 Au
   0.5000000000000000    0.5977523121771533    0.2057368077476660 Au
   0.0000000000000000    0.4022476878228467    0.2942631922523340 Au
   0.0000000000000000    0.9022476878228467    0.7942631922523340 Au
   0.7500000000000000    0.5000000000000000    0.2500000000000000 Au
   0.7500000000000000    0.0000000000000000    0.7500000000000000 Au
   0.2500000000000000    0.4999999999999999    0.2499999999999999 Au
   0.2500000000000000    0.0000000000000000    0.7500000000000000 Au
   0.5000000000000000    0.2500000000000000    0.7500000000000000 Au
   0.5000000000000000    0.7500000000000000    0.2500000000000000 Au
