Ag12 Sn4
1.0
   5.2533699171641075    0.0000000000000000   -4.8714983845492386
  -0.0000000000000007   12.1175205624160842   -4.8714983845492403
   0.0000000000000000    0.0000000000000000    4.8714983845492394
Ag Sn
12 4
direct
   0.3248171717253925    0.0000000000000000    0.8248171717253925 Ag
   0.3248171717253925    0.4999999999999999    0.3248171717253925 Ag
   0.6751828282746074    0.2499999999999999    0.9251828282746075 Ag
   0.6751828282746074    0.7499999999999999    0.4251828282746075 Ag
   0.1640077082640872    0.1254919812879969    0.2894996895520842 Ag
   0.1640077082640872    0.6254919812879970    0.7894996895520842 Ag
   0.8359922917359128    0.1245080187120030    0.4605003104479160 Ag
   0.8359922917359128    0.6245080187120029    0.9605003104479160 Ag
   0.1640077082640872    0.3745080187120030    0.5385157269760902 Ag
   0.1640077082640872    0.8745080187120029    0.0385157269760901 Ag
   0.8359922917359128    0.3754919812879969    0.7114842730239099 Ag
   0.8359922917359128    0.8754919812879969    0.2114842730239097 Ag
   0.6694582174182030    0.0000000000000000    0.6694582174182031 Sn
   0.6694582174182030    0.4999999999999999    0.1694582174182031 Sn
   0.3305417825817969    0.2500000000000000    0.0805417825817969 Sn
   0.3305417825817969    0.7499999999999999    0.5805417825817969 Sn
