V2 Pt2
1.0
   2.7001310020872675    0.0000000000000000    0.0000000000000002
  -0.0000000000000015    5.4002620041745359    3.9112228429527081
   0.0000000000000000    0.0000000000000000    3.9112228429527081
V Pt
2 2
direct
   0.5000000000000000    0.2500000000000000    0.2500000000000000 V
   0.5000000000000000    0.7500000000000000    0.7499999999999999 V
   0.0000000000000000    0.5000000000000000    0.5000000000000001 Pt
   0.0000000000000000    0.0000000000000000    0.0000000000000000 Pt
