As4 Os2
1.0
   3.0530438885596025    0.0000000000000000    0.0000000000000002
   0.0000000000000010    6.2530243125130323    0.0000000000000004
   0.0000000000000000    0.0000000000000000    5.4759959493052932
As Os
4 2
direct
   0.5000000000000000    0.1349527854223500    0.6710268416452791 As
   0.5000000000000000    0.8650472145776501    0.3289731583547210 As
   0.0000000000000000    0.6349527854223500    0.8289731583547209 As
   0.0000000000000000    0.3650472145776501    0.1710268416452791 As
   0.5000000000000000    0.5000000000000000    0.5000000000000000 Os
   0.0000000000000000    0.0000000000000000    0.0000000000000000 Os
