V2 Ru6
1.0
   9.4338116250390627    0.0000000000000000    0.0000000000000006
   4.7169058125195322    2.7233068406002618    4.2642769062669998
   0.0000000000000000    0.0000000000000000    4.2642769062670007
V Ru
2 6
direct
   0.3333333333333333    0.0000000000000000    0.2500000000000000 V
   0.6666666666666667    0.9999999999999998    0.7500000000000002 V
   0.1691397174131914    0.4925808477604257    0.2574191522395743 Ru
   0.1691397174131915    0.0000000000000000    0.7500000000000000 Ru
   0.6617205651736171    0.5074191522395743    0.2425808477604257 Ru
   0.8308602825868086    0.5074191522395743    0.7425808477604257 Ru
   0.8308602825868086    0.0000000000000000    0.2500000000000000 Ru
   0.3382794348263829    0.4925808477604257    0.7574191522395743 Ru
