Hf4 Au4
1.0
   4.9586580488036525    0.0000000000000000    0.0000000000000003
   4.9586580488036507    4.9586580488036516    6.3530134254173580
   0.0000000000000000    0.0000000000000000    6.3530134254173589
Hf Au
4 4
direct
   0.5000000000000000    0.2500000000000000    0.6020562546277120 Hf
   0.5000000000000000    0.7500000000000000    0.1020562546277120 Hf
   0.0000000000000000    0.2500000000000000    0.8979437453722882 Hf
   0.0000000000000000    0.7500000000000000    0.3979437453722880 Hf
   0.5000000000000000    0.2500000000000000    0.1212920689503605 Au
   0.5000000000000000    0.7500000000000000    0.6212920689503606 Au
   0.0000000000000000    0.2500000000000000    0.3787079310496395 Au
   0.0000000000000000    0.7500000000000000    0.8787079310496395 Au
