Li2 Rh6
1.0
   4.6885816330176207    0.0000000000000000   -2.6735817775222821
  -0.0000000000000044    8.6493312688295649   -2.6735817775222834
   0.0000000000000000    0.0000000000000000    2.6735817775222821
Li Rh
2 6
direct
   0.9879494665762962    0.9999999999999999    0.9879494665762960 Li
   0.4879494665762962    0.4999999999999999    0.4879494665762962 Li
   0.3058182742530421    0.2444135545954040    0.5502318288484460 Rh
   0.8058182742530421    0.2555864454045959    0.5614047196576379 Rh
   0.4974139949176221    0.9999999999999999    0.9974139949176221 Rh
   0.8058182742530421    0.7444135545954039    0.0502318288484460 Rh
   0.3058182742530420    0.7555864454045960    0.0614047196576379 Rh
   0.9974139949176222    0.4999999999999998    0.4974139949176219 Rh
