Y8 Cu16
1.0
   4.3213016039846899    0.0000000000000000    0.0000000000000003
  -0.0000000000000039   13.7476877868897969    7.3131775545561277
   0.0000000000000000    0.0000000000000000    7.3131775545561286
Y Cu
8 16
direct
   0.5000000000000000    0.3750000000000000    0.5808744860921635 Y
   0.5000000000000000    0.8750000000000001    0.0808744860921636 Y
   0.5000000000000000    0.1250000000000000    0.9191255139078365 Y
   0.5000000000000000    0.6250000000000000    0.4191255139078365 Y
   0.0000000000000000    0.1250000000000000    0.3308744860921635 Y
   0.0000000000000000    0.6250000000000000    0.8308744860921636 Y
   0.0000000000000000    0.3750000000000000    0.1691255139078365 Y
   0.0000000000000000    0.8750000000000001    0.6691255139078365 Y
   0.0000000000000000    0.2236986738926916    0.6112892097825268 Cu
   0.0000000000000000    0.7236986738926915    0.1112892097825270 Cu
   0.0000000000000000    0.2763013261073085    0.8887107902174731 Cu
   0.0000000000000000    0.7763013261073085    0.3887107902174731 Cu
   0.5000000000000000    0.2236986738926916    0.4413134424320900 Cu
   0.5000000000000000    0.7236986738926915    0.9413134424320901 Cu
   0.5000000000000000    0.2763013261073085    0.0586865575679099 Cu
   0.5000000000000000    0.7763013261073085    0.5586865575679099 Cu
   0.5000000000000000    0.4736986738926916    0.8612892097825269 Cu
   0.5000000000000000    0.9736986738926916    0.3612892097825270 Cu
   0.5000000000000000    0.0263013261073084    0.6387107902174733 Cu
   0.5000000000000000    0.5263013261073084    0.1387107902174735 Cu
   0.0000000000000000    0.4736986738926916    0.6913134424320901 Cu
   0.0000000000000000    0.9736986738926916    0.1913134424320901 Cu
   0.0000000000000000    0.0263013261073084    0.8086865575679099 Cu
   0.0000000000000000    0.5263013261073084    0.3086865575679100 Cu
