Y8 Cu16
1.0
   8.6426032079693798    0.0000000000000000    6.8738438934448975
   4.3213016039846890    7.3131775545561286    0.0000000000000005
   0.0000000000000000    0.0000000000000000    6.8738438934448993
Y Cu
8 16
direct
   0.2279372430460817    0.0441255139078365    0.5220627569539182 Y
   0.7279372430460818    0.0441255139078365    0.0220627569539182 Y
   0.7720627569539181    0.9558744860921635    0.4779372430460820 Y
   0.2720627569539182    0.9558744860921636    0.9779372430460819 Y
   0.2279372430460818    0.5441255139078365    0.0220627569539182 Y
   0.7279372430460818    0.5441255139078365    0.5220627569539183 Y
   0.2720627569539182    0.4558744860921635    0.4779372430460818 Y
   0.7720627569539182    0.4558744860921636    0.9779372430460819 Y
   0.4174939418376091    0.1650121163247817    0.0299034059477741 Cu
   0.9174939418376091    0.1650121163247817    0.5299034059477740 Cu
   0.0825060581623907    0.8349878836752184    0.4700965940522264 Cu
   0.5825060581623908    0.8349878836752185    0.9700965940522263 Cu
   0.0825060581623908    0.3349878836752184    0.3648912896229923 Cu
   0.5825060581623909    0.3349878836752184    0.8648912896229923 Cu
   0.9174939418376091    0.6650121163247816    0.6351087103770079 Cu
   0.4174939418376091    0.6650121163247816    0.1351087103770079 Cu
   0.9174939418376091    0.6650121163247816    0.0299034059477741 Cu
   0.4174939418376091    0.6650121163247816    0.5299034059477741 Cu
   0.0825060581623908    0.3349878836752182    0.9700965940522259 Cu
   0.5825060581623909    0.3349878836752183    0.4700965940522260 Cu
   0.0825060581623908    0.8349878836752184    0.8648912896229923 Cu
   0.5825060581623909    0.8349878836752184    0.3648912896229923 Cu
   0.4174939418376091    0.1650121163247817    0.6351087103770077 Cu
   0.9174939418376091    0.1650121163247817    0.1351087103770077 Cu
