Ge8 Pd8
1.0
   5.8621772046389040    0.0000000000000000    0.0000000000000004
  -0.0000000000000020    7.1434296562457185    6.3352983382039643
   0.0000000000000000    0.0000000000000000    6.3352983382039634
Ge Pd
8 8
direct
   0.8143251559739755    0.1250000000000000    0.2972355304135732 Ge
   0.8143251559739755    0.6250000000000000    0.7972355304135732 Ge
   0.1856748440260245    0.3749999999999999    0.2027644695864268 Ge
   0.1856748440260245    0.8750000000000000    0.7027644695864268 Ge
   0.3143251559739755    0.1250000000000000    0.9527644695864268 Ge
   0.3143251559739755    0.6250000000000000    0.4527644695864269 Ge
   0.6856748440260245    0.3750000000000000    0.5472355304135730 Ge
   0.6856748440260245    0.8750000000000000    0.0472355304135732 Ge
   0.9958564675840408    0.1250000000000000    0.6849862308767101 Pd
   0.9958564675840408    0.6250000000000000    0.1849862308767098 Pd
   0.0041435324159591    0.3750000000000000    0.8150137691232900 Pd
   0.0041435324159591    0.8750000000000000    0.3150137691232900 Pd
   0.4958564675840409    0.1250000000000000    0.5650137691232902 Pd
   0.4958564675840409    0.6250000000000000    0.0650137691232899 Pd
   0.5041435324159591    0.3750000000000000    0.9349862308767101 Pd
   0.5041435324159591    0.8750000000000000    0.4349862308767101 Pd
