Mn8 Pd24
1.0
  15.6280616851947123    0.0000000000000000    0.0000000000000010
   0.0000000000000013    7.8722614907652906   -3.9361307453826453
   0.0000000000000000    0.0000000000000000    3.9361307453826457
Mn Pd
8 24
direct
   0.8762780364571725    0.5000000000000000    0.4999999999999999 Mn
   0.8762780364571725    0.0000000000000000    0.0000000000000000 Mn
   0.6237219635428275    0.2500000000000000    0.7500000000000000 Mn
   0.6237219635428275    0.7500000000000000    0.2500000000000001 Mn
   0.3762780364571725    0.2500000000000000    0.7500000000000000 Mn
   0.3762780364571725    0.7500000000000000    0.2500000000000001 Mn
   0.1237219635428275    0.5000000000000000    0.4999999999999999 Mn
   0.1237219635428275    0.0000000000000000    0.0000000000000000 Mn
   0.6254073917131180    0.5000000000000000    0.4999999999999999 Pd
   0.6254073917131180    0.0000000000000000    0.0000000000000000 Pd
   0.8745926082868820    0.2500000000000000    0.7500000000000000 Pd
   0.8745926082868820    0.7500000000000000    0.2500000000000001 Pd
   0.0000000000000000    0.5000000000000000    0.0000000000000000 Pd
   0.0000000000000000    0.0000000000000000    0.5000000000000000 Pd
   0.0000000000000000    0.2500000000000000    0.2500000000000000 Pd
   0.0000000000000000    0.7500000000000000    0.7500000000000000 Pd
   0.7500000000000000    0.5000000000000000    0.0000000000000000 Pd
   0.7500000000000000    0.0000000000000000    0.5000000000000000 Pd
   0.7500000000000000    0.2500000000000000    0.2500000000000000 Pd
   0.7500000000000000    0.7500000000000000    0.7500000000000000 Pd
   0.1254073917131180    0.2500000000000000    0.7500000000000000 Pd
   0.1254073917131180    0.7500000000000000    0.2500000000000001 Pd
   0.3745926082868819    0.5000000000000000    0.4999999999999999 Pd
   0.3745926082868820    0.0000000000000000    0.0000000000000000 Pd
   0.5000000000000000    0.2500000000000000    0.2500000000000000 Pd
   0.5000000000000000    0.7500000000000000    0.7500000000000000 Pd
   0.5000000000000000    0.5000000000000000    0.0000000000000000 Pd
   0.5000000000000000    0.0000000000000000    0.5000000000000000 Pd
   0.2499999999999999    0.2500000000000000    0.2500000000000000 Pd
   0.2499999999999999    0.7500000000000000    0.7500000000000000 Pd
   0.2499999999999999    0.5000000000000000    0.0000000000000000 Pd
   0.2499999999999999    0.0000000000000000    0.5000000000000000 Pd
