Rh12 W4
1.0
   4.3758450007610348    0.0000000000000000    0.0000000000000003
   0.0000000000000015    9.5363968972798467  -11.0116826314872647
   0.0000000000000000    0.0000000000000000    5.5058413157436314
Rh W
12 4
direct
   0.2500000000000000    0.0834319272208841    0.4171596361044206 Rh
   0.2500000000000000    0.5834319272208841    0.9171596361044205 Rh
   0.7500000000000000    0.1668638544417682    0.3337277088835364 Rh
   0.7500000000000000    0.6668638544417682    0.8337277088835364 Rh
   0.7500000000000000    0.4165680727791159    0.5834319272208841 Rh
   0.7500000000000000    0.9165680727791159    0.0834319272208842 Rh
   0.2500000000000000    0.0834319272208841    0.9165680727791159 Rh
   0.2500000000000000    0.5834319272208841    0.4165680727791160 Rh
   0.2500000000000000    0.3331361455582318    0.1662722911164635 Rh
   0.2500000000000000    0.8331361455582318    0.6662722911164636 Rh
   0.7500000000000000    0.4165680727791159    0.0828403638955794 Rh
   0.7500000000000000    0.9165680727791159    0.5828403638955795 Rh
   0.2500000000000000    0.3333333333333334    0.6666666666666666 W
   0.2500000000000000    0.8333333333333334    0.1666666666666667 W
   0.7500000000000000    0.1666666666666666    0.8333333333333333 W
   0.7500000000000000    0.6666666666666666    0.3333333333333334 W
