Rh12 W4
1.0
  14.5670868796423036    0.0000000000000000    0.0000000000000009
   4.1620248227549439    3.6044192276872065    4.3758450007610348
   0.0000000000000000    0.0000000000000000    4.3758450007610348
Rh W
12 4
direct
   0.9165680727791158    0.4171596361044205    0.3328403638955795 Rh
   0.4165680727791158    0.9171596361044205    0.8328403638955795 Rh
   0.8331361455582318    0.3337277088835365    0.9162722911164636 Rh
   0.3331361455582317    0.8337277088835364    0.4162722911164636 Rh
   0.5834319272208841    0.5834319272208843    0.6665680727791159 Rh
   0.0834319272208841    0.0834319272208842    0.1665680727791159 Rh
   0.9165680727791159    0.9165680727791160    0.8334319272208839 Rh
   0.4165680727791159    0.4165680727791160    0.3334319272208839 Rh
   0.6668638544417682    0.1662722911164636    0.5837277088835364 Rh
   0.1668638544417682    0.6662722911164636    0.0837277088835364 Rh
   0.5834319272208841    0.0828403638955796    0.1671596361044205 Rh
   0.0834319272208841    0.5828403638955795    0.6671596361044205 Rh
   0.6666666666666666    0.6666666666666667    0.0833333333333330 W
   0.1666666666666666    0.1666666666666667    0.5833333333333333 W
   0.8333333333333334    0.8333333333333334    0.4166666666666667 W
   0.3333333333333334    0.3333333333333334    0.9166666666666666 W
