Mn2 Ru6
1.0
   9.2916419793235416    0.0000000000000000    0.0000000000000006
   4.6458209896617708    2.6822659989880364    4.2203984628841784
   0.0000000000000000    0.0000000000000000    4.2203984628841775
Mn Ru
2 6
direct
   0.6666666666666666    0.0000000000000000    0.7500000000000000 Mn
   0.3333333333333334    0.9999999999999998    0.2500000000000002 Mn
   0.3395139188671605    0.4907291216992592    0.7592708783007408 Ru
   0.8302430405664197    0.0000000000000000    0.2500000000000000 Ru
   0.8302430405664197    0.5092708783007407    0.7407291216992593 Ru
   0.6604860811328396    0.5092708783007407    0.2407291216992595 Ru
   0.1697569594335803    0.0000000000000000    0.7500000000000000 Ru
   0.1697569594335803    0.4907291216992592    0.2592708783007409 Ru
