Zr10 Te8
1.0
  15.3822998323611486    0.0000000000000000    0.0000000000000009
   7.6911499161805725    7.6911499161805814    7.7398095400490732
   0.0000000000000000    0.0000000000000000    3.8699047700245379
Zr Te
10 8
direct
   0.0000000000000000    0.0000000000000000    0.0000000000000000 Zr
   0.3690643615407047    0.9403545548886176    0.1192908902227647 Zr
   0.8094189164293224    0.3215167220299728    0.8569665559400543 Zr
   0.1905810835706776    0.6784832779700272    0.1430334440599457 Zr
   0.6309356384592952    0.0596454451113824    0.8807091097772353 Zr
   0.5000000000000000    0.0000000000000000    0.5000000000000000 Zr
   0.8690643615407048    0.9403545548886176    0.6192908902227643 Zr
   0.3094189164293224    0.3215167220299728    0.3569665559400546 Zr
   0.6905810835706776    0.6784832779700272    0.6430334440599461 Zr
   0.1309356384592952    0.0596454451113824    0.3807091097772353 Zr
   0.2807694738921641    0.7719584313851513    0.4560831372296974 Te
   0.5527279052773152    0.6665026208305207    0.1669947583389590 Te
   0.4472720947226847    0.3334973791694794    0.8330052416610414 Te
   0.7192305261078360    0.2280415686148488    0.5439168627703024 Te
   0.7807694738921640    0.7719584313851513    0.9560831372296978 Te
   0.0527279052773153    0.6665026208305207    0.6669947583389587 Te
   0.9472720947226847    0.3334973791694793    0.3330052416610414 Te
   0.2192305261078360    0.2280415686148488    0.0439168627703022 Te
