Li16 Cd48
1.0
  13.8006747968481136    0.0000000000000000   -6.9003373984240568
  -0.0000000000000039   13.8006747968481136   -6.9003373984240568
   0.0000000000000000    0.0000000000000000    6.9003373984240577
Li Cd
16 48
direct
   0.5000000000000000    0.5000000000000000    0.0000000000000001 Li
   0.0000000000000000    0.0000000000000000    0.0000000000000000 Li
   0.0000000000000000    0.5000000000000000    0.5000000000000000 Li
   0.5000000000000000    0.0000000000000000    0.5000000000000000 Li
   0.7500000000000001    0.7500000000000000    0.5000000000000002 Li
   0.2500000000000000    0.2500000000000000    0.5000000000000001 Li
   0.2500000000000000    0.7500000000000001    0.0000000000000002 Li
   0.7500000000000001    0.2500000000000001    0.0000000000000002 Li
   0.5000000000000000    0.7500000000000000    0.7500000000000001 Li
   0.0000000000000000    0.2500000000000001    0.7500000000000000 Li
   0.0000000000000000    0.7500000000000001    0.2500000000000000 Li
   0.5000000000000000    0.2500000000000001    0.2500000000000000 Li
   0.7500000000000001    0.5000000000000000    0.7500000000000001 Li
   0.2500000000000000    0.0000000000000001    0.7500000000000001 Li
   0.2500000000000000    0.5000000000000000    0.2500000000000002 Li
   0.7500000000000001    0.0000000000000001    0.2500000000000002 Li
   0.8750000000000000    0.8750000000000000    0.0000000000000002 Cd
   0.3750000000000001    0.3750000000000001    0.0000000000000002 Cd
   0.3750000000000001    0.8750000000000001    0.5000000000000002 Cd
   0.8750000000000000    0.3750000000000001    0.5000000000000002 Cd
   0.6250000000000001    0.8750000000000000    0.7500000000000001 Cd
   0.1250000000000000    0.3750000000000001    0.7500000000000001 Cd
   0.1250000000000000    0.8750000000000001    0.2500000000000000 Cd
   0.6250000000000001    0.3750000000000001    0.2500000000000002 Cd
   0.5000000000000000    0.5000000000000000    0.5000000000000000 Cd
   0.0000000000000000    0.0000000000000000    0.5000000000000000 Cd
   0.0000000000000000    0.5000000000000000    0.0000000000000000 Cd
   0.5000000000000000    0.0000000000000001    0.0000000000000000 Cd
   0.6250000000000001    0.6250000000000000    0.5000000000000001 Cd
   0.1250000000000000    0.1250000000000000    0.5000000000000001 Cd
   0.1250000000000000    0.6250000000000001    0.0000000000000002 Cd
   0.6250000000000001    0.1250000000000001    0.0000000000000002 Cd
   0.8750000000000000    0.6250000000000000    0.7500000000000002 Cd
   0.3750000000000001    0.1250000000000001    0.7500000000000001 Cd
   0.3750000000000001    0.6250000000000001    0.2500000000000002 Cd
   0.8750000000000000    0.1250000000000001    0.2500000000000002 Cd
   0.7500000000000001    0.7500000000000000    0.0000000000000002 Cd
   0.2500000000000000    0.2500000000000001    0.0000000000000002 Cd
   0.2500000000000000    0.7500000000000001    0.5000000000000002 Cd
   0.7500000000000001    0.2500000000000001    0.5000000000000002 Cd
   0.8750000000000000    0.6250000000000001    0.2500000000000002 Cd
   0.3750000000000001    0.1250000000000001    0.2500000000000002 Cd
   0.3750000000000001    0.6250000000000001    0.7500000000000002 Cd
   0.8750000000000000    0.1250000000000001    0.7500000000000002 Cd
   0.6250000000000001    0.6250000000000001    0.0000000000000002 Cd
   0.1250000000000000    0.1250000000000001    0.0000000000000002 Cd
   0.1250000000000000    0.6250000000000001    0.5000000000000002 Cd
   0.6250000000000001    0.1250000000000001    0.5000000000000002 Cd
   0.5000000000000000    0.7500000000000000    0.2500000000000001 Cd
   0.0000000000000000    0.2500000000000000    0.2500000000000000 Cd
   0.0000000000000000    0.7500000000000001    0.7500000000000001 Cd
   0.5000000000000000    0.2500000000000001    0.7500000000000000 Cd
   0.6250000000000001    0.8750000000000000    0.2500000000000002 Cd
   0.1250000000000000    0.3750000000000001    0.2500000000000002 Cd
   0.1250000000000000    0.8750000000000001    0.7500000000000002 Cd
   0.6250000000000001    0.3750000000000001    0.7500000000000002 Cd
   0.8750000000000000    0.8750000000000000    0.5000000000000002 Cd
   0.3750000000000001    0.3750000000000001    0.5000000000000002 Cd
   0.3750000000000001    0.8750000000000001    0.0000000000000004 Cd
   0.8750000000000000    0.3750000000000001    0.0000000000000004 Cd
   0.7500000000000001    0.5000000000000000    0.2500000000000002 Cd
   0.2500000000000000    0.0000000000000000    0.2500000000000001 Cd
   0.2500000000000000    0.5000000000000000    0.7500000000000001 Cd
   0.7500000000000001    0.0000000000000000    0.7500000000000001 Cd
