Co16 Ge16
1.0
  13.7972014928746791    0.0000000000000000    1.9369036875062529
   9.6981849339457415    6.3049996539094897    6.8666340592230011
   0.0000000000000000    0.0000000000000000    4.9297303717167535
Co Ge
16 16
direct
   0.5000000000000000    0.5000000000000000    0.5000000000000001 Co
   0.0000000000000000    0.0000000000000000    0.0000000000000000 Co
   0.5000000000000000    0.5000000000000000    0.0000000000000002 Co
   0.0000000000000000    0.0000000000000000    0.5000000000000001 Co
   0.7500000000000000    0.9461921610995744    0.7279218131501188 Co
   0.2500000000000000    0.4461921610995745    0.2279218131501184 Co
   0.5000000000000000    0.3038078389004255    0.0220781868498821 Co
   0.0000000000000000    0.8038078389004255    0.5220781868498819 Co
   0.7500000000000000    0.7500000000000000    0.2500000000000002 Co
   0.2500000000000000    0.2500000000000000    0.7500000000000001 Co
   0.7500000000000000    0.7500000000000000    0.7500000000000002 Co
   0.2500000000000000    0.2500000000000000    0.2500000000000002 Co
   0.5000000000000000    0.6961921610995745    0.9779218131501186 Co
   0.0000000000000000    0.1961921610995746    0.4779218131501184 Co
   0.7500000000000000    0.5538078389004255    0.7720781868498821 Co
   0.2500000000000000    0.0538078389004255    0.2720781868498821 Co
   0.7500000000000000    0.9332762823161218    0.2484245839673067 Ge
   0.2500000000000000    0.4332762823161218    0.7484245839673066 Ge
   0.5000000000000000    0.3167237176838781    0.5015754160326940 Ge
   0.0000000000000000    0.8167237176838782    0.0015754160326937 Ge
   0.7500000000000000    0.1802059334128713    0.1018416525228363 Ge
   0.2500000000000000    0.6802059334128714    0.6018416525228362 Ge
   0.5000000000000000    0.0697940665871286    0.6481583474771642 Ge
   0.0000000000000000    0.5697940665871286    0.1481583474771642 Ge
   0.5000000000000000    0.6832762823161218    0.4984245839673067 Ge
   0.0000000000000000    0.1832762823161218    0.9984245839673066 Ge
   0.7500000000000000    0.5667237176838781    0.2515754160326940 Ge
   0.2500000000000000    0.0667237176838782    0.7515754160326940 Ge
   0.5000000000000000    0.9302059334128714    0.3518416525228363 Ge
   0.0000000000000000    0.4302059334128714    0.8518416525228362 Ge
   0.7500000000000000    0.3197940665871285    0.3981583474771644 Ge
   0.2500000000000000    0.8197940665871286    0.8981583474771644 Ge
