Zn16 Te16
1.0
  12.3825275240909409    0.0000000000000000   -6.1912637620454705
  -0.0000000000000035   12.3825275240909409   -6.1912637620454705
   0.0000000000000000    0.0000000000000000    6.1912637620454705
Zn Te
16 16
direct
   0.5000000000000000    0.4999999999999999    0.5000000000000000 Zn
   0.0000000000000000    0.0000000000000000    0.5000000000000000 Zn
   0.0000000000000000    0.5000000000000000    0.0000000000000000 Zn
   0.5000000000000000    0.0000000000000000    0.9999999999999999 Zn
   0.7500000000000000    0.7500000000000000    0.0000000000000000 Zn
   0.2500000000000000    0.2500000000000000    0.0000000000000000 Zn
   0.2500000000000000    0.7500000000000000    0.5000000000000000 Zn
   0.7500000000000000    0.2500000000000000    0.5000000000000000 Zn
   0.5000000000000000    0.7500000000000000    0.2499999999999999 Zn
   0.0000000000000000    0.2500000000000000    0.2500000000000000 Zn
   0.0000000000000000    0.7500000000000000    0.7500000000000000 Zn
   0.5000000000000000    0.2500000000000000    0.7500000000000000 Zn
   0.7500000000000000    0.4999999999999999    0.2500000000000001 Zn
   0.2500000000000000    0.0000000000000000    0.2500000000000000 Zn
   0.2500000000000000    0.4999999999999999    0.7500000000000000 Zn
   0.7500000000000000    0.0000000000000000    0.7500000000000000 Zn
   0.8749999999999999    0.8749999999999999    0.9999999999999998 Te
   0.3750000000000000    0.3749999999999999    0.0000000000000000 Te
   0.3750000000000000    0.8749999999999999    0.5000000000000000 Te
   0.8749999999999999    0.3749999999999999    0.4999999999999998 Te
   0.6250000000000000    0.6249999999999999    0.4999999999999999 Te
   0.1250000000000000    0.1250000000000000    0.5000000000000000 Te
   0.1250000000000000    0.6250000000000000    0.0000000000000000 Te
   0.6250000000000000    0.1250000000000000    0.9999999999999999 Te
   0.8749999999999999    0.6250000000000000    0.2500000000000000 Te
   0.3750000000000000    0.1250000000000000    0.2500000000000000 Te
   0.3750000000000000    0.6250000000000000    0.7500000000000000 Te
   0.8749999999999999    0.1250000000000000    0.7500000000000000 Te
   0.6250000000000000    0.8749999999999999    0.2499999999999998 Te
   0.1250000000000000    0.3750000000000000    0.2500000000000000 Te
   0.1250000000000000    0.8749999999999999    0.7500000000000000 Te
   0.6250000000000000    0.3749999999999999    0.7499999999999998 Te
