Mn24 Si8
1.0
   5.6451844470875701    0.0000000000000000   -5.6451844470875692
   0.0000000000000018   11.2903688941751401   -5.6451844470875701
   0.0000000000000000    0.0000000000000000    5.6451844470875701
Mn Si
24 8
direct
   0.7500000000000001    0.3750000000000001    0.3750000000000000 Mn
   0.7500000000000001    0.8750000000000002    0.8750000000000002 Mn
   0.2500000000000000    0.3750000000000001    0.8750000000000000 Mn
   0.2500000000000000    0.8750000000000002    0.3750000000000002 Mn
   0.0000000000000000    0.0000000000000001    0.5000000000000000 Mn
   0.0000000000000000    0.5000000000000001    0.0000000000000000 Mn
   0.2500000000000000    0.1250000000000001    0.6250000000000000 Mn
   0.2500000000000000    0.6250000000000000    0.1250000000000000 Mn
   0.7500000000000001    0.1250000000000001    0.1250000000000000 Mn
   0.7500000000000001    0.6250000000000001    0.6250000000000000 Mn
   0.5000000000000000    0.2500000000000001    0.2500000000000000 Mn
   0.5000000000000000    0.7500000000000001    0.7500000000000000 Mn
   0.7500000000000001    0.1250000000000001    0.6250000000000002 Mn
   0.7500000000000001    0.6250000000000002    0.1250000000000004 Mn
   0.2500000000000000    0.1250000000000001    0.1250000000000000 Mn
   0.2500000000000000    0.6250000000000001    0.6250000000000000 Mn
   0.0000000000000000    0.2500000000000000    0.2500000000000000 Mn
   0.0000000000000000    0.7500000000000001    0.7500000000000001 Mn
   0.2500000000000000    0.3750000000000001    0.3750000000000000 Mn
   0.2500000000000000    0.8750000000000002    0.8750000000000002 Mn
   0.7500000000000001    0.3750000000000001    0.8750000000000002 Mn
   0.7500000000000001    0.8750000000000002    0.3750000000000004 Mn
   0.5000000000000000    0.0000000000000000    0.5000000000000000 Mn
   0.5000000000000000    0.5000000000000000    0.0000000000000000 Mn
   0.0000000000000000    0.0000000000000000    0.0000000000000000 Si
   0.0000000000000000    0.5000000000000000    0.5000000000000000 Si
   0.5000000000000000    0.2500000000000001    0.7500000000000000 Si
   0.5000000000000000    0.7500000000000001    0.2500000000000000 Si
   0.0000000000000000    0.2500000000000001    0.7500000000000000 Si
   0.0000000000000000    0.7500000000000001    0.2500000000000000 Si
   0.5000000000000000    0.0000000000000001    0.0000000000000000 Si
   0.5000000000000000    0.5000000000000001    0.5000000000000000 Si
