Mg4 Rh2
1.0
   3.2136470141914115    0.0000000000000000   -3.2136470141914111
  -0.0000000000000006   10.0634738737814775   -3.2136470141914111
   0.0000000000000000    0.0000000000000000    3.2136470141914115
Mg Rh
4 2
direct
   0.5000000000000000    0.1435625615923327    0.1435625615923326 Mg
   0.0000000000000000    0.3564374384076671    0.3564374384076671 Mg
   0.0000000000000000    0.6435625615923327    0.6435625615923327 Mg
   0.5000000000000000    0.8564374384076671    0.8564374384076670 Mg
   0.0000000000000000    0.0000000000000000    0.0000000000000000 Rh
   0.5000000000000000    0.4999999999999999    0.4999999999999998 Rh
