Sn12 Pt8
1.0
  13.2027738511313260    0.0000000000000000    0.0000000000000008
   0.0000000000000012    7.6531820047769763   -8.8371333812303767
   0.0000000000000000    0.0000000000000000    4.4185666906151884
Sn Pt
12 8
direct
   0.4285055983720625    0.1666666666666667    0.8333333333333334 Sn
   0.4285055983720625    0.6666666666666666    0.3333333333333334 Sn
   0.5714944016279375    0.3333333333333333    0.6666666666666667 Sn
   0.5714944016279375    0.8333333333333333    0.1666666666666666 Sn
   0.0714944016279374    0.1666666666666666    0.8333333333333334 Sn
   0.0714944016279374    0.6666666666666665    0.3333333333333334 Sn
   0.9285055983720625    0.3333333333333333    0.6666666666666667 Sn
   0.9285055983720625    0.8333333333333333    0.1666666666666666 Sn
   0.2500000000000000    0.5000000000000000    0.5000000000000000 Sn
   0.2500000000000000    0.0000000000000000    0.0000000000000000 Sn
   0.7500000000000000    0.5000000000000000    0.5000000000000000 Sn
   0.7500000000000000    0.0000000000000000    0.0000000000000000 Sn
   0.3565115011782042    0.3333333333333333    0.6666666666666667 Pt
   0.3565115011782042    0.8333333333333333    0.1666666666666666 Pt
   0.8565115011782041    0.1666666666666667    0.8333333333333334 Pt
   0.8565115011782041    0.6666666666666666    0.3333333333333334 Pt
   0.1434884988217957    0.3333333333333333    0.6666666666666667 Pt
   0.1434884988217957    0.8333333333333333    0.1666666666666666 Pt
   0.6434884988217958    0.1666666666666666    0.8333333333333334 Pt
   0.6434884988217958    0.6666666666666666    0.3333333333333334 Pt
