Zr4 Ge4
1.0
   3.9386348451605397    0.0000000000000000    0.0000000000000002
   0.0000000000000011    7.1062417336810562    0.0000000000000004
   0.0000000000000000    0.0000000000000000    5.4279176626116126
Zr Ge
4 4
direct
   0.7500000000000000    0.8234130813364260    0.3680873095927950 Zr
   0.2500000000000000    0.1765869186635740    0.6319126904072050 Zr
   0.2500000000000000    0.6765869186635740    0.8680873095927950 Zr
   0.7500000000000000    0.3234130813364260    0.1319126904072050 Zr
   0.7500000000000000    0.9517086551078576    0.8466315641890176 Ge
   0.2500000000000000    0.0482913448921423    0.1533684358109824 Ge
   0.2500000000000000    0.5482913448921423    0.3466315641890176 Ge
   0.7500000000000000    0.4517086551078576    0.6533684358109824 Ge
