Sn16 Ir8
1.0
   6.4295413915593054    0.0000000000000000    0.0000000000000004
   0.0000000000000021   12.8590827831186090   -6.4295413915593045
   0.0000000000000000    0.0000000000000000    6.4295413915593054
Sn Ir
16 8
direct
   0.2499999999999999    0.3750000000000000    0.1250000000000000 Sn
   0.2500000000000000    0.8750000000000000    0.6250000000000000 Sn
   0.2500000000000000    0.1250000000000000    0.8750000000000000 Sn
   0.2500000000000000    0.6250000000000000    0.3750000000000000 Sn
   0.7500000000000000    0.1250000000000000    0.8750000000000000 Sn
   0.7500000000000000    0.6250000000000000    0.3750000000000000 Sn
   0.7500000000000000    0.3750000000000000    0.1250000000000000 Sn
   0.7500000000000000    0.8750000000000000    0.6250000000000000 Sn
   0.7500000000000000    0.3750000000000000    0.6250000000000000 Sn
   0.7500000000000000    0.8750000000000000    0.1250000000000000 Sn
   0.7500000000000000    0.1250000000000000    0.3749999999999999 Sn
   0.7500000000000000    0.6250000000000000    0.8750000000000000 Sn
   0.2500000000000000    0.1250000000000000    0.3749999999999999 Sn
   0.2500000000000001    0.6250000000000000    0.8750000000000000 Sn
   0.2500000000000000    0.3750000000000000    0.6250000000000000 Sn
   0.2500000000000000    0.8750000000000000    0.1250000000000000 Sn
   0.0000000000000000    0.5000000000000000    0.4999999999999999 Ir
   0.0000000000000000    0.0000000000000000    0.0000000000000000 Ir
   0.5000000000000000    0.2500000000000000    0.2500000000000000 Ir
   0.5000000000000000    0.7500000000000000    0.7500000000000000 Ir
   0.5000000000000000    0.5000000000000000    0.0000000000000000 Ir
   0.5000000000000000    0.0000000000000000    0.5000000000000000 Ir
   0.0000000000000000    0.2500000000000000    0.7500000000000000 Ir
   0.0000000000000000    0.7500000000000000    0.2500000000000000 Ir
