Sb4 Pd4
1.0
   7.1751564035452118    0.0000000000000000    0.0000000000000004
  -0.0000000000000003    5.6763312396944166    4.1425784810644943
   0.0000000000000000    0.0000000000000000    4.1425784810644952
Sb Pd
4 4
direct
   0.3333333333333333    0.7500000000000000    0.2500000000000000 Sb
   0.8333333333333333    0.7500000000000000    0.7500000000000000 Sb
   0.1666666666666666    0.2500000000000000    0.2500000000000000 Sb
   0.6666666666666665    0.2500000000000000    0.7500000000000000 Sb
   0.5000000000000000    0.5000000000000000    0.0000000000000000 Pd
   0.0000000000000000    0.5000000000000000    0.5000000000000000 Pd
   0.5000000000000000    0.0000000000000000    0.5000000000000000 Pd
   0.0000000000000000    0.0000000000000000    0.0000000000000000 Pd
