Zr2 Te2
1.0
   3.2882823456428096    0.0000000000000000   -1.8984906974283711
  -0.0000000000000005    7.7673269032496073   -3.7969813948567390
   0.0000000000000000    0.0000000000000000    3.7969813948567404
Zr Te
2 2
direct
   0.3333333333333334    0.0000000000000000    0.6666666666666666 Zr
   0.3333333333333334    0.5000000000000000    0.1666666666666665 Zr
   0.0000000000000000    0.2500000000000000    0.2500000000000000 Te
   0.0000000000000000    0.7500000000000000    0.7500000000000000 Te
