Ti4 Au4
1.0
   6.7206632340484198    0.0000000000000000   -3.3603316170242099
  -0.0000000000000004    6.0956754799728223   -3.3603316170242099
   0.0000000000000000    0.0000000000000000    3.3603316170242103
Ti Au
4 4
direct
   0.2500000000000000    0.8647914140501101    0.1147914140501101 Ti
   0.7500000000000000    0.8647914140501101    0.6147914140501101 Ti
   0.0000000000000000    0.1352085859498900    0.6352085859498899 Ti
   0.4999999999999999    0.1352085859498900    0.1352085859498899 Ti
   0.2500000000000000    0.3604077964629369    0.6104077964629370 Au
   0.7500000000000000    0.3604077964629369    0.1104077964629369 Au
   0.0000000000000000    0.6395922035370633    0.1395922035370631 Au
   0.4999999999999999    0.6395922035370633    0.6395922035370631 Au
