Ta8 As16
1.0
  18.8856562192063855    0.0000000000000000   -3.4222357265922798
  14.9964869117108801    6.8139255564683001    0.0000000000000010
   0.0000000000000000    0.0000000000000000    3.4222357265922754
Ta As
8 16
direct
   0.1330603332035736    0.1954167148179097    0.6330603332035735 Ta
   0.6330603332035736    0.1954167148179097    0.1330603332035735 Ta
   0.3669396667964266    0.8045832851820903    0.8669396667964266 Ta
   0.8669396667964266    0.8045832851820903    0.3669396667964265 Ta
   0.8830603332035735    0.1954167148179097    0.8830603332035735 Ta
   0.3830603332035735    0.1954167148179097    0.3830603332035735 Ta
   0.6169396667964265    0.8045832851820903    0.6169396667964265 Ta
   0.1169396667964265    0.8045832851820903    0.1169396667964265 Ta
   0.9573863925918855    0.4724013407002732    0.9573863925918855 As
   0.4573863925918856    0.4724013407002732    0.4573863925918856 As
   0.5426136074081146    0.5275986592997268    0.5426136074081146 As
   0.0426136074081146    0.5275986592997268    0.0426136074081146 As
   0.3455743173028836    0.1070999820184184    0.8455743173028836 As
   0.8455743173028837    0.1070999820184184    0.3455743173028836 As
   0.1544256826971165    0.8929000179815816    0.6544256826971164 As
   0.6544256826971164    0.8929000179815816    0.1544256826971164 As
   0.7073863925918855    0.4724013407002732    0.2073863925918855 As
   0.2073863925918856    0.4724013407002732    0.7073863925918855 As
   0.7926136074081145    0.5275986592997268    0.2926136074081145 As
   0.2926136074081145    0.5275986592997268    0.7926136074081146 As
   0.0955743173028836    0.1070999820184184    0.0955743173028836 As
   0.5955743173028837    0.1070999820184184    0.5955743173028837 As
   0.4044256826971164    0.8929000179815816    0.4044256826971164 As
   0.9044256826971164    0.8929000179815816    0.9044256826971164 As
