Zr8 Ga16
1.0
  13.0192088452001453    0.0000000000000000    0.0000000000000008
   0.0000000000000013    8.2995421357568748   -4.0145442355670120
   0.0000000000000000    0.0000000000000000    4.0145442355670138
Zr Ga
8 16
direct
   0.6496418334771406    0.2500000000000000    0.2500000000000000 Zr
   0.6496418334771406    0.7499999999999999    0.7499999999999999 Zr
   0.8503581665228594    0.2500000000000000    0.7500000000000000 Zr
   0.8503581665228594    0.7500000000000000    0.2500000000000000 Zr
   0.1496418334771406    0.2500000000000001    0.7500000000000000 Zr
   0.1496418334771406    0.7500000000000000    0.2500000000000000 Zr
   0.3503581665228594    0.2500000000000000    0.2500000000000000 Zr
   0.3503581665228594    0.7500000000000000    0.7500000000000000 Zr
   0.0000000000000000    0.2500000000000000    0.2500000000000000 Ga
   0.0000000000000000    0.7500000000000000    0.7500000000000000 Ga
   0.0000000000000000    0.0000000000000000    0.5000000000000000 Ga
   0.0000000000000000    0.5000000000000000    0.0000000000000000 Ga
   0.8218118888692345    0.0000000000000000    0.0000000000000000 Ga
   0.8218118888692345    0.5000000000000000    0.5000000000000000 Ga
   0.6781881111307655    0.0000000000000000    0.4999999999999999 Ga
   0.6781881111307655    0.5000000000000000    0.0000000000000000 Ga
   0.4999999999999999    0.2500000000000000    0.7499999999999999 Ga
   0.4999999999999999    0.7500000000000000    0.2499999999999998 Ga
   0.4999999999999999    0.0000000000000000    0.0000000000000000 Ga
   0.4999999999999999    0.4999999999999999    0.4999999999999999 Ga
   0.3218118888692345    0.0000000000000000    0.5000000000000000 Ga
   0.3218118888692345    0.4999999999999999    0.0000000000000000 Ga
   0.1781881111307655    0.0000000000000000    0.0000000000000000 Ga
   0.1781881111307655    0.5000000000000000    0.5000000000000000 Ga
