Zr4 Rh4
1.0
   4.4936892158055697    0.0000000000000000    0.0000000000000003
  -0.0000000000000004    6.1668290395623258   -5.2918141668510268
   0.0000000000000000    0.0000000000000000    5.2918141668510268
Zr Rh
4 4
direct
   0.2500000000000000    0.1764894721452280    0.3180911829627961 Zr
   0.7500000000000000    0.3235105278547719    0.9651122386723399 Zr
   0.2500000000000001    0.6764894721452281    0.0348877613276599 Zr
   0.7500000000000000    0.8235105278547719    0.6819088170372037 Zr
   0.2500000000000001    0.5458311161839620    0.3766226232663786 Rh
   0.7500000000000000    0.4541688838160380    0.6233773767336215 Rh
   0.7500000000000000    0.9541688838160380    0.2849603908984547 Rh
   0.2500000000000001    0.0458311161839620    0.7150396091015454 Rh
