V12 Ni4
1.0
   4.6688983736195189    0.0000000000000000   -4.6688983736195189
   0.0000000000000015    9.3377967472390395   -4.6688983736195198
   0.0000000000000000    0.0000000000000000    4.6688983736195198
V Ni
12 4
direct
   0.2500000000000000    0.0000000000000000    0.7500000000000000 V
   0.2500000000000000    0.4999999999999999    0.2500000000000000 V
   0.7500000000000000    0.0000000000000000    0.2500000000000000 V
   0.7500000000000000    0.4999999999999999    0.7500000000000000 V
   0.0000000000000000    0.2500000000000000    0.5000000000000000 V
   0.0000000000000000    0.7500000000000000    0.0000000000000000 V
   0.0000000000000000    0.2500000000000000    0.0000000000000000 V
   0.0000000000000000    0.7500000000000000    0.5000000000000000 V
   0.5000000000000000    0.1250000000000000    0.6250000000000000 V
   0.5000000000000000    0.6250000000000000    0.1250000000000000 V
   0.5000000000000000    0.3750000000000000    0.8750000000000000 V
   0.5000000000000000    0.8750000000000000    0.3750000000000000 V
   0.5000000000000000    0.2500000000000000    0.2500000000000000 Ni
   0.5000000000000000    0.7500000000000000    0.7500000000000000 Ni
   0.0000000000000000    0.0000000000000000    0.0000000000000000 Ni
   0.0000000000000000    0.5000000000000000    0.5000000000000000 Ni
