Cd2 In4 Se8
1.0
   5.9013427256681616    0.0000000000000000    0.0000000000000004
   0.0000000000000020   12.1902317257190820   -5.9013427256681616
   0.0000000000000000    0.0000000000000000    5.9013427256681616
Cd In Se
2 4 8
direct
   0.0000000000000000    0.0000000000000000    0.0000000000000000 Cd
   0.0000000000000000    0.5000000000000000    0.5000000000000000 Cd
   0.0000000000000000    0.2500000000000000    0.7500000000000000 In
   0.0000000000000000    0.7500000000000000    0.2500000000000000 In
   0.5000000000000000    0.2500000000000000    0.2500000000000000 In
   0.5000000000000000    0.7500000000000000    0.7500000000000000 In
   0.2726024219561091    0.3823080454974155    0.1097056235413065 Se
   0.2726024219561091    0.8823080454974156    0.6097056235413065 Se
   0.2726024219561091    0.1176919545025845    0.3902943764586936 Se
   0.2726024219561091    0.6176919545025845    0.8902943764586936 Se
   0.7273975780438910    0.3823080454974155    0.6549104674535245 Se
   0.7273975780438910    0.8823080454974156    0.1549104674535247 Se
   0.7273975780438910    0.1176919545025845    0.8450895325464756 Se
   0.7273975780438910    0.6176919545025845    0.3450895325464756 Se
