In12 Ni18 Se12
1.0
   4.7425066431974550    0.0000000000000000   -8.2142624612509270
  -0.0000000000000145   28.6346791406679841   -5.4761749741672823
   0.0000000000000000    0.0000000000000000    5.4761749741672832
In Ni Se
12 18 12
direct
   0.0000000000000000    0.0000000000000000    0.0000000000000000 In
   0.0000000000000000    0.5000000000000000    0.5000000000000000 In
   0.6666666666666665    0.0833333333333333    0.0833333333333330 In
   0.6666666666666665    0.5833333333333334    0.5833333333333330 In
   0.3333333333333334    0.1666666666666667    0.1666666666666667 In
   0.3333333333333334    0.6666666666666666    0.6666666666666665 In
   0.9999999999999998    0.2500000000000000    0.2499999999999996 In
   0.9999999999999998    0.7500000000000000    0.7499999999999996 In
   0.6666666666666666    0.3333333333333333    0.3333333333333333 In
   0.6666666666666666    0.8333333333333334    0.8333333333333335 In
   0.3333333333333330    0.4166666666666666    0.4166666666666661 In
   0.3333333333333330    0.9166666666666665    0.9166666666666661 In
   0.6666666666666666    0.0833333333333333    0.5833333333333330 Ni
   0.6666666666666666    0.5833333333333334    0.0833333333333330 Ni
   0.1666666666666669    0.0833333333333333    0.0833333333333335 Ni
   0.1666666666666669    0.5833333333333334    0.5833333333333335 Ni
   0.1666666666666666    0.0833333333333333    0.5833333333333334 Ni
   0.1666666666666666    0.5833333333333334    0.0833333333333335 Ni
   0.0000000000000000    0.2500000000000000    0.7500000000000000 Ni
   0.0000000000000000    0.7500000000000000    0.2500000000000000 Ni
   0.5000000000000000    0.2500000000000000    0.2500000000000000 Ni
   0.5000000000000000    0.7500000000000000    0.7500000000000000 Ni
   0.5000000000000000    0.2500000000000000    0.7500000000000000 Ni
   0.5000000000000000    0.7500000000000000    0.2500000000000000 Ni
   0.3333333333333332    0.4166666666666666    0.9166666666666663 Ni
   0.3333333333333332    0.9166666666666665    0.4166666666666663 Ni
   0.8333333333333334    0.4166666666666666    0.4166666666666667 Ni
   0.8333333333333334    0.9166666666666665    0.9166666666666667 Ni
   0.8333333333333331    0.4166666666666666    0.9166666666666663 Ni
   0.8333333333333331    0.9166666666666665    0.4166666666666661 Ni
   0.0000000000000000    0.1414351784504340    0.1414351784504340 Se
   0.0000000000000000    0.6414351784504341    0.6414351784504341 Se
   0.3333333333333334    0.0252314882162327    0.0252314882162328 Se
   0.3333333333333334    0.5252314882162327    0.5252314882162326 Se
   0.3333333333333334    0.3081018451171006    0.3081018451171005 Se
   0.3333333333333334    0.8081018451171006    0.8081018451171005 Se
   0.6666666666666666    0.1918981548828994    0.1918981548828991 Se
   0.6666666666666666    0.6918981548828993    0.6918981548828991 Se
   0.6666666666666666    0.4747685117837673    0.4747685117837672 Se
   0.6666666666666666    0.9747685117837673    0.9747685117837674 Se
   0.0000000000000000    0.3585648215495660    0.3585648215495660 Se
   0.0000000000000000    0.8585648215495659    0.8585648215495659 Se
