Tl36
1.0
   3.1179413930620030    0.0000000000000000   -1.8001443026018251
  -0.0000000000000015   25.1306215242743001   -3.6002886052036476
   0.0000000000000000    0.0000000000000000   32.4025974468328499
Tl
36
Selective dynamics
direct
   0.0000000000000000    0.0000000000000000    0.3333333333333334 T T T Tl
   0.6666666666666644    0.8875680882830750    0.3578779357351567 T T T Tl
   0.0000000000000000    0.7790985783835893    0.3087887309315099 T T T Tl
   0.3333333333333358    0.3333333333333357    0.3333333333333334 T T T Tl
   0.0000000000000000    0.2209014216164107    0.3578779357351567 T T T Tl
   0.3333333333333358    0.1124319117169250    0.3087887309315099 T T T Tl
   0.6666666666666644    0.6666666666666643    0.3333333333333334 T T T Tl
   0.3333333333333358    0.5542347549497392    0.3578779357351560 T T T Tl
   0.6666666666666644    0.4457652450502607    0.3087887309315107 T T T Tl
   0.0000000000000000    0.0000000000000000    0.4444444444444444 F F F Tl
   0.6666666666666644    0.8875680882830750    0.4689890468462679 F F F Tl
   0.0000000000000000    0.7790985783835893    0.4198998420426210 F F F Tl
   0.3333333333333358    0.3333333333333357    0.4444444444444444 F F F Tl
   0.0000000000000000    0.2209014216164107    0.4689890468462679 F F F Tl
   0.3333333333333358    0.1124319117169250    0.4198998420426210 F F F Tl
   0.6666666666666644    0.6666666666666643    0.4444444444444444 F F F Tl
   0.3333333333333358    0.5542347549497392    0.4689890468462671 F F F Tl
   0.6666666666666644    0.4457652450502607    0.4198998420426218 F F F Tl
   0.0000000000000000    0.0000000000000000    0.5555555555555556 F F F Tl
   0.6666666666666644    0.8875680882830750    0.5801001579573790 F F F Tl
   0.0000000000000000    0.7790985783835893    0.5310109531537321 F F F Tl
   0.3333333333333358    0.3333333333333357    0.5555555555555556 F F F Tl
   0.0000000000000000    0.2209014216164107    0.5801001579573790 F F F Tl
   0.3333333333333358    0.1124319117169250    0.5310109531537321 F F F Tl
   0.6666666666666644    0.6666666666666643    0.5555555555555556 F F F Tl
   0.3333333333333358    0.5542347549497392    0.5801001579573781 F F F Tl
   0.6666666666666644    0.4457652450502607    0.5310109531537329 F F F Tl
   0.0000000000000000    0.0000000000000000    0.6666666666666666 T T T Tl
   0.6666666666666644    0.8875680882830750    0.6912112690684901 T T T Tl
   0.0000000000000000    0.7790985783835893    0.6421220642648433 T T T Tl
   0.3333333333333358    0.3333333333333357    0.6666666666666666 T T T Tl
   0.0000000000000000    0.2209014216164107    0.6912112690684901 T T T Tl
   0.3333333333333358    0.1124319117169250    0.6421220642648433 T T T Tl
   0.6666666666666644    0.6666666666666643    0.6666666666666666 T T T Tl
   0.3333333333333358    0.5542347549497392    0.6912112690684893 T T T Tl
   0.6666666666666644    0.4457652450502607    0.6421220642648440 T T T Tl

   0.0000000000000000    0.0000000000000000    0.0000000000000000
   0.0000000000000000    0.0000000000000000    0.0000000000000000
   0.0000000000000000    0.0000000000000000    0.0000000000000000
   0.0000000000000000    0.0000000000000000    0.0000000000000000
   0.0000000000000000    0.0000000000000000    0.0000000000000000
   0.0000000000000000    0.0000000000000000    0.0000000000000000
   0.0000000000000000    0.0000000000000000    0.0000000000000000
   0.0000000000000000    0.0000000000000000    0.0000000000000000
   0.0000000000000000    0.0000000000000000    0.0000000000000000
   0.0000000000000000    0.0000000000000000    0.0000000000000000
   0.0000000000000000    0.0000000000000000    0.0000000000000000
   0.0000000000000000    0.0000000000000000    0.0000000000000000
   0.0000000000000000    0.0000000000000000    0.0000000000000000
   0.0000000000000000    0.0000000000000000    0.0000000000000000
   0.0000000000000000    0.0000000000000000    0.0000000000000000
   0.0000000000000000    0.0000000000000000    0.0000000000000000
   0.0000000000000000    0.0000000000000000    0.0000000000000000
   0.0000000000000000    0.0000000000000000    0.0000000000000000
   0.0000000000000000    0.0000000000000000    0.0000000000000000
   0.0000000000000000    0.0000000000000000    0.0000000000000000
   0.0000000000000000    0.0000000000000000    0.0000000000000000
   0.0000000000000000    0.0000000000000000    0.0000000000000000
   0.0000000000000000    0.0000000000000000    0.0000000000000000
   0.0000000000000000    0.0000000000000000    0.0000000000000000
   0.0000000000000000    0.0000000000000000    0.0000000000000000
   0.0000000000000000    0.0000000000000000    0.0000000000000000
   0.0000000000000000    0.0000000000000000    0.0000000000000000
   0.0000000000000000    0.0000000000000000    0.0000000000000000
   0.0000000000000000    0.0000000000000000    0.0000000000000000
   0.0000000000000000    0.0000000000000000    0.0000000000000000
   0.0000000000000000    0.0000000000000000    0.0000000000000000
   0.0000000000000000    0.0000000000000000    0.0000000000000000
   0.0000000000000000    0.0000000000000000    0.0000000000000000
   0.0000000000000000    0.0000000000000000    0.0000000000000000
   0.0000000000000000    0.0000000000000000    0.0000000000000000
   0.0000000000000000    0.0000000000000000    0.0000000000000000
