Ag108
1.0
  21.4588033502697542    0.0000000000000000    0.0000000000000013
   0.0000000000000008    5.0925867650666126   -5.8804126793654801
   0.0000000000000000    0.0000000000000000   41.1628887555583134
Ag
108
Selective dynamics
direct
   0.0000000000000000    0.4999999999999999    0.3154761904761905 T T T Ag
   0.0000000000000000    0.0000000000000000    0.3511904761904762 T T T Ag
   0.8889632669012073    0.3333333333333321    0.3273809523809524 T T T Ag
   0.8889632669012073    0.8333333333333321    0.2916666666666667 T T T Ag
   0.7777033997654570    0.4999999999999999    0.3154761904761905 T T T Ag
   0.7777033997654570    0.0000000000000000    0.3511904761904762 T T T Ag
   0.6666666666666643    0.3333333333333321    0.3273809523809524 T T T Ag
   0.6666666666666643    0.8333333333333321    0.2916666666666667 T T T Ag
   0.5556299335678716    0.1666666666666679    0.3392857142857142 T T T Ag
   0.5556299335678716    0.6666666666666679    0.3035714285714285 T T T Ag
   0.4443700664321284    0.3333333333333321    0.3273809523809524 T T T Ag
   0.4443700664321284    0.8333333333333321    0.2916666666666667 T T T Ag
   0.3333333333333357    0.1666666666666679    0.3392857142857142 T T T Ag
   0.3333333333333357    0.6666666666666679    0.3035714285714285 T T T Ag
   0.2222966002345431    0.4999999999999999    0.3154761904761905 T T T Ag
   0.2222966002345431    0.0000000000000000    0.3511904761904762 T T T Ag
   0.1110367330987927    0.1666666666666679    0.3392857142857142 T T T Ag
   0.1110367330987927    0.6666666666666679    0.3035714285714285 T T T Ag
   0.0000000000000000    0.4999999999999999    0.3869047619047619 T T T Ag
   0.0000000000000000    0.0000000000000000    0.4226190476190476 F F F Ag
   0.8889632669012073    0.3333333333333321    0.3988095238095239 T T T Ag
   0.8889632669012073    0.8333333333333321    0.3630952380952381 T T T Ag
   0.7777033997654570    0.4999999999999999    0.3869047619047619 T T T Ag
   0.7777033997654570    0.0000000000000000    0.4226190476190476 F F F Ag
   0.6666666666666643    0.3333333333333321    0.3988095238095239 T T T Ag
   0.6666666666666643    0.8333333333333321    0.3630952380952381 T T T Ag
   0.5556299335678716    0.1666666666666679    0.4107142857142856 F F F Ag
   0.5556299335678716    0.6666666666666679    0.3749999999999999 T T T Ag
   0.4443700664321284    0.3333333333333321    0.3988095238095239 T T T Ag
   0.4443700664321284    0.8333333333333321    0.3630952380952381 T T T Ag
   0.3333333333333357    0.1666666666666679    0.4107142857142856 F F F Ag
   0.3333333333333357    0.6666666666666679    0.3749999999999999 T T T Ag
   0.2222966002345431    0.4999999999999999    0.3869047619047619 T T T Ag
   0.2222966002345431    0.0000000000000000    0.4226190476190476 F F F Ag
   0.1110367330987927    0.1666666666666679    0.4107142857142856 F F F Ag
   0.1110367330987927    0.6666666666666679    0.3749999999999999 T T T Ag
   0.0000000000000000    0.4999999999999999    0.4583333333333334 F F F Ag
   0.0000000000000000    0.0000000000000000    0.4940476190476191 F F F Ag
   0.8889632669012073    0.3333333333333321    0.4702380952380953 F F F Ag
   0.8889632669012073    0.8333333333333321    0.4345238095238096 F F F Ag
   0.7777033997654570    0.4999999999999999    0.4583333333333334 F F F Ag
   0.7777033997654570    0.0000000000000000    0.4940476190476191 F F F Ag
   0.6666666666666643    0.3333333333333321    0.4702380952380953 F F F Ag
   0.6666666666666643    0.8333333333333321    0.4345238095238096 F F F Ag
   0.5556299335678716    0.1666666666666679    0.4821428571428570 F F F Ag
   0.5556299335678716    0.6666666666666679    0.4464285714285713 F F F Ag
   0.4443700664321284    0.3333333333333321    0.4702380952380953 F F F Ag
   0.4443700664321284    0.8333333333333321    0.4345238095238096 F F F Ag
   0.3333333333333357    0.1666666666666679    0.4821428571428570 F F F Ag
   0.3333333333333357    0.6666666666666679    0.4464285714285713 F F F Ag
   0.2222966002345431    0.4999999999999999    0.4583333333333334 F F F Ag
   0.2222966002345431    0.0000000000000000    0.4940476190476191 F F F Ag
   0.1110367330987927    0.1666666666666679    0.4821428571428570 F F F Ag
   0.1110367330987927    0.6666666666666679    0.4464285714285713 F F F Ag
   0.0000000000000000    0.4999999999999999    0.5297619047619048 F F F Ag
   0.0000000000000000    0.0000000000000000    0.5654761904761905 F F F Ag
   0.8889632669012073    0.3333333333333321    0.5416666666666667 F F F Ag
   0.8889632669012073    0.8333333333333321    0.5059523809523810 F F F Ag
   0.7777033997654570    0.4999999999999999    0.5297619047619048 F F F Ag
   0.7777033997654570    0.0000000000000000    0.5654761904761905 F F F Ag
   0.6666666666666643    0.3333333333333321    0.5416666666666667 F F F Ag
   0.6666666666666643    0.8333333333333321    0.5059523809523810 F F F Ag
   0.5556299335678716    0.1666666666666679    0.5535714285714285 F F F Ag
   0.5556299335678716    0.6666666666666679    0.5178571428571428 F F F Ag
   0.4443700664321284    0.3333333333333321    0.5416666666666667 F F F Ag
   0.4443700664321284    0.8333333333333321    0.5059523809523810 F F F Ag
   0.3333333333333357    0.1666666666666679    0.5535714285714285 F F F Ag
   0.3333333333333357    0.6666666666666679    0.5178571428571428 F F F Ag
   0.2222966002345431    0.4999999999999999    0.5297619047619048 F F F Ag
   0.2222966002345431    0.0000000000000000    0.5654761904761905 F F F Ag
   0.1110367330987927    0.1666666666666679    0.5535714285714285 F F F Ag
   0.1110367330987927    0.6666666666666679    0.5178571428571428 F F F Ag
   0.0000000000000000    0.4999999999999999    0.6011904761904762 T T T Ag
   0.0000000000000000    0.0000000000000000    0.6369047619047619 T T T Ag
   0.8889632669012073    0.3333333333333321    0.6130952380952381 T T T Ag
   0.8889632669012073    0.8333333333333321    0.5773809523809524 F F F Ag
   0.7777033997654570    0.4999999999999999    0.6011904761904762 T T T Ag
   0.7777033997654570    0.0000000000000000    0.6369047619047619 T T T Ag
   0.6666666666666643    0.3333333333333321    0.6130952380952381 T T T Ag
   0.6666666666666643    0.8333333333333321    0.5773809523809524 F F F Ag
   0.5556299335678716    0.1666666666666679    0.6249999999999999 T T T Ag
   0.5556299335678716    0.6666666666666679    0.5892857142857142 F F F Ag
   0.4443700664321284    0.3333333333333321    0.6130952380952381 T T T Ag
   0.4443700664321284    0.8333333333333321    0.5773809523809524 F F F Ag
   0.3333333333333357    0.1666666666666679    0.6249999999999999 T T T Ag
   0.3333333333333357    0.6666666666666679    0.5892857142857142 F F F Ag
   0.2222966002345431    0.4999999999999999    0.6011904761904762 T T T Ag
   0.2222966002345431    0.0000000000000000    0.6369047619047619 T T T Ag
   0.1110367330987927    0.1666666666666679    0.6249999999999999 T T T Ag
   0.1110367330987927    0.6666666666666679    0.5892857142857142 F F F Ag
   0.0000000000000000    0.4999999999999999    0.6726190476190477 T T T Ag
   0.0000000000000000    0.0000000000000000    0.7083333333333333 T T T Ag
   0.8889632669012073    0.3333333333333321    0.6845238095238095 T T T Ag
   0.8889632669012073    0.8333333333333321    0.6488095238095239 T T T Ag
   0.7777033997654570    0.4999999999999999    0.6726190476190477 T T T Ag
   0.7777033997654570    0.0000000000000000    0.7083333333333333 T T T Ag
   0.6666666666666643    0.3333333333333321    0.6845238095238095 T T T Ag
   0.6666666666666643    0.8333333333333321    0.6488095238095239 T T T Ag
   0.5556299335678716    0.1666666666666679    0.6964285714285714 T T T Ag
   0.5556299335678716    0.6666666666666679    0.6607142857142856 T T T Ag
   0.4443700664321284    0.3333333333333321    0.6845238095238095 T T T Ag
   0.4443700664321284    0.8333333333333321    0.6488095238095239 T T T Ag
   0.3333333333333357    0.1666666666666679    0.6964285714285714 T T T Ag
   0.3333333333333357    0.6666666666666679    0.6607142857142856 T T T Ag
   0.2222966002345431    0.4999999999999999    0.6726190476190477 T T T Ag
   0.2222966002345431    0.0000000000000000    0.7083333333333333 T T T Ag
   0.1110367330987927    0.1666666666666679    0.6964285714285714 T T T Ag
   0.1110367330987927    0.6666666666666679    0.6607142857142856 T T T Ag

   0.0000000000000000    0.0000000000000000    0.0000000000000000
   0.0000000000000000    0.0000000000000000    0.0000000000000000
   0.0000000000000000    0.0000000000000000    0.0000000000000000
   0.0000000000000000    0.0000000000000000    0.0000000000000000
   0.0000000000000000    0.0000000000000000    0.0000000000000000
   0.0000000000000000    0.0000000000000000    0.0000000000000000
   0.0000000000000000    0.0000000000000000    0.0000000000000000
   0.0000000000000000    0.0000000000000000    0.0000000000000000
   0.0000000000000000    0.0000000000000000    0.0000000000000000
   0.0000000000000000    0.0000000000000000    0.0000000000000000
   0.0000000000000000    0.0000000000000000    0.0000000000000000
   0.0000000000000000    0.0000000000000000    0.0000000000000000
   0.0000000000000000    0.0000000000000000    0.0000000000000000
   0.0000000000000000    0.0000000000000000    0.0000000000000000
   0.0000000000000000    0.0000000000000000    0.0000000000000000
   0.0000000000000000    0.0000000000000000    0.0000000000000000
   0.0000000000000000    0.0000000000000000    0.0000000000000000
   0.0000000000000000    0.0000000000000000    0.0000000000000000
   0.0000000000000000    0.0000000000000000    0.0000000000000000
   0.0000000000000000    0.0000000000000000    0.0000000000000000
   0.0000000000000000    0.0000000000000000    0.0000000000000000
   0.0000000000000000    0.0000000000000000    0.0000000000000000
   0.0000000000000000    0.0000000000000000    0.0000000000000000
   0.0000000000000000    0.0000000000000000    0.0000000000000000
   0.0000000000000000    0.0000000000000000    0.0000000000000000
   0.0000000000000000    0.0000000000000000    0.0000000000000000
   0.0000000000000000    0.0000000000000000    0.0000000000000000
   0.0000000000000000    0.0000000000000000    0.0000000000000000
   0.0000000000000000    0.0000000000000000    0.0000000000000000
   0.0000000000000000    0.0000000000000000    0.0000000000000000
   0.0000000000000000    0.0000000000000000    0.0000000000000000
   0.0000000000000000    0.0000000000000000    0.0000000000000000
   0.0000000000000000    0.0000000000000000    0.0000000000000000
   0.0000000000000000    0.0000000000000000    0.0000000000000000
   0.0000000000000000    0.0000000000000000    0.0000000000000000
   0.0000000000000000    0.0000000000000000    0.0000000000000000
   0.0000000000000000    0.0000000000000000    0.0000000000000000
   0.0000000000000000    0.0000000000000000    0.0000000000000000
   0.0000000000000000    0.0000000000000000    0.0000000000000000
   0.0000000000000000    0.0000000000000000    0.0000000000000000
   0.0000000000000000    0.0000000000000000    0.0000000000000000
   0.0000000000000000    0.0000000000000000    0.0000000000000000
   0.0000000000000000    0.0000000000000000    0.0000000000000000
   0.0000000000000000    0.0000000000000000    0.0000000000000000
   0.0000000000000000    0.0000000000000000    0.0000000000000000
   0.0000000000000000    0.0000000000000000    0.0000000000000000
   0.0000000000000000    0.0000000000000000    0.0000000000000000
   0.0000000000000000    0.0000000000000000    0.0000000000000000
   0.0000000000000000    0.0000000000000000    0.0000000000000000
   0.0000000000000000    0.0000000000000000    0.0000000000000000
   0.0000000000000000    0.0000000000000000    0.0000000000000000
   0.0000000000000000    0.0000000000000000    0.0000000000000000
   0.0000000000000000    0.0000000000000000    0.0000000000000000
   0.0000000000000000    0.0000000000000000    0.0000000000000000
   0.0000000000000000    0.0000000000000000    0.0000000000000000
   0.0000000000000000    0.0000000000000000    0.0000000000000000
   0.0000000000000000    0.0000000000000000    0.0000000000000000
   0.0000000000000000    0.0000000000000000    0.0000000000000000
   0.0000000000000000    0.0000000000000000    0.0000000000000000
   0.0000000000000000    0.0000000000000000    0.0000000000000000
   0.0000000000000000    0.0000000000000000    0.0000000000000000
   0.0000000000000000    0.0000000000000000    0.0000000000000000
   0.0000000000000000    0.0000000000000000    0.0000000000000000
   0.0000000000000000    0.0000000000000000    0.0000000000000000
   0.0000000000000000    0.0000000000000000    0.0000000000000000
   0.0000000000000000    0.0000000000000000    0.0000000000000000
   0.0000000000000000    0.0000000000000000    0.0000000000000000
   0.0000000000000000    0.0000000000000000    0.0000000000000000
   0.0000000000000000    0.0000000000000000    0.0000000000000000
   0.0000000000000000    0.0000000000000000    0.0000000000000000
   0.0000000000000000    0.0000000000000000    0.0000000000000000
   0.0000000000000000    0.0000000000000000    0.0000000000000000
   0.0000000000000000    0.0000000000000000    0.0000000000000000
   0.0000000000000000    0.0000000000000000    0.0000000000000000
   0.0000000000000000    0.0000000000000000    0.0000000000000000
   0.0000000000000000    0.0000000000000000    0.0000000000000000
   0.0000000000000000    0.0000000000000000    0.0000000000000000
   0.0000000000000000    0.0000000000000000    0.0000000000000000
   0.0000000000000000    0.0000000000000000    0.0000000000000000
   0.0000000000000000    0.0000000000000000    0.0000000000000000
   0.0000000000000000    0.0000000000000000    0.0000000000000000
   0.0000000000000000    0.0000000000000000    0.0000000000000000
   0.0000000000000000    0.0000000000000000    0.0000000000000000
   0.0000000000000000    0.0000000000000000    0.0000000000000000
   0.0000000000000000    0.0000000000000000    0.0000000000000000
   0.0000000000000000    0.0000000000000000    0.0000000000000000
   0.0000000000000000    0.0000000000000000    0.0000000000000000
   0.0000000000000000    0.0000000000000000    0.0000000000000000
   0.0000000000000000    0.0000000000000000    0.0000000000000000
   0.0000000000000000    0.0000000000000000    0.0000000000000000
   0.0000000000000000    0.0000000000000000    0.0000000000000000
   0.0000000000000000    0.0000000000000000    0.0000000000000000
   0.0000000000000000    0.0000000000000000    0.0000000000000000
   0.0000000000000000    0.0000000000000000    0.0000000000000000
   0.0000000000000000    0.0000000000000000    0.0000000000000000
   0.0000000000000000    0.0000000000000000    0.0000000000000000
   0.0000000000000000    0.0000000000000000    0.0000000000000000
   0.0000000000000000    0.0000000000000000    0.0000000000000000
   0.0000000000000000    0.0000000000000000    0.0000000000000000
   0.0000000000000000    0.0000000000000000    0.0000000000000000
   0.0000000000000000    0.0000000000000000    0.0000000000000000
   0.0000000000000000    0.0000000000000000    0.0000000000000000
   0.0000000000000000    0.0000000000000000    0.0000000000000000
   0.0000000000000000    0.0000000000000000    0.0000000000000000
   0.0000000000000000    0.0000000000000000    0.0000000000000000
   0.0000000000000000    0.0000000000000000    0.0000000000000000
   0.0000000000000000    0.0000000000000000    0.0000000000000000
   0.0000000000000000    0.0000000000000000    0.0000000000000000
