Y54
1.0
   3.1309353195110750    0.0000000000000000   -5.4229390486050848
   0.0000000000000041   25.7956400597195241   -3.6152926990700562
   0.0000000000000000    0.0000000000000000   54.2293904860508320
Y
54
Selective dynamics
direct
   0.0000000000000000    0.0000000000000000    0.3629629629629630 T T T Y
   0.6666666666666643    0.8884184474144519    0.3555241927905931 T T T Y
   0.0000000000000000    0.7782482192522194    0.3481795109131109 T T T Y
   0.3333333333333357    0.3333333333333357    0.3185185185185187 T T T Y
   0.0000000000000000    0.2217517807477805    0.3110797483461483 T T T Y
   0.3333333333333357    0.1115815525855481    0.3037350664686662 T T T Y
   0.6666666666666643    0.6666666666666643    0.3407407407407406 T T T Y
   0.3333333333333357    0.5550851140811162    0.3333019705683707 T T T Y
   0.6666666666666643    0.4449148859188838    0.3259572886908886 T T T Y
   0.0000000000000000    0.0000000000000000    0.4296296296296296 F F F Y
   0.6666666666666643    0.8884184474144519    0.4221908594572598 F F F Y
   0.0000000000000000    0.7782482192522194    0.4148461775797776 F F F Y
   0.3333333333333357    0.3333333333333357    0.3851851851851854 T T T Y
   0.0000000000000000    0.2217517807477805    0.3777464150128150 T T T Y
   0.3333333333333357    0.1115815525855481    0.3704017331353329 T T T Y
   0.6666666666666643    0.6666666666666643    0.4074074074074073 T T T Y
   0.3333333333333357    0.5550851140811162    0.3999686372350374 T T T Y
   0.6666666666666643    0.4449148859188838    0.3926239553575552 T T T Y
   0.0000000000000000    0.0000000000000000    0.4962962962962963 F F F Y
   0.6666666666666643    0.8884184474144519    0.4888575261239264 F F F Y
   0.0000000000000000    0.7782482192522194    0.4815128442464442 F F F Y
   0.3333333333333357    0.3333333333333357    0.4518518518518521 F F F Y
   0.0000000000000000    0.2217517807477805    0.4444130816794817 F F F Y
   0.3333333333333357    0.1115815525855481    0.4370683998019995 F F F Y
   0.6666666666666643    0.6666666666666643    0.4740740740740739 F F F Y
   0.3333333333333357    0.5550851140811162    0.4666353039017040 F F F Y
   0.6666666666666643    0.4449148859188838    0.4592906220242219 F F F Y
   0.0000000000000000    0.0000000000000000    0.5629629629629630 F F F Y
   0.6666666666666643    0.8884184474144519    0.5555241927905932 F F F Y
   0.0000000000000000    0.7782482192522194    0.5481795109131109 F F F Y
   0.3333333333333357    0.3333333333333357    0.5185185185185187 F F F Y
   0.0000000000000000    0.2217517807477805    0.5110797483461483 F F F Y
   0.3333333333333357    0.1115815525855481    0.5037350664686662 F F F Y
   0.6666666666666643    0.6666666666666643    0.5407407407407406 F F F Y
   0.3333333333333357    0.5550851140811162    0.5333019705683707 F F F Y
   0.6666666666666643    0.4449148859188838    0.5259572886908885 F F F Y
   0.0000000000000000    0.0000000000000000    0.6296296296296297 T T T Y
   0.6666666666666643    0.8884184474144519    0.6221908594572598 T T T Y
   0.0000000000000000    0.7782482192522194    0.6148461775797776 T T T Y
   0.3333333333333357    0.3333333333333357    0.5851851851851854 F F F Y
   0.0000000000000000    0.2217517807477805    0.5777464150128150 F F F Y
   0.3333333333333357    0.1115815525855481    0.5704017331353328 F F F Y
   0.6666666666666643    0.6666666666666643    0.6074074074074073 T T T Y
   0.3333333333333357    0.5550851140811162    0.5999686372350375 T T T Y
   0.6666666666666643    0.4449148859188838    0.5926239553575552 T T T Y
   0.0000000000000000    0.0000000000000000    0.6962962962962963 T T T Y
   0.6666666666666643    0.8884184474144519    0.6888575261239265 T T T Y
   0.0000000000000000    0.7782482192522194    0.6815128442464442 T T T Y
   0.3333333333333357    0.3333333333333357    0.6518518518518520 T T T Y
   0.0000000000000000    0.2217517807477805    0.6444130816794816 T T T Y
   0.3333333333333357    0.1115815525855481    0.6370683998019995 T T T Y
   0.6666666666666643    0.6666666666666643    0.6740740740740739 T T T Y
   0.3333333333333357    0.5550851140811162    0.6666353039017041 T T T Y
   0.6666666666666643    0.4449148859188838    0.6592906220242218 T T T Y

   0.0000000000000000    0.0000000000000000    0.0000000000000000
   0.0000000000000000    0.0000000000000000    0.0000000000000000
   0.0000000000000000    0.0000000000000000    0.0000000000000000
   0.0000000000000000    0.0000000000000000    0.0000000000000000
   0.0000000000000000    0.0000000000000000    0.0000000000000000
   0.0000000000000000    0.0000000000000000    0.0000000000000000
   0.0000000000000000    0.0000000000000000    0.0000000000000000
   0.0000000000000000    0.0000000000000000    0.0000000000000000
   0.0000000000000000    0.0000000000000000    0.0000000000000000
   0.0000000000000000    0.0000000000000000    0.0000000000000000
   0.0000000000000000    0.0000000000000000    0.0000000000000000
   0.0000000000000000    0.0000000000000000    0.0000000000000000
   0.0000000000000000    0.0000000000000000    0.0000000000000000
   0.0000000000000000    0.0000000000000000    0.0000000000000000
   0.0000000000000000    0.0000000000000000    0.0000000000000000
   0.0000000000000000    0.0000000000000000    0.0000000000000000
   0.0000000000000000    0.0000000000000000    0.0000000000000000
   0.0000000000000000    0.0000000000000000    0.0000000000000000
   0.0000000000000000    0.0000000000000000    0.0000000000000000
   0.0000000000000000    0.0000000000000000    0.0000000000000000
   0.0000000000000000    0.0000000000000000    0.0000000000000000
   0.0000000000000000    0.0000000000000000    0.0000000000000000
   0.0000000000000000    0.0000000000000000    0.0000000000000000
   0.0000000000000000    0.0000000000000000    0.0000000000000000
   0.0000000000000000    0.0000000000000000    0.0000000000000000
   0.0000000000000000    0.0000000000000000    0.0000000000000000
   0.0000000000000000    0.0000000000000000    0.0000000000000000
   0.0000000000000000    0.0000000000000000    0.0000000000000000
   0.0000000000000000    0.0000000000000000    0.0000000000000000
   0.0000000000000000    0.0000000000000000    0.0000000000000000
   0.0000000000000000    0.0000000000000000    0.0000000000000000
   0.0000000000000000    0.0000000000000000    0.0000000000000000
   0.0000000000000000    0.0000000000000000    0.0000000000000000
   0.0000000000000000    0.0000000000000000    0.0000000000000000
   0.0000000000000000    0.0000000000000000    0.0000000000000000
   0.0000000000000000    0.0000000000000000    0.0000000000000000
   0.0000000000000000    0.0000000000000000    0.0000000000000000
   0.0000000000000000    0.0000000000000000    0.0000000000000000
   0.0000000000000000    0.0000000000000000    0.0000000000000000
   0.0000000000000000    0.0000000000000000    0.0000000000000000
   0.0000000000000000    0.0000000000000000    0.0000000000000000
   0.0000000000000000    0.0000000000000000    0.0000000000000000
   0.0000000000000000    0.0000000000000000    0.0000000000000000
   0.0000000000000000    0.0000000000000000    0.0000000000000000
   0.0000000000000000    0.0000000000000000    0.0000000000000000
   0.0000000000000000    0.0000000000000000    0.0000000000000000
   0.0000000000000000    0.0000000000000000    0.0000000000000000
   0.0000000000000000    0.0000000000000000    0.0000000000000000
   0.0000000000000000    0.0000000000000000    0.0000000000000000
   0.0000000000000000    0.0000000000000000    0.0000000000000000
   0.0000000000000000    0.0000000000000000    0.0000000000000000
   0.0000000000000000    0.0000000000000000    0.0000000000000000
   0.0000000000000000    0.0000000000000000    0.0000000000000000
   0.0000000000000000    0.0000000000000000    0.0000000000000000
