Te18
1.0
   4.5103006873870592    0.0000000000000000    0.0000000000000003
   4.5103006873870859    7.8120699479672044    5.9678410788552094
   0.0000000000000000    0.0000000000000000   41.7748875519864811
Te
18
Selective dynamics
direct
   0.0000000000000001    0.3657836140646217    0.3644118646574351 T T T Te
   0.0000000000000000    0.8657836140646218    0.2929832932288637 T T T Te
   0.2684327718707564    0.4999999999999999    0.3928571428571423 F F F Te
   0.2684327718707564    0.0000000000000000    0.3214285714285710 T T T Te
   0.7315672281292506    0.1342163859353746    0.3498738496282797 T T T Te
   0.7315672281292505    0.6342163859353747    0.4213024210568511 F F F Te
   0.0000000000000001    0.3657836140646217    0.5072690075145780 F F F Te
   0.0000000000000000    0.8657836140646218    0.4358404360860066 F F F Te
   0.2684327718707564    0.4999999999999999    0.5357142857142851 F F F Te
   0.2684327718707564    0.0000000000000000    0.4642857142857138 F F F Te
   0.7315672281292506    0.1342163859353746    0.4927309924854225 F F F Te
   0.7315672281292505    0.6342163859353747    0.5641595639139940 F F F Te
   0.0000000000000001    0.3657836140646217    0.6501261503717208 T T T Te
   0.0000000000000000    0.8657836140646218    0.5786975789431494 F F F Te
   0.2684327718707564    0.4999999999999999    0.6785714285714280 T T T Te
   0.2684327718707564    0.0000000000000000    0.6071428571428567 F F F Te
   0.7315672281292506    0.1342163859353746    0.6355881353425654 T T T Te
   0.7315672281292505    0.6342163859353747    0.7070167067711368 T T T Te

   0.0000000000000000    0.0000000000000000    0.0000000000000000
   0.0000000000000000    0.0000000000000000    0.0000000000000000
   0.0000000000000000    0.0000000000000000    0.0000000000000000
   0.0000000000000000    0.0000000000000000    0.0000000000000000
   0.0000000000000000    0.0000000000000000    0.0000000000000000
   0.0000000000000000    0.0000000000000000    0.0000000000000000
   0.0000000000000000    0.0000000000000000    0.0000000000000000
   0.0000000000000000    0.0000000000000000    0.0000000000000000
   0.0000000000000000    0.0000000000000000    0.0000000000000000
   0.0000000000000000    0.0000000000000000    0.0000000000000000
   0.0000000000000000    0.0000000000000000    0.0000000000000000
   0.0000000000000000    0.0000000000000000    0.0000000000000000
   0.0000000000000000    0.0000000000000000    0.0000000000000000
   0.0000000000000000    0.0000000000000000    0.0000000000000000
   0.0000000000000000    0.0000000000000000    0.0000000000000000
   0.0000000000000000    0.0000000000000000    0.0000000000000000
   0.0000000000000000    0.0000000000000000    0.0000000000000000
   0.0000000000000000    0.0000000000000000    0.0000000000000000
