Pb12
1.0
   5.0328398407785446    0.0000000000000000    0.0000000000000003
   0.0000000000000008    5.0328398407785446    0.0000000000000003
   0.0000000000000000    0.0000000000000000   30.1970390446712678
Pb
12
Selective dynamics
direct
   0.0000000000000000    0.0000000000000000    0.3750000000000000 T T T Pb
   0.5000000000000000    0.5000000000000000    0.3750000000000000 T T T Pb
   0.0000000000000000    0.5000000000000000    0.2916666666666667 T T T Pb
   0.5000000000000000    0.0000000000000000    0.2916666666666667 T T T Pb
   0.0000000000000000    0.0000000000000000    0.5416666666666666 F F F Pb
   0.5000000000000000    0.5000000000000000    0.5416666666666666 F F F Pb
   0.0000000000000000    0.5000000000000000    0.4583333333333333 F F F Pb
   0.5000000000000000    0.0000000000000000    0.4583333333333333 F F F Pb
   0.0000000000000000    0.0000000000000000    0.7083333333333333 T T T Pb
   0.5000000000000000    0.5000000000000000    0.7083333333333333 T T T Pb
   0.0000000000000000    0.5000000000000000    0.6250000000000000 T T T Pb
   0.5000000000000000    0.0000000000000000    0.6250000000000000 T T T Pb

   0.0000000000000000    0.0000000000000000    0.0000000000000000
   0.0000000000000000    0.0000000000000000    0.0000000000000000
   0.0000000000000000    0.0000000000000000    0.0000000000000000
   0.0000000000000000    0.0000000000000000    0.0000000000000000
   0.0000000000000000    0.0000000000000000    0.0000000000000000
   0.0000000000000000    0.0000000000000000    0.0000000000000000
   0.0000000000000000    0.0000000000000000    0.0000000000000000
   0.0000000000000000    0.0000000000000000    0.0000000000000000
   0.0000000000000000    0.0000000000000000    0.0000000000000000
   0.0000000000000000    0.0000000000000000    0.0000000000000000
   0.0000000000000000    0.0000000000000000    0.0000000000000000
   0.0000000000000000    0.0000000000000000    0.0000000000000000
