Ru20
1.0
   2.7225707415016385    0.0000000000000000    0.0000000000000002
   2.7225707415016402    4.7156308514813103    4.2828324702572598
   0.0000000000000000    0.0000000000000000   42.8283247025726084
Ru
20
Selective dynamics
direct
   0.6666666666666644    0.3333333333333322    0.3166666666666668 T T T Ru
   0.6666666666666643    0.8333333333333321    0.2666666666666667 T T T Ru
   0.3333333333333356    0.1666666666666678    0.2833333333333332 T T T Ru
   0.3333333333333357    0.6666666666666679    0.3333333333333331 T T T Ru
   0.6666666666666644    0.3333333333333322    0.4166666666666667 F F F Ru
   0.6666666666666643    0.8333333333333321    0.3666666666666668 F F F Ru
   0.3333333333333356    0.1666666666666678    0.3833333333333332 F F F Ru
   0.3333333333333357    0.6666666666666679    0.4333333333333332 F F F Ru
   0.6666666666666644    0.3333333333333322    0.5166666666666668 F F F Ru
   0.6666666666666643    0.8333333333333321    0.4666666666666667 F F F Ru
   0.3333333333333356    0.1666666666666678    0.4833333333333332 F F F Ru
   0.3333333333333357    0.6666666666666679    0.5333333333333332 F F F Ru
   0.6666666666666644    0.3333333333333322    0.6166666666666667 F F F Ru
   0.6666666666666643    0.8333333333333321    0.5666666666666667 F F F Ru
   0.3333333333333356    0.1666666666666678    0.5833333333333331 F F F Ru
   0.3333333333333357    0.6666666666666679    0.6333333333333331 F F F Ru
   0.6666666666666644    0.3333333333333322    0.7166666666666668 T T T Ru
   0.6666666666666643    0.8333333333333321    0.6666666666666667 T T T Ru
   0.3333333333333356    0.1666666666666678    0.6833333333333331 T T T Ru
   0.3333333333333357    0.6666666666666679    0.7333333333333332 T T T Ru

   0.0000000000000000    0.0000000000000000    0.0000000000000000
   0.0000000000000000    0.0000000000000000    0.0000000000000000
   0.0000000000000000    0.0000000000000000    0.0000000000000000
   0.0000000000000000    0.0000000000000000    0.0000000000000000
   0.0000000000000000    0.0000000000000000    0.0000000000000000
   0.0000000000000000    0.0000000000000000    0.0000000000000000
   0.0000000000000000    0.0000000000000000    0.0000000000000000
   0.0000000000000000    0.0000000000000000    0.0000000000000000
   0.0000000000000000    0.0000000000000000    0.0000000000000000
   0.0000000000000000    0.0000000000000000    0.0000000000000000
   0.0000000000000000    0.0000000000000000    0.0000000000000000
   0.0000000000000000    0.0000000000000000    0.0000000000000000
   0.0000000000000000    0.0000000000000000    0.0000000000000000
   0.0000000000000000    0.0000000000000000    0.0000000000000000
   0.0000000000000000    0.0000000000000000    0.0000000000000000
   0.0000000000000000    0.0000000000000000    0.0000000000000000
   0.0000000000000000    0.0000000000000000    0.0000000000000000
   0.0000000000000000    0.0000000000000000    0.0000000000000000
   0.0000000000000000    0.0000000000000000    0.0000000000000000
   0.0000000000000000    0.0000000000000000    0.0000000000000000
