Sr24
1.0
   4.2694270167869846    0.0000000000000000    0.0000000000000003
   0.0000000000000017   10.4901327449758242   -2.4568818660524157
   0.0000000000000000    0.0000000000000000   51.7603439853508718
Sr
24
Selective dynamics
direct
   0.0000000000000000    0.0000000000000000    0.3214285714285715 F F F Sr
   0.0000000000000000    0.3332930133213736    0.2896926230919651 F F F Sr
   0.5000000000000000    0.6667069866786264    0.2817359483366064 F F F Sr
   0.5000000000000000    0.0000000000000000    0.2500000000000001 T T T Sr
   0.5000000000000000    0.3332930133213736    0.2182640516633937 T T T Sr
   0.0000000000000000    0.6667069866786263    0.3531645197651778 F F F Sr
   0.0000000000000000    0.0000000000000000    0.4642857142857144 F F F Sr
   0.0000000000000000    0.3332930133213736    0.4325497659491080 F F F Sr
   0.5000000000000000    0.6667069866786264    0.4245930911937493 F F F Sr
   0.5000000000000000    0.0000000000000000    0.3928571428571429 F F F Sr
   0.5000000000000000    0.3332930133213736    0.3611211945205366 F F F Sr
   0.0000000000000000    0.6667069866786263    0.4960216626223207 F F F Sr
   0.0000000000000000    0.0000000000000000    0.6071428571428572 F F F Sr
   0.0000000000000000    0.3332930133213736    0.5754069088062508 F F F Sr
   0.5000000000000000    0.6667069866786264    0.5674502340508921 F F F Sr
   0.5000000000000000    0.0000000000000000    0.5357142857142858 F F F Sr
   0.5000000000000000    0.3332930133213736    0.5039783373776794 F F F Sr
   0.0000000000000000    0.6667069866786263    0.6388788054794636 F F F Sr
   0.0000000000000000    0.0000000000000000    0.7500000000000000 T T T Sr
   0.0000000000000000    0.3332930133213736    0.7182640516633938 F F F Sr
   0.5000000000000000    0.6667069866786264    0.7103073769080350 F F F Sr
   0.5000000000000000    0.0000000000000000    0.6785714285714286 F F F Sr
   0.5000000000000000    0.3332930133213736    0.6468354802348222 F F F Sr
   0.0000000000000000    0.6667069866786263    0.7817359483366064 T T T Sr

   0.0000000000000000    0.0000000000000000    0.0000000000000000
   0.0000000000000000    0.0000000000000000    0.0000000000000000
   0.0000000000000000    0.0000000000000000    0.0000000000000000
   0.0000000000000000    0.0000000000000000    0.0000000000000000
   0.0000000000000000    0.0000000000000000    0.0000000000000000
   0.0000000000000000    0.0000000000000000    0.0000000000000000
   0.0000000000000000    0.0000000000000000    0.0000000000000000
   0.0000000000000000    0.0000000000000000    0.0000000000000000
   0.0000000000000000    0.0000000000000000    0.0000000000000000
   0.0000000000000000    0.0000000000000000    0.0000000000000000
   0.0000000000000000    0.0000000000000000    0.0000000000000000
   0.0000000000000000    0.0000000000000000    0.0000000000000000
   0.0000000000000000    0.0000000000000000    0.0000000000000000
   0.0000000000000000    0.0000000000000000    0.0000000000000000
   0.0000000000000000    0.0000000000000000    0.0000000000000000
   0.0000000000000000    0.0000000000000000    0.0000000000000000
   0.0000000000000000    0.0000000000000000    0.0000000000000000
   0.0000000000000000    0.0000000000000000    0.0000000000000000
   0.0000000000000000    0.0000000000000000    0.0000000000000000
   0.0000000000000000    0.0000000000000000    0.0000000000000000
   0.0000000000000000    0.0000000000000000    0.0000000000000000
   0.0000000000000000    0.0000000000000000    0.0000000000000000
   0.0000000000000000    0.0000000000000000    0.0000000000000000
   0.0000000000000000    0.0000000000000000    0.0000000000000000
