Sr12
1.0
   7.1995107010124171    0.0000000000000000   -1.6861890803278381
   0.0000000000000007    4.2694270167869846    0.0000000000000003
   0.0000000000000000    0.0000000000000000   43.0960143885164797
Sr
12
Selective dynamics
direct
   0.0000000000000000    0.0000000000000000    0.3750000000000000 F F F Sr
   0.7778483616437555    0.0000000000000000    0.4583232533303434 F F F Sr
   0.7221516383562444    0.5000000000000000    0.2916767466696566 T T T Sr
   0.5000000000000000    0.5000000000000000    0.3750000000000000 F F F Sr
   0.2778483616437555    0.5000000000000000    0.4583232533303434 F F F Sr
   0.2221516383562445    0.0000000000000000    0.2916767466696566 T T T Sr
   0.0000000000000000    0.0000000000000000    0.6250000000000000 F F F Sr
   0.7778483616437555    0.0000000000000000    0.7083232533303434 T T T Sr
   0.7221516383562444    0.5000000000000000    0.5416767466696566 F F F Sr
   0.5000000000000000    0.5000000000000000    0.6250000000000000 F F F Sr
   0.2778483616437555    0.5000000000000000    0.7083232533303434 T T T Sr
   0.2221516383562445    0.0000000000000000    0.5416767466696566 F F F Sr

   0.0000000000000000    0.0000000000000000    0.0000000000000000
   0.0000000000000000    0.0000000000000000    0.0000000000000000
   0.0000000000000000    0.0000000000000000    0.0000000000000000
   0.0000000000000000    0.0000000000000000    0.0000000000000000
   0.0000000000000000    0.0000000000000000    0.0000000000000000
   0.0000000000000000    0.0000000000000000    0.0000000000000000
   0.0000000000000000    0.0000000000000000    0.0000000000000000
   0.0000000000000000    0.0000000000000000    0.0000000000000000
   0.0000000000000000    0.0000000000000000    0.0000000000000000
   0.0000000000000000    0.0000000000000000    0.0000000000000000
   0.0000000000000000    0.0000000000000000    0.0000000000000000
   0.0000000000000000    0.0000000000000000    0.0000000000000000
