Zr12
1.0
   3.2331768990008856    0.0000000000000000    0.0000000000000002
   3.2331768990008865    5.6000266589275212    5.1659563787811980
   0.0000000000000000    0.0000000000000000   36.1616946514683804
Zr
12
Selective dynamics
direct
   0.6666666666666643    0.3333333333333321    0.3809523809523811 T T T Zr
   0.6666666666666643    0.8333333333333321    0.3095238095238097 T T T Zr
   0.3333333333333356    0.1666666666666678    0.3333333333333331 T T T Zr
   0.3333333333333356    0.6666666666666679    0.4047619047619045 T T T Zr
   0.6666666666666643    0.3333333333333321    0.5238095238095239 F F F Zr
   0.6666666666666643    0.8333333333333321    0.4523809523809526 F F F Zr
   0.3333333333333356    0.1666666666666678    0.4761904761904760 F F F Zr
   0.3333333333333356    0.6666666666666679    0.5476190476190474 F F F Zr
   0.6666666666666643    0.3333333333333321    0.6666666666666667 T T T Zr
   0.6666666666666643    0.8333333333333321    0.5952380952380953 T T T Zr
   0.3333333333333356    0.1666666666666678    0.6190476190476188 T T T Zr
   0.3333333333333356    0.6666666666666679    0.6904761904761902 T T T Zr

   0.0000000000000000    0.0000000000000000    0.0000000000000000
   0.0000000000000000    0.0000000000000000    0.0000000000000000
   0.0000000000000000    0.0000000000000000    0.0000000000000000
   0.0000000000000000    0.0000000000000000    0.0000000000000000
   0.0000000000000000    0.0000000000000000    0.0000000000000000
   0.0000000000000000    0.0000000000000000    0.0000000000000000
   0.0000000000000000    0.0000000000000000    0.0000000000000000
   0.0000000000000000    0.0000000000000000    0.0000000000000000
   0.0000000000000000    0.0000000000000000    0.0000000000000000
   0.0000000000000000    0.0000000000000000    0.0000000000000000
   0.0000000000000000    0.0000000000000000    0.0000000000000000
   0.0000000000000000    0.0000000000000000    0.0000000000000000
