Li72
1.0
   2.6679094860353216    0.0000000000000000   -1.5403182599360465
   0.0000000000000073   45.3050325656729385    3.0806365198721108
   0.0000000000000000    0.0000000000000000   30.8063651987209646
Li
72
Selective dynamics
direct
   0.3333333333333356    0.0552634093403590    0.3528069923992972 T T T Li
   0.3333333333333356    0.5552634093403591    0.3028069923992972 T T T Li
   0.0000000000000000    0.1114032573263053    0.3805263409340361 T T T Li
   0.9999999999999999    0.6114032573263053    0.3305263409340362 T T T Li
   0.0000000000000000    0.0000000000000000    0.3916666666666667 T T T Li
   0.9999999999999999    0.5000000000000000    0.3416666666666667 T T T Li
   0.6666666666666642    0.2219300760070269    0.3028069923992976 T T T Li
   0.6666666666666642    0.7219300760070270    0.3528069923992976 T T T Li
   0.3333333333333356    0.2780699239929731    0.3305263409340358 T T T Li
   0.3333333333333356    0.7780699239929733    0.3805263409340358 T T T Li
   0.3333333333333356    0.1666666666666679    0.3416666666666663 T T T Li
   0.3333333333333356    0.6666666666666679    0.3916666666666663 T T T Li
   0.0000000000000000    0.3885967426736947    0.3528069923992972 T T T Li
   0.9999999999999999    0.8885967426736947    0.3028069923992972 T T T Li
   0.6666666666666642    0.4447365906596409    0.3805263409340361 T T T Li
   0.6666666666666642    0.9447365906596410    0.3305263409340362 T T T Li
   0.6666666666666642    0.3333333333333321    0.3916666666666671 T T T Li
   0.6666666666666642    0.8333333333333323    0.3416666666666671 T T T Li
   0.3333333333333356    0.0552634093403590    0.4528069923992972 F F F Li
   0.3333333333333356    0.5552634093403591    0.4028069923992972 T T T Li
   0.0000000000000000    0.1114032573263053    0.4805263409340362 F F F Li
   0.9999999999999999    0.6114032573263053    0.4305263409340362 F F F Li
   0.0000000000000000    0.0000000000000000    0.4916666666666667 F F F Li
   0.9999999999999999    0.5000000000000000    0.4416666666666667 F F F Li
   0.6666666666666642    0.2219300760070269    0.4028069923992976 T T T Li
   0.6666666666666642    0.7219300760070270    0.4528069923992976 F F F Li
   0.3333333333333356    0.2780699239929731    0.4305263409340358 F F F Li
   0.3333333333333356    0.7780699239929733    0.4805263409340358 F F F Li
   0.3333333333333356    0.1666666666666679    0.4416666666666663 F F F Li
   0.3333333333333356    0.6666666666666679    0.4916666666666664 F F F Li
   0.0000000000000000    0.3885967426736947    0.4528069923992972 F F F Li
   0.9999999999999999    0.8885967426736947    0.4028069923992972 T T T Li
   0.6666666666666642    0.4447365906596409    0.4805263409340362 F F F Li
   0.6666666666666642    0.9447365906596410    0.4305263409340362 F F F Li
   0.6666666666666642    0.3333333333333321    0.4916666666666670 F F F Li
   0.6666666666666642    0.8333333333333323    0.4416666666666670 F F F Li
   0.3333333333333356    0.0552634093403590    0.5528069923992973 F F F Li
   0.3333333333333356    0.5552634093403591    0.5028069923992973 F F F Li
   0.0000000000000000    0.1114032573263053    0.5805263409340362 T T T Li
   0.9999999999999999    0.6114032573263053    0.5305263409340362 F F F Li
   0.0000000000000000    0.0000000000000000    0.5916666666666667 T T T Li
   0.9999999999999999    0.5000000000000000    0.5416666666666667 F F F Li
   0.6666666666666642    0.2219300760070269    0.5028069923992976 F F F Li
   0.6666666666666642    0.7219300760070270    0.5528069923992975 F F F Li
   0.3333333333333356    0.2780699239929731    0.5305263409340358 F F F Li
   0.3333333333333356    0.7780699239929733    0.5805263409340358 T T T Li
   0.3333333333333356    0.1666666666666679    0.5416666666666663 F F F Li
   0.3333333333333356    0.6666666666666679    0.5916666666666663 T T T Li
   0.0000000000000000    0.3885967426736947    0.5528069923992973 F F F Li
   0.9999999999999999    0.8885967426736947    0.5028069923992973 F F F Li
   0.6666666666666642    0.4447365906596409    0.5805263409340362 T T T Li
   0.6666666666666642    0.9447365906596410    0.5305263409340362 F F F Li
   0.6666666666666642    0.3333333333333321    0.5916666666666670 T T T Li
   0.6666666666666642    0.8333333333333323    0.5416666666666671 F F F Li
   0.3333333333333356    0.0552634093403590    0.6528069923992972 T T T Li
   0.3333333333333356    0.5552634093403591    0.6028069923992971 T T T Li
   0.0000000000000000    0.1114032573263053    0.6805263409340362 T T T Li
   0.9999999999999999    0.6114032573263053    0.6305263409340361 T T T Li
   0.0000000000000000    0.0000000000000000    0.6916666666666667 T T T Li
   0.9999999999999999    0.5000000000000000    0.6416666666666666 T T T Li
   0.6666666666666642    0.2219300760070269    0.6028069923992976 T T T Li
   0.6666666666666642    0.7219300760070270    0.6528069923992976 T T T Li
   0.3333333333333356    0.2780699239929731    0.6305263409340358 T T T Li
   0.3333333333333356    0.7780699239929733    0.6805263409340359 T T T Li
   0.3333333333333356    0.1666666666666679    0.6416666666666664 T T T Li
   0.3333333333333356    0.6666666666666679    0.6916666666666663 T T T Li
   0.0000000000000000    0.3885967426736947    0.6528069923992972 T T T Li
   0.9999999999999999    0.8885967426736947    0.6028069923992971 T T T Li
   0.6666666666666642    0.4447365906596409    0.6805263409340362 T T T Li
   0.6666666666666642    0.9447365906596410    0.6305263409340361 T T T Li
   0.6666666666666642    0.3333333333333321    0.6916666666666671 T T T Li
   0.6666666666666642    0.8333333333333323    0.6416666666666671 T T T Li

   0.0000000000000000    0.0000000000000000    0.0000000000000000
   0.0000000000000000    0.0000000000000000    0.0000000000000000
   0.0000000000000000    0.0000000000000000    0.0000000000000000
   0.0000000000000000    0.0000000000000000    0.0000000000000000
   0.0000000000000000    0.0000000000000000    0.0000000000000000
   0.0000000000000000    0.0000000000000000    0.0000000000000000
   0.0000000000000000    0.0000000000000000    0.0000000000000000
   0.0000000000000000    0.0000000000000000    0.0000000000000000
   0.0000000000000000    0.0000000000000000    0.0000000000000000
   0.0000000000000000    0.0000000000000000    0.0000000000000000
   0.0000000000000000    0.0000000000000000    0.0000000000000000
   0.0000000000000000    0.0000000000000000    0.0000000000000000
   0.0000000000000000    0.0000000000000000    0.0000000000000000
   0.0000000000000000    0.0000000000000000    0.0000000000000000
   0.0000000000000000    0.0000000000000000    0.0000000000000000
   0.0000000000000000    0.0000000000000000    0.0000000000000000
   0.0000000000000000    0.0000000000000000    0.0000000000000000
   0.0000000000000000    0.0000000000000000    0.0000000000000000
   0.0000000000000000    0.0000000000000000    0.0000000000000000
   0.0000000000000000    0.0000000000000000    0.0000000000000000
   0.0000000000000000    0.0000000000000000    0.0000000000000000
   0.0000000000000000    0.0000000000000000    0.0000000000000000
   0.0000000000000000    0.0000000000000000    0.0000000000000000
   0.0000000000000000    0.0000000000000000    0.0000000000000000
   0.0000000000000000    0.0000000000000000    0.0000000000000000
   0.0000000000000000    0.0000000000000000    0.0000000000000000
   0.0000000000000000    0.0000000000000000    0.0000000000000000
   0.0000000000000000    0.0000000000000000    0.0000000000000000
   0.0000000000000000    0.0000000000000000    0.0000000000000000
   0.0000000000000000    0.0000000000000000    0.0000000000000000
   0.0000000000000000    0.0000000000000000    0.0000000000000000
   0.0000000000000000    0.0000000000000000    0.0000000000000000
   0.0000000000000000    0.0000000000000000    0.0000000000000000
   0.0000000000000000    0.0000000000000000    0.0000000000000000
   0.0000000000000000    0.0000000000000000    0.0000000000000000
   0.0000000000000000    0.0000000000000000    0.0000000000000000
   0.0000000000000000    0.0000000000000000    0.0000000000000000
   0.0000000000000000    0.0000000000000000    0.0000000000000000
   0.0000000000000000    0.0000000000000000    0.0000000000000000
   0.0000000000000000    0.0000000000000000    0.0000000000000000
   0.0000000000000000    0.0000000000000000    0.0000000000000000
   0.0000000000000000    0.0000000000000000    0.0000000000000000
   0.0000000000000000    0.0000000000000000    0.0000000000000000
   0.0000000000000000    0.0000000000000000    0.0000000000000000
   0.0000000000000000    0.0000000000000000    0.0000000000000000
   0.0000000000000000    0.0000000000000000    0.0000000000000000
   0.0000000000000000    0.0000000000000000    0.0000000000000000
   0.0000000000000000    0.0000000000000000    0.0000000000000000
   0.0000000000000000    0.0000000000000000    0.0000000000000000
   0.0000000000000000    0.0000000000000000    0.0000000000000000
   0.0000000000000000    0.0000000000000000    0.0000000000000000
   0.0000000000000000    0.0000000000000000    0.0000000000000000
   0.0000000000000000    0.0000000000000000    0.0000000000000000
   0.0000000000000000    0.0000000000000000    0.0000000000000000
   0.0000000000000000    0.0000000000000000    0.0000000000000000
   0.0000000000000000    0.0000000000000000    0.0000000000000000
   0.0000000000000000    0.0000000000000000    0.0000000000000000
   0.0000000000000000    0.0000000000000000    0.0000000000000000
   0.0000000000000000    0.0000000000000000    0.0000000000000000
   0.0000000000000000    0.0000000000000000    0.0000000000000000
   0.0000000000000000    0.0000000000000000    0.0000000000000000
   0.0000000000000000    0.0000000000000000    0.0000000000000000
   0.0000000000000000    0.0000000000000000    0.0000000000000000
   0.0000000000000000    0.0000000000000000    0.0000000000000000
   0.0000000000000000    0.0000000000000000    0.0000000000000000
   0.0000000000000000    0.0000000000000000    0.0000000000000000
   0.0000000000000000    0.0000000000000000    0.0000000000000000
   0.0000000000000000    0.0000000000000000    0.0000000000000000
   0.0000000000000000    0.0000000000000000    0.0000000000000000
   0.0000000000000000    0.0000000000000000    0.0000000000000000
   0.0000000000000000    0.0000000000000000    0.0000000000000000
   0.0000000000000000    0.0000000000000000    0.0000000000000000
