In36
1.0
   2.9472725421062838    0.0000000000000000   -1.7016085955604869
   0.0000000000000040   24.8053874653015995    0.0000000000000125
   0.0000000000000000    0.0000000000000000   34.0321719112044079
In
36
Selective dynamics
direct
   0.0000000000000000    0.0000000000000000    0.3833333333333334 T T T In
   0.3333333333333357    0.1113698013013860    0.3499999999999998 T T T In
   0.0000000000000000    0.2219635320319355    0.3833333333333334 T T T In
   0.3333333333333358    0.3333333333333357    0.3499999999999998 T T T In
   0.6666666666666642    0.4447031346347643    0.3166666666666669 T T T In
   0.3333333333333356    0.5552968653652854    0.3499999999999998 T T T In
   0.6666666666666643    0.6666666666666643    0.3166666666666669 T T T In
   0.0000000000000000    0.7780364679680504    0.3833333333333334 T T T In
   0.6666666666666644    0.8886301986986211    0.3166666666666669 T T T In
   0.0000000000000000    0.0000000000000000    0.4833333333333334 F F F In
   0.3333333333333357    0.1113698013013860    0.4499999999999998 F F F In
   0.0000000000000000    0.2219635320319355    0.4833333333333334 F F F In
   0.3333333333333358    0.3333333333333357    0.4499999999999998 F F F In
   0.6666666666666642    0.4447031346347643    0.4166666666666670 T T T In
   0.3333333333333356    0.5552968653652854    0.4499999999999998 F F F In
   0.6666666666666643    0.6666666666666643    0.4166666666666670 T T T In
   0.0000000000000000    0.7780364679680504    0.4833333333333334 F F F In
   0.6666666666666644    0.8886301986986211    0.4166666666666670 T T T In
   0.0000000000000000    0.0000000000000000    0.5833333333333334 T T T In
   0.3333333333333357    0.1113698013013860    0.5499999999999998 F F F In
   0.0000000000000000    0.2219635320319355    0.5833333333333334 T T T In
   0.3333333333333358    0.3333333333333357    0.5499999999999998 F F F In
   0.6666666666666642    0.4447031346347643    0.5166666666666669 F F F In
   0.3333333333333356    0.5552968653652854    0.5499999999999998 F F F In
   0.6666666666666643    0.6666666666666643    0.5166666666666669 F F F In
   0.0000000000000000    0.7780364679680504    0.5833333333333334 T T T In
   0.6666666666666644    0.8886301986986211    0.5166666666666669 F F F In
   0.0000000000000000    0.0000000000000000    0.6833333333333333 T T T In
   0.3333333333333357    0.1113698013013860    0.6499999999999998 T T T In
   0.0000000000000000    0.2219635320319355    0.6833333333333333 T T T In
   0.3333333333333358    0.3333333333333357    0.6499999999999998 T T T In
   0.6666666666666642    0.4447031346347643    0.6166666666666669 T T T In
   0.3333333333333356    0.5552968653652854    0.6499999999999998 T T T In
   0.6666666666666643    0.6666666666666643    0.6166666666666669 T T T In
   0.0000000000000000    0.7780364679680504    0.6833333333333333 T T T In
   0.6666666666666644    0.8886301986986211    0.6166666666666669 T T T In

   0.0000000000000000    0.0000000000000000    0.0000000000000000
   0.0000000000000000    0.0000000000000000    0.0000000000000000
   0.0000000000000000    0.0000000000000000    0.0000000000000000
   0.0000000000000000    0.0000000000000000    0.0000000000000000
   0.0000000000000000    0.0000000000000000    0.0000000000000000
   0.0000000000000000    0.0000000000000000    0.0000000000000000
   0.0000000000000000    0.0000000000000000    0.0000000000000000
   0.0000000000000000    0.0000000000000000    0.0000000000000000
   0.0000000000000000    0.0000000000000000    0.0000000000000000
   0.0000000000000000    0.0000000000000000    0.0000000000000000
   0.0000000000000000    0.0000000000000000    0.0000000000000000
   0.0000000000000000    0.0000000000000000    0.0000000000000000
   0.0000000000000000    0.0000000000000000    0.0000000000000000
   0.0000000000000000    0.0000000000000000    0.0000000000000000
   0.0000000000000000    0.0000000000000000    0.0000000000000000
   0.0000000000000000    0.0000000000000000    0.0000000000000000
   0.0000000000000000    0.0000000000000000    0.0000000000000000
   0.0000000000000000    0.0000000000000000    0.0000000000000000
   0.0000000000000000    0.0000000000000000    0.0000000000000000
   0.0000000000000000    0.0000000000000000    0.0000000000000000
   0.0000000000000000    0.0000000000000000    0.0000000000000000
   0.0000000000000000    0.0000000000000000    0.0000000000000000
   0.0000000000000000    0.0000000000000000    0.0000000000000000
   0.0000000000000000    0.0000000000000000    0.0000000000000000
   0.0000000000000000    0.0000000000000000    0.0000000000000000
   0.0000000000000000    0.0000000000000000    0.0000000000000000
   0.0000000000000000    0.0000000000000000    0.0000000000000000
   0.0000000000000000    0.0000000000000000    0.0000000000000000
   0.0000000000000000    0.0000000000000000    0.0000000000000000
   0.0000000000000000    0.0000000000000000    0.0000000000000000
   0.0000000000000000    0.0000000000000000    0.0000000000000000
   0.0000000000000000    0.0000000000000000    0.0000000000000000
   0.0000000000000000    0.0000000000000000    0.0000000000000000
   0.0000000000000000    0.0000000000000000    0.0000000000000000
   0.0000000000000000    0.0000000000000000    0.0000000000000000
   0.0000000000000000    0.0000000000000000    0.0000000000000000
