Al64
1.0
   8.0778593863650006    0.0000000000000000   -4.0389296931825003
  -0.0000000000000023    8.0778593863650023   -4.0389296931825012
   0.0000000000000000    0.0000000000000000   36.3503672386425052
Al
64
Selective dynamics
direct
   0.5000000000000000    0.5000000000000000    0.3750000000000000 T T T Al
   0.0000000000000000    0.0000000000000000    0.3750000000000000 T T T Al
   0.0000000000000000    0.5000000000000000    0.3194444444444444 T T T Al
   0.5000000000000000    0.0000000000000000    0.3194444444444444 T T T Al
   0.7500000000000001    0.7500000000000001    0.3194444444444445 T T T Al
   0.2500000000000000    0.2500000000000000    0.3194444444444444 T T T Al
   0.2500000000000000    0.7500000000000001    0.3750000000000000 T T T Al
   0.7500000000000001    0.2500000000000001    0.3750000000000000 T T T Al
   0.5000000000000000    0.7500000000000001    0.3472222222222222 T T T Al
   0.0000000000000000    0.2500000000000000    0.3472222222222222 T T T Al
   0.0000000000000000    0.7500000000000001    0.2916666666666666 T T T Al
   0.5000000000000000    0.2500000000000001    0.2916666666666666 T T T Al
   0.7500000000000001    0.5000000000000000    0.3472222222222222 T T T Al
   0.2500000000000000    0.0000000000000001    0.3472222222222222 T T T Al
   0.2500000000000000    0.5000000000000000    0.2916666666666667 T T T Al
   0.7500000000000001    0.0000000000000001    0.2916666666666667 T T T Al
   0.5000000000000000    0.5000000000000000    0.4861111111111111 F F F Al
   0.0000000000000000    0.0000000000000000    0.4861111111111111 F F F Al
   0.0000000000000000    0.5000000000000000    0.4305555555555555 F F F Al
   0.5000000000000000    0.0000000000000000    0.4305555555555555 F F F Al
   0.7500000000000001    0.7500000000000001    0.4305555555555556 F F F Al
   0.2500000000000000    0.2500000000000000    0.4305555555555555 F F F Al
   0.2500000000000000    0.7500000000000001    0.4861111111111111 F F F Al
   0.7500000000000001    0.2500000000000001    0.4861111111111111 F F F Al
   0.5000000000000000    0.7500000000000001    0.4583333333333334 F F F Al
   0.0000000000000000    0.2500000000000000    0.4583333333333333 F F F Al
   0.0000000000000000    0.7500000000000001    0.4027777777777778 F F F Al
   0.5000000000000000    0.2500000000000001    0.4027777777777778 F F F Al
   0.7500000000000001    0.5000000000000000    0.4583333333333334 F F F Al
   0.2500000000000000    0.0000000000000001    0.4583333333333333 F F F Al
   0.2500000000000000    0.5000000000000000    0.4027777777777778 F F F Al
   0.7500000000000001    0.0000000000000001    0.4027777777777778 F F F Al
   0.5000000000000000    0.5000000000000000    0.5972222222222222 F F F Al
   0.0000000000000000    0.0000000000000000    0.5972222222222222 F F F Al
   0.0000000000000000    0.5000000000000000    0.5416666666666666 F F F Al
   0.5000000000000000    0.0000000000000000    0.5416666666666666 F F F Al
   0.7500000000000001    0.7500000000000001    0.5416666666666667 F F F Al
   0.2500000000000000    0.2500000000000000    0.5416666666666666 F F F Al
   0.2500000000000000    0.7500000000000001    0.5972222222222222 F F F Al
   0.7500000000000001    0.2500000000000001    0.5972222222222222 F F F Al
   0.5000000000000000    0.7500000000000001    0.5694444444444444 F F F Al
   0.0000000000000000    0.2500000000000000    0.5694444444444444 F F F Al
   0.0000000000000000    0.7500000000000001    0.5138888888888888 F F F Al
   0.5000000000000000    0.2500000000000001    0.5138888888888888 F F F Al
   0.7500000000000001    0.5000000000000000    0.5694444444444444 F F F Al
   0.2500000000000000    0.0000000000000001    0.5694444444444444 F F F Al
   0.2500000000000000    0.5000000000000000    0.5138888888888888 F F F Al
   0.7500000000000001    0.0000000000000001    0.5138888888888888 F F F Al
   0.5000000000000000    0.5000000000000000    0.7083333333333333 T T T Al
   0.0000000000000000    0.0000000000000000    0.7083333333333333 T T T Al
   0.0000000000000000    0.5000000000000000    0.6527777777777777 T T T Al
   0.5000000000000000    0.0000000000000000    0.6527777777777777 T T T Al
   0.7500000000000001    0.7500000000000001    0.6527777777777778 T T T Al
   0.2500000000000000    0.2500000000000000    0.6527777777777777 T T T Al
   0.2500000000000000    0.7500000000000001    0.7083333333333333 T T T Al
   0.7500000000000001    0.2500000000000001    0.7083333333333333 T T T Al
   0.5000000000000000    0.7500000000000001    0.6805555555555556 T T T Al
   0.0000000000000000    0.2500000000000000    0.6805555555555556 T T T Al
   0.0000000000000000    0.7500000000000001    0.6250000000000000 T T T Al
   0.5000000000000000    0.2500000000000001    0.6250000000000000 T T T Al
   0.7500000000000001    0.5000000000000000    0.6805555555555556 T T T Al
   0.2500000000000000    0.0000000000000001    0.6805555555555556 T T T Al
   0.2500000000000000    0.5000000000000000    0.6250000000000000 T T T Al
   0.7500000000000001    0.0000000000000001    0.6250000000000000 T T T Al

   0.0000000000000000    0.0000000000000000    0.0000000000000000
   0.0000000000000000    0.0000000000000000    0.0000000000000000
   0.0000000000000000    0.0000000000000000    0.0000000000000000
   0.0000000000000000    0.0000000000000000    0.0000000000000000
   0.0000000000000000    0.0000000000000000    0.0000000000000000
   0.0000000000000000    0.0000000000000000    0.0000000000000000
   0.0000000000000000    0.0000000000000000    0.0000000000000000
   0.0000000000000000    0.0000000000000000    0.0000000000000000
   0.0000000000000000    0.0000000000000000    0.0000000000000000
   0.0000000000000000    0.0000000000000000    0.0000000000000000
   0.0000000000000000    0.0000000000000000    0.0000000000000000
   0.0000000000000000    0.0000000000000000    0.0000000000000000
   0.0000000000000000    0.0000000000000000    0.0000000000000000
   0.0000000000000000    0.0000000000000000    0.0000000000000000
   0.0000000000000000    0.0000000000000000    0.0000000000000000
   0.0000000000000000    0.0000000000000000    0.0000000000000000
   0.0000000000000000    0.0000000000000000    0.0000000000000000
   0.0000000000000000    0.0000000000000000    0.0000000000000000
   0.0000000000000000    0.0000000000000000    0.0000000000000000
   0.0000000000000000    0.0000000000000000    0.0000000000000000
   0.0000000000000000    0.0000000000000000    0.0000000000000000
   0.0000000000000000    0.0000000000000000    0.0000000000000000
   0.0000000000000000    0.0000000000000000    0.0000000000000000
   0.0000000000000000    0.0000000000000000    0.0000000000000000
   0.0000000000000000    0.0000000000000000    0.0000000000000000
   0.0000000000000000    0.0000000000000000    0.0000000000000000
   0.0000000000000000    0.0000000000000000    0.0000000000000000
   0.0000000000000000    0.0000000000000000    0.0000000000000000
   0.0000000000000000    0.0000000000000000    0.0000000000000000
   0.0000000000000000    0.0000000000000000    0.0000000000000000
   0.0000000000000000    0.0000000000000000    0.0000000000000000
   0.0000000000000000    0.0000000000000000    0.0000000000000000
   0.0000000000000000    0.0000000000000000    0.0000000000000000
   0.0000000000000000    0.0000000000000000    0.0000000000000000
   0.0000000000000000    0.0000000000000000    0.0000000000000000
   0.0000000000000000    0.0000000000000000    0.0000000000000000
   0.0000000000000000    0.0000000000000000    0.0000000000000000
   0.0000000000000000    0.0000000000000000    0.0000000000000000
   0.0000000000000000    0.0000000000000000    0.0000000000000000
   0.0000000000000000    0.0000000000000000    0.0000000000000000
   0.0000000000000000    0.0000000000000000    0.0000000000000000
   0.0000000000000000    0.0000000000000000    0.0000000000000000
   0.0000000000000000    0.0000000000000000    0.0000000000000000
   0.0000000000000000    0.0000000000000000    0.0000000000000000
   0.0000000000000000    0.0000000000000000    0.0000000000000000
   0.0000000000000000    0.0000000000000000    0.0000000000000000
   0.0000000000000000    0.0000000000000000    0.0000000000000000
   0.0000000000000000    0.0000000000000000    0.0000000000000000
   0.0000000000000000    0.0000000000000000    0.0000000000000000
   0.0000000000000000    0.0000000000000000    0.0000000000000000
   0.0000000000000000    0.0000000000000000    0.0000000000000000
   0.0000000000000000    0.0000000000000000    0.0000000000000000
   0.0000000000000000    0.0000000000000000    0.0000000000000000
   0.0000000000000000    0.0000000000000000    0.0000000000000000
   0.0000000000000000    0.0000000000000000    0.0000000000000000
   0.0000000000000000    0.0000000000000000    0.0000000000000000
   0.0000000000000000    0.0000000000000000    0.0000000000000000
   0.0000000000000000    0.0000000000000000    0.0000000000000000
   0.0000000000000000    0.0000000000000000    0.0000000000000000
   0.0000000000000000    0.0000000000000000    0.0000000000000000
   0.0000000000000000    0.0000000000000000    0.0000000000000000
   0.0000000000000000    0.0000000000000000    0.0000000000000000
   0.0000000000000000    0.0000000000000000    0.0000000000000000
   0.0000000000000000    0.0000000000000000    0.0000000000000000
