Zr2 Ti4 Ga8
1.0
   6.5790672541670165    0.0000000000000000    0.0000000000000004
   0.0000000000000011    6.5790672541670165    0.0000000000000004
   0.0000000000000000    0.0000000000000000    5.4666950468631725
Zr Ti Ga
2 4 8
direct
   0.0000000000000000    0.0000000000000000    0.0000000000000000 Zr
   0.5000000000000000    0.5000000000000000    0.5000000000000000 Zr
   0.5000000000000000    0.0000000000000000    0.7500000000000000 Ti
   0.0000000000000000    0.5000000000000000    0.7500000000000000 Ti
   0.0000000000000000    0.5000000000000000    0.2500000000000000 Ti
   0.5000000000000000    0.0000000000000000    0.2500000000000000 Ti
   0.3038441291531684    0.3038441291531684    0.0000000000000000 Ga
   0.1961558708468316    0.1961558708468316    0.5000000000000000 Ga
   0.1961558708468316    0.8038441291531684    0.5000000000000000 Ga
   0.8038441291531684    0.1961558708468316    0.5000000000000000 Ga
   0.8038441291531684    0.8038441291531684    0.5000000000000000 Ga
   0.6961558708468317    0.6961558708468317    0.0000000000000000 Ga
   0.6961558708468317    0.3038441291531684    0.0000000000000000 Ga
   0.3038441291531684    0.6961558708468317    0.0000000000000000 Ga
