Ag24 Sn4 Sb4
1.0
  10.6618188984423501    0.0000000000000000   -4.8385125077323110
   0.0000000000000020   12.1802015732737949   -4.8385125077323128
   0.0000000000000000    0.0000000000000000    4.8385125077323137
Ag Sn Sb
24 4 4
direct
   0.5804772495309402    0.8765408086863680    0.9570180582173082 Ag
   0.0804772495309402    0.3765408086863680    0.9570180582173081 Ag
   0.0804772495309402    0.8765408086863680    0.4570180582173082 Ag
   0.5804772495309402    0.3765408086863680    0.4570180582173082 Ag
   0.5804772495309402    0.6234591913136321    0.7039364408445724 Ag
   0.0804772495309402    0.1234591913136321    0.7039364408445723 Ag
   0.0804772495309402    0.6234591913136321    0.2039364408445723 Ag
   0.5804772495309402    0.1234591913136322    0.2039364408445723 Ag
   0.9206462046585280    0.8761351120864198    0.7967813167449479 Ag
   0.4206462046585280    0.3761351120864198    0.7967813167449479 Ag
   0.4206462046585280    0.8761351120864198    0.2967813167449478 Ag
   0.9206462046585280    0.3761351120864199    0.2967813167449480 Ag
   0.9206462046585280    0.6238648879135803    0.5445110925721085 Ag
   0.4206462046585280    0.1238648879135803    0.5445110925721084 Ag
   0.4206462046585280    0.6238648879135803    0.0445110925721084 Ag
   0.9206462046585280    0.1238648879135804    0.0445110925721084 Ag
   0.6599116369874807    0.7500000000000001    0.4099116369874808 Ag
   0.1599116369874807    0.2500000000000000    0.4099116369874808 Ag
   0.1599116369874807    0.7500000000000001    0.9099116369874809 Ag
   0.6599116369874807    0.2500000000000001    0.9099116369874808 Ag
   0.8362020925253830    0.5000000000000001    0.8362020925253831 Ag
   0.3362020925253830    0.0000000000000001    0.8362020925253830 Ag
   0.3362020925253830    0.5000000000000001    0.3362020925253830 Ag
   0.8362020925253830    0.0000000000000001    0.3362020925253832 Ag
   0.6680518809066704    0.5000000000000000    0.1680518809066705 Sn
   0.1680518809066705    0.0000000000000000    0.1680518809066705 Sn
   0.1680518809066705    0.5000000000000000    0.6680518809066706 Sn
   0.6680518809066704    0.0000000000000001    0.6680518809066707 Sn
   0.8335879812015357    0.7500000000000001    0.0835879812015359 Sb
   0.3335879812015357    0.2500000000000001    0.0835879812015359 Sb
   0.3335879812015357    0.7500000000000001    0.5835879812015359 Sb
   0.8335879812015357    0.2500000000000002    0.5835879812015359 Sb
