Al8 Cd4 Te16
1.0
   6.2922028576438116    0.0000000000000000    0.0000000000000004
   0.0000000000000038   23.9392004378696335   -6.2922028576438107
   0.0000000000000000    0.0000000000000000    6.2922028576438116
Al Cd Te
8 4 16
direct
   0.0000000000000000    0.1250000000000000    0.6250000000000000 Al
   0.0000000000000000    0.6250000000000000    0.1250000000000000 Al
   0.5000000000000000    0.0000000000000000    0.5000000000000000 Al
   0.5000000000000000    0.4999999999999999    0.0000000000000000 Al
   0.5000000000000000    0.3750000000000000    0.3750000000000000 Al
   0.5000000000000000    0.8750000000000000    0.8750000000000000 Al
   0.0000000000000000    0.2500000000000000    0.2500000000000000 Al
   0.0000000000000000    0.7500000000000000    0.7500000000000000 Al
   0.0000000000000000    0.0000000000000000    0.0000000000000000 Cd
   0.0000000000000000    0.5000000000000000    0.5000000000000000 Cd
   0.5000000000000000    0.2500000000000000    0.7500000000000000 Cd
   0.5000000000000000    0.7500000000000000    0.2500000000000000 Cd
   0.2716747237218869    0.0685106106190787    0.8110324844901129 Te
   0.2716747237218869    0.5685106106190786    0.3110324844901129 Te
   0.7574781261289658    0.1814893893809213    0.9531641131028084 Te
   0.7574781261289658    0.6814893893809214    0.4531641131028084 Te
   0.2425218738710342    0.1814893893809213    0.4098146656590343 Te
   0.2425218738710342    0.6814893893809214    0.9098146656590345 Te
   0.7283252762781131    0.0685106106190787    0.3259887367480445 Te
   0.7283252762781131    0.5685106106190786    0.8259887367480445 Te
   0.7716747237218869    0.3185106106190787    0.5610324844901129 Te
   0.7716747237218869    0.8185106106190787    0.0610324844901129 Te
   0.2574781261289658    0.4314893893809213    0.7031641131028081 Te
   0.2574781261289658    0.9314893893809214    0.2031641131028081 Te
   0.7425218738710342    0.4314893893809213    0.1598146656590345 Te
   0.7425218738710342    0.9314893893809214    0.6598146656590345 Te
   0.2283252762781132    0.3185106106190787    0.0759887367480445 Te
   0.2283252762781132    0.8185106106190787    0.5759887367480445 Te
