Zn12 Cu4
1.0
   5.4352734442748547    0.0000000000000000    0.0000000000000003
   5.4352734442748494    9.4141697585139408    4.3300747815647203
   0.0000000000000000    0.0000000000000000    4.3300747815647203
Zn Cu
12 4
direct
   0.1695514384714621    0.3304485615285380    0.4195514384714620 Zn
   0.1695514384714621    0.8304485615285380    0.9195514384714620 Zn
   0.1695514384714621    0.0847757192357310    0.6652242807642690 Zn
   0.1695514384714620    0.5847757192357310    0.1652242807642690 Zn
   0.6608971230570760    0.0847757192357310    0.6652242807642690 Zn
   0.6608971230570759    0.5847757192357310    0.1652242807642690 Zn
   0.8304485615285381    0.1695514384714620    0.0804485615285377 Zn
   0.8304485615285380    0.6695514384714620    0.5804485615285380 Zn
   0.8304485615285380    0.4152242807642690    0.8347757192357308 Zn
   0.8304485615285380    0.9152242807642690    0.3347757192357310 Zn
   0.3391028769429241    0.4152242807642690    0.8347757192357308 Zn
   0.3391028769429241    0.9152242807642690    0.3347757192357310 Zn
   0.3333333333333334    0.1666666666666667    0.0833333333333330 Cu
   0.3333333333333333    0.6666666666666667    0.5833333333333333 Cu
   0.6666666666666669    0.3333333333333333    0.4166666666666667 Cu
   0.6666666666666669    0.8333333333333333    0.9166666666666666 Cu
