K6 Cu24 As12
1.0
   7.1773887949651218    0.0000000000000000    0.0000000000000004
   0.0000000000000042   26.2164114654156464    4.1438673528517231
   0.0000000000000000    0.0000000000000000    4.1438673528517169
K Cu As
6 24 12
direct
   0.5000000000000000    0.0000000000000000    0.5000000000000000 K
   0.0000000000000000    0.0000000000000000    0.0000000000000000 K
   0.3333333333333333    0.3333333333333333    0.6666666666666667 K
   0.8333333333333333    0.3333333333333333    0.1666666666666667 K
   0.1666666666666667    0.6666666666666666    0.8333333333333334 K
   0.6666666666666667    0.6666666666666666    0.3333333333333334 K
   0.3333333333333333    0.1877531934551806    0.8122468065448194 Cu
   0.8333333333333333    0.1877531934551806    0.3122468065448195 Cu
   0.5000000000000000    0.1455801398781527    0.3544198601218473 Cu
   0.0000000000000000    0.1455801398781527    0.8544198601218473 Cu
   0.1666666666666667    0.2200165853981620    0.2799834146018381 Cu
   0.6666666666666667    0.2200165853981619    0.7799834146018381 Cu
   0.1666666666666666    0.1133167479351714    0.3866832520648287 Cu
   0.6666666666666666    0.1133167479351714    0.8866832520648287 Cu
   0.1666666666666667    0.5210865267885139    0.9789134732114863 Cu
   0.6666666666666667    0.5210865267885139    0.4789134732114863 Cu
   0.3333333333333333    0.4789134732114860    0.5210865267885141 Cu
   0.8333333333333333    0.4789134732114860    0.0210865267885141 Cu
   0.5000000000000000    0.5533499187314952    0.9466500812685048 Cu
   0.0000000000000000    0.5533499187314952    0.4466500812685048 Cu
   0.5000000000000000    0.4466500812685047    0.0533499187314953 Cu
   0.0000000000000000    0.4466500812685047    0.5533499187314953 Cu
   0.5000000000000000    0.8544198601218472    0.6455801398781528 Cu
   0.0000000000000000    0.8544198601218472    0.1455801398781528 Cu
   0.1666666666666667    0.8122468065448194    0.6877531934551806 Cu
   0.6666666666666667    0.8122468065448194    0.1877531934551806 Cu
   0.3333333333333334    0.8866832520648286    0.1133167479351715 Cu
   0.8333333333333334    0.8866832520648285    0.6133167479351715 Cu
   0.3333333333333333    0.7799834146018381    0.2200165853981622 Cu
   0.8333333333333333    0.7799834146018381    0.7200165853981622 Cu
   0.3333333333333333    0.0925048128837057    0.9074951871162943 As
   0.8333333333333333    0.0925048128837057    0.4074951871162943 As
   0.5000000000000000    0.2408285204496276    0.2591714795503724 As
   0.0000000000000000    0.2408285204496276    0.7591714795503723 As
   0.1666666666666667    0.4258381462170390    0.0741618537829611 As
   0.6666666666666667    0.4258381462170390    0.5741618537829610 As
   0.3333333333333333    0.5741618537829609    0.4258381462170392 As
   0.8333333333333333    0.5741618537829608    0.9258381462170391 As
   0.5000000000000000    0.7591714795503722    0.7408285204496277 As
   0.0000000000000000    0.7591714795503722    0.2408285204496278 As
   0.1666666666666667    0.9074951871162942    0.5925048128837058 As
   0.6666666666666667    0.9074951871162942    0.0925048128837058 As
