Li1 Y1 Ga4
1.0
   3.7691544404140678    0.0000000000000000   -2.1761223307903341
   0.0000000000000011    6.8974986221947825    0.0000000000000004
   0.0000000000000000    0.0000000000000000    4.3522446615806700
Li Y Ga
1 1 4
direct
   0.0000000000000000    0.5000000000000000    0.0000000000000000 Li
   0.0000000000000000    0.0000000000000000    0.0000000000000000 Y
   0.6666666666666666    0.3091424836141952    0.3333333333333333 Ga
   0.3333333333333333    0.7757160083741393    0.6666666666666666 Ga
   0.6666666666666666    0.6908575163858048    0.3333333333333333 Ga
   0.3333333333333333    0.2242839916258607    0.6666666666666669 Ga
