Li2 Y2 Ga8
1.0
   7.5383088808281338    0.0000000000000000    0.0000000000000005
  -0.0000000000000004    6.8974986221947825    4.3522446615806683
   0.0000000000000000    0.0000000000000000    4.3522446615806700
Li Y Ga
2 2 8
direct
   0.5000000000000000    0.5000000000000000    0.0000000000000000 Li
   0.0000000000000000    0.5000000000000000    0.5000000000000000 Li
   0.5000000000000000    0.0000000000000000    0.5000000000000000 Y
   0.0000000000000000    0.0000000000000000    0.0000000000000000 Y
   0.1666666666666667    0.3091424836141952    0.1908575163858049 Ga
   0.6666666666666667    0.3091424836141952    0.6908575163858048 Ga
   0.3333333333333333    0.7757160083741393    0.2242839916258607 Ga
   0.8333333333333334    0.7757160083741393    0.7242839916258608 Ga
   0.1666666666666666    0.6908575163858048    0.8091424836141953 Ga
   0.6666666666666666    0.6908575163858048    0.3091424836141953 Ga
   0.3333333333333333    0.2242839916258607    0.7757160083741392 Ga
   0.8333333333333333    0.2242839916258607    0.2757160083741392 Ga
