Ba6 Cd4 Sb8
1.0
   7.8451699694750703    0.0000000000000000    0.0000000000000005
   6.8107368573418254   16.8440185360857484    4.9252710424272479
   0.0000000000000000    0.0000000000000000    4.9252710424272497
Ba Cd Sb
6 4 8
direct
   0.5909821393868419    0.3576104861716765    0.1423895138283235 Ba
   0.4090178606131581    0.1423895138283235    0.8576104861716765 Ba
   0.0000000000000000    0.0000000000000000    0.0000000000000000 Ba
   0.5909821393868419    0.8576104861716763    0.1423895138283237 Ba
   0.4090178606131581    0.6423895138283235    0.8576104861716765 Ba
   0.0000000000000000    0.5000000000000001    0.0000000000000000 Ba
   0.9695646893918273    0.3320460378526847    0.6679539621473154 Cd
   0.0304353106081727    0.1679539621473154    0.3320460378526846 Cd
   0.9695646893918273    0.8320460378526846    0.6679539621473154 Cd
   0.0304353106081727    0.6679539621473155    0.3320460378526845 Cd
   0.6854222710106477    0.4975995247861391    0.5024004752138609 Sb
   0.1955788027687398    0.2931694726059285    0.2068305273940716 Sb
   0.3145777289893523    0.0024004752138609    0.4975995247861391 Sb
   0.8044211972312602    0.2068305273940716    0.7931694726059284 Sb
   0.6854222710106477    0.9975995247861393    0.5024004752138607 Sb
   0.1955788027687398    0.7931694726059284    0.2068305273940716 Sb
   0.3145777289893523    0.5024004752138609    0.4975995247861391 Sb
   0.8044211972312602    0.7068305273940717    0.7931694726059284 Sb
