Ba8 As16 Pd8
1.0
  17.5148363216695344    0.0000000000000000    0.0000000000000011
  -0.0000000000000027    9.5176668345561151    4.6376622051012273
   0.0000000000000000    0.0000000000000000    4.6376622051012273
Ba As Pd
8 16 8
direct
   0.1055754492425792    0.2500000000000000    0.5000000000000002 Ba
   0.1055754492425792    0.7500000000000000    0.0000000000000000 Ba
   0.3944245507574208    0.5000000000000000    0.7500000000000000 Ba
   0.3944245507574208    0.0000000000000000    0.2500000000000000 Ba
   0.6055754492425791    0.5000000000000000    0.2500000000000002 Ba
   0.6055754492425791    0.0000000000000000    0.7499999999999999 Ba
   0.8944245507574208    0.2500000000000000    0.0000000000000000 Ba
   0.8944245507574208    0.7500000000000000    0.5000000000000000 Ba
   0.4608707698982217    0.2500000000000000    0.5000000000000002 As
   0.4608707698982217    0.7500000000000000    0.9999999999999999 As
   0.0391292301017784    0.5000000000000000    0.7500000000000001 As
   0.0391292301017784    0.0000000000000000    0.2500000000000000 As
   0.2500421970908633    0.2500000000000000    0.0000000000000000 As
   0.2500421970908633    0.7500000000000000    0.5000000000000000 As
   0.2499578029091366    0.4999999999999999    0.2500000000000002 As
   0.2499578029091366    0.0000000000000000    0.7500000000000000 As
   0.9608707698982215    0.5000000000000000    0.2500000000000000 As
   0.9608707698982215    0.0000000000000000    0.7499999999999999 As
   0.5391292301017783    0.2500000000000000    0.9999999999999999 As
   0.5391292301017783    0.7500000000000000    0.4999999999999999 As
   0.7500421970908633    0.5000000000000000    0.7499999999999999 As
   0.7500421970908633    0.0000000000000000    0.2500000000000000 As
   0.7499578029091367    0.2500000000000000    0.5000000000000000 As
   0.7499578029091367    0.7500000000000000    0.9999999999999999 As
   0.1868848956605973    0.4999999999999999    0.7500000000000001 Pd
   0.1868848956605973    0.0000000000000000    0.2500000000000000 Pd
   0.3131151043394027    0.2500000000000000    0.5000000000000002 Pd
   0.3131151043394027    0.7500000000000000    0.9999999999999999 Pd
   0.6868848956605973    0.2500000000000000    0.9999999999999999 Pd
   0.6868848956605973    0.7500000000000000    0.4999999999999999 Pd
   0.8131151043394027    0.4999999999999999    0.2500000000000002 Pd
   0.8131151043394027    0.0000000000000000    0.7500000000000000 Pd
