K6 Cu24 Sb12
1.0
   3.7402217330858698    0.0000000000000000   -2.1594180244260146
  -0.0000000000000034   55.7072813322155795   -4.3188360488520328
   0.0000000000000000    0.0000000000000000    4.3188360488520310
K Cu Sb
6 24 12
direct
   0.0000000000000000    0.0000000000000000    0.0000000000000000 K
   0.0000000000000000    0.5000000000000000    0.5000000000000000 K
   0.3333333333333333    0.1666666666666666    0.8333333333333333 K
   0.3333333333333333    0.6666666666666665    0.3333333333333333 K
   0.6666666666666666    0.3333333333333333    0.6666666666666666 K
   0.6666666666666666    0.8333333333333333    0.1666666666666667 K
   0.0000000000000000    0.0721877011181900    0.0721877011181900 Cu
   0.0000000000000000    0.5721877011181901    0.5721877011181901 Cu
   0.3333333333333333    0.0944789655484766    0.7611456322151432 Cu
   0.3333333333333333    0.5944789655484766    0.2611456322151431 Cu
   0.6666666666666666    0.0601599755972930    0.3934933089306263 Cu
   0.6666666666666666    0.5601599755972929    0.8934933089306263 Cu
   0.6666666666666667    0.1065066910693737    0.4398400244027070 Cu
   0.6666666666666667    0.6065066910693737    0.9398400244027071 Cu
   0.3333333333333333    0.2388543677848566    0.9055210344515233 Cu
   0.3333333333333333    0.7388543677848567    0.4055210344515232 Cu
   0.6666666666666665    0.2611456322151433    0.5944789655484765 Cu
   0.6666666666666665    0.7611456322151432    0.0944789655484766 Cu
   0.0000000000000000    0.2268266422639596    0.2268266422639596 Cu
   0.0000000000000000    0.7268266422639597    0.7268266422639597 Cu
   0.0000000000000000    0.2731733577360403    0.2731733577360403 Cu
   0.0000000000000000    0.7731733577360403    0.7731733577360403 Cu
   0.6666666666666666    0.4055210344515233    0.7388543677848567 Cu
   0.6666666666666666    0.9055210344515233    0.2388543677848567 Cu
   0.0000000000000000    0.4278122988818099    0.4278122988818099 Cu
   0.0000000000000000    0.9278122988818099    0.9278122988818099 Cu
   0.3333333333333332    0.3934933089306263    0.0601599755972930 Cu
   0.3333333333333332    0.8934933089306262    0.5601599755972928 Cu
   0.3333333333333335    0.4398400244027069    0.1065066910693737 Cu
   0.3333333333333335    0.9398400244027069    0.6065066910693737 Cu
   0.0000000000000000    0.1205354082777591    0.1205354082777591 Sb
   0.0000000000000000    0.6205354082777591    0.6205354082777591 Sb
   0.3333333333333333    0.0461312583889075    0.7127979250555742 Sb
   0.3333333333333333    0.5461312583889075    0.2127979250555740 Sb
   0.3333333333333333    0.2872020749444257    0.9538687416110924 Sb
   0.3333333333333333    0.7872020749444257    0.4538687416110923 Sb
   0.6666666666666665    0.2127979250555742    0.5461312583889074 Sb
   0.6666666666666665    0.7127979250555742    0.0461312583889073 Sb
   0.6666666666666666    0.4538687416110924    0.7872020749444258 Sb
   0.6666666666666666    0.9538687416110925    0.2872020749444257 Sb
   0.0000000000000000    0.3794645917222408    0.3794645917222408 Sb
   0.0000000000000000    0.8794645917222408    0.8794645917222408 Sb
