Hf6 Cu8 Ge4
1.0
   4.0104915307555640    0.0000000000000000    0.0000000000000002
   0.0000000000000018   11.0717081610740333  -12.7845073743701416
   0.0000000000000000    0.0000000000000000    6.3922536871850708
Hf Cu Ge
6 8 4
direct
   0.5000000000000000    0.2058101367108147    0.2058101367108146 Hf
   0.5000000000000000    0.7058101367108147    0.7058101367108147 Hf
   0.5000000000000000    0.2941898632891853    0.8825695898675560 Hf
   0.5000000000000000    0.7941898632891853    0.3825695898675561 Hf
   0.5000000000000000    0.5000000000000000    0.9116202734216293 Hf
   0.5000000000000000    0.0000000000000000    0.4116202734216293 Hf
   0.5000000000000000    0.5000000000000000    0.5000000000000000 Cu
   0.5000000000000000    0.0000000000000000    0.0000000000000000 Cu
   0.0000000000000000    0.5000000000000000    0.2602950203944767 Cu
   0.0000000000000000    0.0000000000000000    0.7602950203944767 Cu
   0.0000000000000000    0.1198524898027616    0.3595574694082849 Cu
   0.0000000000000000    0.6198524898027615    0.8595574694082850 Cu
   0.0000000000000000    0.3801475101972384    0.3801475101972383 Cu
   0.0000000000000000    0.8801475101972384    0.8801475101972384 Cu
   0.0000000000000000    0.3333333333333333    0.6666666666666667 Ge
   0.0000000000000000    0.8333333333333333    0.1666666666666666 Ge
   0.0000000000000000    0.1666666666666667    0.8333333333333334 Ge
   0.0000000000000000    0.6666666666666667    0.3333333333333334 Ge
