Sr2 Ag6 Pd4
1.0
   4.5991620778723403    0.0000000000000000    0.0000000000000003
   0.0000000000000016    9.7006433642405607  -11.2013381153136926
   0.0000000000000000    0.0000000000000000    5.6006690576568454
Sr Ag Pd
2 6 4
direct
   0.0000000000000000    0.5000000000000000    0.5000000000000000 Sr
   0.0000000000000000    0.0000000000000000    0.0000000000000000 Sr
   0.5000000000000000    0.2500000000000000    0.2500000000000000 Ag
   0.5000000000000000    0.7500000000000000    0.7500000000000000 Ag
   0.5000000000000000    0.2500000000000000    0.7500000000000000 Ag
   0.5000000000000000    0.7500000000000000    0.2500000000000000 Ag
   0.5000000000000000    0.5000000000000000    0.0000000000000000 Ag
   0.5000000000000000    0.0000000000000000    0.5000000000000000 Ag
   0.0000000000000000    0.3333333333333333    0.6666666666666667 Pd
   0.0000000000000000    0.8333333333333334    0.1666666666666666 Pd
   0.0000000000000000    0.1666666666666666    0.8333333333333333 Pd
   0.0000000000000000    0.6666666666666665    0.3333333333333333 Pd
