Ca2 Ge4 Rh4
1.0
   4.1798006426370744    0.0000000000000000    0.0000000000000003
   0.0000000000000007    4.1798006426370744    0.0000000000000003
   0.0000000000000000    0.0000000000000000   10.4726419750557636
Ca Ge Rh
2 4 4
direct
   0.0000000000000000    0.0000000000000000    0.0000000000000000 Ca
   0.5000000000000000    0.5000000000000000    0.4999999999999999 Ca
   0.0000000000000000    0.0000000000000000    0.3737874601259604 Ge
   0.5000000000000000    0.5000000000000000    0.1262125398740396 Ge
   0.5000000000000000    0.5000000000000000    0.8737874601259603 Ge
   0.0000000000000000    0.0000000000000000    0.6262125398740396 Ge
   0.5000000000000000    0.0000000000000000    0.2500000000000000 Rh
   0.0000000000000000    0.5000000000000000    0.2500000000000000 Rh
   0.0000000000000000    0.5000000000000000    0.7500000000000000 Rh
   0.5000000000000000    0.0000000000000000    0.7500000000000000 Rh
