Li8 Zn8 Ni16
1.0
   5.6980225162507203    0.0000000000000000    0.0000000000000003
   0.0000000000000018   11.3960450325014389   -5.6980225162507194
   0.0000000000000000    0.0000000000000000    5.6980225162507203
Li Zn Ni
8 8 16
direct
   0.0000000000000000    0.4999999999999999    0.0000000000000000 Li
   0.0000000000000000    0.0000000000000000    0.5000000000000000 Li
   0.5000000000000000    0.2500000000000000    0.7500000000000000 Li
   0.5000000000000000    0.7500000000000000    0.2500000000000001 Li
   0.5000000000000000    0.4999999999999999    0.4999999999999999 Li
   0.5000000000000000    0.0000000000000000    0.0000000000000000 Li
   0.0000000000000000    0.2500000000000000    0.2500000000000000 Li
   0.0000000000000000    0.7500000000000000    0.7500000000000000 Li
   0.0000000000000000    0.4999999999999999    0.4999999999999999 Zn
   0.0000000000000000    0.0000000000000000    0.0000000000000000 Zn
   0.5000000000000001    0.2500000000000000    0.2500000000000000 Zn
   0.5000000000000000    0.7500000000000000    0.7500000000000000 Zn
   0.5000000000000001    0.4999999999999999    0.0000000000000000 Zn
   0.5000000000000000    0.0000000000000000    0.5000000000000000 Zn
   0.0000000000000000    0.2500000000000000    0.7500000000000000 Zn
   0.0000000000000000    0.7500000000000000    0.2500000000000001 Zn
   0.2500000000000001    0.1250000000000000    0.8750000000000000 Ni
   0.2500000000000001    0.6250000000000000    0.3750000000000000 Ni
   0.2500000000000000    0.3749999999999999    0.1250000000000000 Ni
   0.2500000000000001    0.8750000000000000    0.6250000000000000 Ni
   0.7500000000000000    0.3749999999999999    0.1250000000000000 Ni
   0.7500000000000000    0.8750000000000000    0.6250000000000000 Ni
   0.7500000000000000    0.1250000000000000    0.8750000000000000 Ni
   0.7500000000000000    0.6250000000000000    0.3750000000000000 Ni
   0.7500000000000000    0.1250000000000000    0.3750000000000001 Ni
   0.7500000000000000    0.6250000000000000    0.8750000000000000 Ni
   0.7500000000000000    0.3749999999999999    0.6250000000000000 Ni
   0.7500000000000000    0.8750000000000000    0.1250000000000001 Ni
   0.2500000000000001    0.3749999999999999    0.6250000000000000 Ni
   0.2500000000000001    0.8750000000000000    0.1250000000000001 Ni
   0.2499999999999999    0.1250000000000000    0.3750000000000001 Ni
   0.2500000000000000    0.6250000000000000    0.8750000000000000 Ni
