Zr12 Cu16 Ge8
1.0
  11.1838726656855858    0.0000000000000000  -12.9140237882321323
   0.0000000000000084    8.0465410383304565   -6.4570118941160617
   0.0000000000000000    0.0000000000000000    6.4570118941160679
Zr Cu Ge
12 16 8
direct
   0.7951262475971088    0.7499999999999999    0.5451262475971087 Zr
   0.2951262475971089    0.2500000000000000    0.5451262475971087 Zr
   0.2951262475971089    0.7499999999999999    0.0451262475971086 Zr
   0.7951262475971089    0.2500000000000000    0.0451262475971086 Zr
   0.7048737524028912    0.7499999999999999    0.8646212572086734 Zr
   0.2048737524028913    0.2500000000000000    0.8646212572086734 Zr
   0.2048737524028913    0.7499999999999999    0.3646212572086733 Zr
   0.7048737524028913    0.2500000000000000    0.3646212572086733 Zr
   0.5000000000000000    0.7499999999999999    0.8402524951942175 Zr
   0.0000000000000001    0.2500000000000000    0.8402524951942175 Zr
   0.0000000000000001    0.7499999999999999    0.3402524951942174 Zr
   0.5000000000000001    0.2500000000000000    0.3402524951942174 Zr
   0.4999999999999999    0.7499999999999999    0.2500000000000000 Cu
   0.0000000000000000    0.2500000000000000    0.2500000000000000 Cu
   0.0000000000000000    0.7499999999999999    0.7499999999999999 Cu
   0.5000000000000000    0.2500000000000000    0.7499999999999999 Cu
   0.5000000000000000    0.5000000000000000    0.2393397494771214 Cu
   0.0000000000000000    0.0000000000000000    0.2393397494771214 Cu
   0.0000000000000000    0.5000000000000000    0.7393397494771213 Cu
   0.5000000000000001    0.0000000000000000    0.7393397494771213 Cu
   0.8803301252614394    0.5000000000000000    0.1409903757843176 Cu
   0.3803301252614394    0.0000000000000000    0.1409903757843176 Cu
   0.3803301252614394    0.5000000000000000    0.6409903757843176 Cu
   0.8803301252614394    0.0000000000000000    0.6409903757843176 Cu
   0.6196698747385607    0.5000000000000000    0.1196698747385607 Cu
   0.1196698747385607    0.0000000000000000    0.1196698747385607 Cu
   0.1196698747385607    0.5000000000000000    0.6196698747385607 Cu
   0.6196698747385607    0.0000000000000000    0.6196698747385607 Cu
   0.6666666666666666    0.5000000000000000    0.8333333333333331 Ge
   0.1666666666666667    0.0000000000000000    0.8333333333333331 Ge
   0.1666666666666667    0.5000000000000000    0.3333333333333330 Ge
   0.6666666666666669    0.0000000000000000    0.3333333333333333 Ge
   0.8333333333333334    0.5000000000000000    0.6666666666666664 Ge
   0.3333333333333334    0.0000000000000000    0.6666666666666664 Ge
   0.3333333333333334    0.5000000000000000    0.1666666666666663 Ge
   0.8333333333333335    0.0000000000000000    0.1666666666666665 Ge
