Na8 Bi4 Au4
1.0
  12.2396874769454183    0.0000000000000000    0.0000000000000007
   4.7957685628013467    5.9748901506634011    5.9838199890759354
   0.0000000000000000    0.0000000000000000    5.9838199890759372
Na Bi Au
8 4 4
direct
   0.8212360305052400    0.4997776880212330    0.2502223119787672 Na
   0.8212360305052400    0.8577502509682875    0.3922497490317125 Na
   0.1787639694947600    0.5002223119787672    0.7497776880212328 Na
   0.1787639694947600    0.1422497490317128    0.6077502509682871 Na
   0.3212360305052400    0.4997776880212329    0.2502223119787670 Na
   0.3212360305052400    0.8577502509682875    0.3922497490317125 Na
   0.6787639694947600    0.5002223119787674    0.7497776880212326 Na
   0.6787639694947600    0.1422497490317128    0.6077502509682871 Na
   0.0000000000000000    0.6906502252662321    0.0593497747337677 Bi
   0.0000000000000000    0.3093497747337680    0.9406502252662319 Bi
   0.5000000000000000    0.6906502252662321    0.0593497747337679 Bi
   0.5000000000000000    0.3093497747337680    0.9406502252662321 Bi
   0.0000000000000000    0.0000000000000000    0.5000000000000000 Au
   0.0000000000000000    0.0000000000000000    0.0000000000000000 Au
   0.5000000000000000    0.0000000000000001    0.4999999999999998 Au
   0.5000000000000000    0.0000000000000001    0.9999999999999999 Au
