Ni4 Sb2 Te4
1.0
   3.4031636656002147    0.0000000000000000   -1.9648174584306386
   0.0000000000000026   16.3385750719066749   -3.9296349168612745
   0.0000000000000000    0.0000000000000000    3.9296349168612754
Ni Sb Te
4 2 4
direct
   0.0000000000000000    0.6684506971880850    0.6684506971880850 Ni
   0.0000000000000000    0.1684506971880850    0.1684506971880850 Ni
   0.0000000000000000    0.3315493028119150    0.3315493028119150 Ni
   0.0000000000000000    0.8315493028119150    0.8315493028119150 Ni
   0.3333333333333334    0.7500000000000000    0.4166666666666667 Sb
   0.6666666666666666    0.2500000000000000    0.5833333333333334 Sb
   0.3333333333333334    0.0936874077100356    0.7603540743767022 Te
   0.6666666666666666    0.5936874077100356    0.9270207410433688 Te
   0.6666666666666666    0.9063125922899644    0.2396459256232977 Te
   0.3333333333333333    0.4063125922899644    0.0729792589566309 Te
