Al4 Ga4 Co8
1.0
   5.7491155723144836    0.0000000000000000   -2.8745577861572418
   0.0000000000000018   11.4109996333381059   -2.8745577861572378
   0.0000000000000000    0.0000000000000000    2.8745577861572418
Al Ga Co
4 4 8
direct
   0.4999999999999999    0.5000000000000000    0.0000000000000001 Al
   0.0000000000000000    0.0000000000000000    0.0000000000000000 Al
   0.0000000000000000    0.5000000000000000    0.5000000000000001 Al
   0.4999999999999999    0.0000000000000001    0.5000000000000001 Al
   0.4999999999999999    0.7500000000000000    0.2500000000000001 Ga
   0.0000000000000000    0.2500000000000000    0.2500000000000001 Ga
   0.0000000000000000    0.7500000000000000    0.7500000000000001 Ga
   0.4999999999999999    0.2500000000000001    0.7500000000000002 Ga
   0.7500000000000000    0.6246810210619388    0.8746810210619389 Co
   0.2500000000000000    0.1246810210619388    0.8746810210619390 Co
   0.2500000000000000    0.6246810210619388    0.3746810210619391 Co
   0.7500000000000000    0.1246810210619389    0.3746810210619389 Co
   0.7500000000000000    0.8753189789380614    0.1253189789380615 Co
   0.2500000000000000    0.3753189789380614    0.1253189789380615 Co
   0.2500000000000000    0.8753189789380614    0.6253189789380618 Co
   0.7500000000000000    0.3753189789380614    0.6253189789380615 Co
