Hf3 Ge3 Os3
1.0
   6.7252927877315196    0.0000000000000000    0.0000000000000004
   3.3626463938657580    5.8242744020637618    3.8025783199320071
   0.0000000000000000    0.0000000000000000    3.8025783199320076
Hf Ge Os
3 3 3
direct
   0.0000000000000001    0.5828239346180411    0.9171760653819589 Hf
   0.4171760653819590    0.0000000000000000    0.5000000000000000 Hf
   0.5828239346180413    0.4171760653819589    0.0828239346180411 Hf
   0.6666666666666667    0.6666666666666667    0.3333333333333333 Ge
   0.3333333333333335    0.3333333333333334    0.6666666666666666 Ge
   0.0000000000000000    0.0000000000000000    0.5000000000000000 Ge
   0.0000000000000002    0.2467218367775033    0.7532781632224967 Os
   0.7532781632224967    0.0000000000000001    0.9999999999999999 Os
   0.2467218367775033    0.7532781632224967    0.2467218367775032 Os
