Re2 Rh6
1.0
   5.4798370979952846    0.0000000000000000    0.0000000000000003
   2.7399185489976410    4.7456781354643134    4.3545002276111511
   0.0000000000000000    0.0000000000000000    4.3545002276111511
Re Rh
2 6
direct
   0.3333333333333333    0.3333333333333334    0.9166666666666666 Re
   0.6666666666666667    0.6666666666666665    0.0833333333333335 Re
   0.1687055722692605    0.6625888554614789    0.0874111445385211 Rh
   0.1687055722692605    0.1687055722692605    0.5812944277307395 Rh
   0.6625888554614788    0.1687055722692606    0.5812944277307395 Rh
   0.8312944277307395    0.3374111445385211    0.9125888554614789 Rh
   0.8312944277307395    0.8312944277307395    0.4187055722692606 Rh
   0.3374111445385211    0.8312944277307395    0.4187055722692605 Rh
