Sc16 Co8 Ir8
1.0
   6.3682212100846591    0.0000000000000000   -6.3682212100846574
   0.0000000000000020   12.7364424201693165   -6.3682212100846582
   0.0000000000000000    0.0000000000000000    6.3682212100846582
Sc Co Ir
16 8 8
direct
   0.7500000000000000    0.3750000000000000    0.3750000000000000 Sc
   0.7500000000000000    0.8750000000000000    0.8750000000000000 Sc
   0.2500000000000000    0.3749999999999999    0.8750000000000000 Sc
   0.2500000000000000    0.8749999999999999    0.3750000000000000 Sc
   0.2500000000000000    0.1250000000000000    0.6250000000000000 Sc
   0.2500000000000000    0.6250000000000000    0.1250000000000000 Sc
   0.7500000000000000    0.1250000000000000    0.1250000000000000 Sc
   0.7500000000000000    0.6250000000000000    0.6250000000000000 Sc
   0.7500000000000000    0.1250000000000000    0.6250000000000000 Sc
   0.7500000000000000    0.6250000000000000    0.1250000000000000 Sc
   0.2500000000000000    0.1250000000000000    0.1250000000000000 Sc
   0.2500000000000000    0.6250000000000000    0.6250000000000000 Sc
   0.2500000000000000    0.3750000000000000    0.3750000000000000 Sc
   0.2500000000000000    0.8750000000000000    0.8750000000000000 Sc
   0.7500000000000000    0.3750000000000000    0.8750000000000000 Sc
   0.7500000000000000    0.8750000000000000    0.3750000000000000 Sc
   0.0000000000000000    0.0000000000000000    0.5000000000000000 Co
   0.0000000000000000    0.5000000000000000    0.0000000000000000 Co
   0.5000000000000000    0.2500000000000000    0.2500000000000000 Co
   0.5000000000000000    0.7499999999999999    0.7500000000000000 Co
   0.0000000000000000    0.2500000000000000    0.2500000000000000 Co
   0.0000000000000000    0.7500000000000000    0.7500000000000000 Co
   0.5000000000000000    0.0000000000000000    0.5000000000000000 Co
   0.5000000000000000    0.4999999999999999    0.0000000000000000 Co
   0.0000000000000000    0.0000000000000000    0.0000000000000000 Ir
   0.0000000000000000    0.5000000000000000    0.5000000000000000 Ir
   0.5000000000000000    0.2500000000000000    0.7500000000000000 Ir
   0.5000000000000000    0.7499999999999999    0.2500000000000000 Ir
   0.0000000000000000    0.2500000000000000    0.7500000000000000 Ir
   0.0000000000000000    0.7499999999999999    0.2500000000000000 Ir
   0.5000000000000000    0.0000000000000000    0.0000000000000000 Ir
   0.5000000000000000    0.4999999999999999    0.5000000000000000 Ir
