Be16 Ru32 W16
1.0
  11.9466947331653248    0.0000000000000000   -5.9733473665826624
  -0.0000000000000034   11.9466947331653248   -5.9733473665826624
   0.0000000000000000    0.0000000000000000    5.9733473665826624
Be Ru W
16 32 16
direct
   0.5000000000000000    0.5000000000000000    0.5000000000000000 Be
   0.0000000000000000    0.0000000000000000    0.5000000000000000 Be
   0.0000000000000000    0.5000000000000001    0.0000000000000000 Be
   0.5000000000000000    0.0000000000000001    0.0000000000000000 Be
   0.7500000000000001    0.7500000000000000    0.0000000000000002 Be
   0.2500000000000000    0.2500000000000001    0.0000000000000000 Be
   0.2500000000000000    0.7500000000000001    0.5000000000000000 Be
   0.7500000000000001    0.2500000000000001    0.5000000000000000 Be
   0.5000000000000000    0.7500000000000000    0.2500000000000001 Be
   0.0000000000000000    0.2500000000000000    0.2500000000000000 Be
   0.0000000000000000    0.7500000000000001    0.7500000000000001 Be
   0.5000000000000000    0.2500000000000001    0.7500000000000000 Be
   0.7500000000000001    0.4999999999999999    0.2500000000000001 Be
   0.2500000000000000    0.0000000000000000    0.2500000000000000 Be
   0.2500000000000000    0.5000000000000000    0.7500000000000000 Be
   0.7500000000000001    0.0000000000000000    0.7500000000000001 Be
   0.8750000000000000    0.8749999999999999    0.9999999999999999 Ru
   0.3750000000000001    0.3750000000000001    0.0000000000000000 Ru
   0.3750000000000001    0.8750000000000000    0.5000000000000000 Ru
   0.8750000000000000    0.3750000000000001    0.5000000000000000 Ru
   0.6250000000000000    0.8749999999999999    0.7500000000000000 Ru
   0.1250000000000000    0.3750000000000001    0.7500000000000000 Ru
   0.1250000000000000    0.8750000000000000    0.2500000000000000 Ru
   0.6250000000000000    0.3750000000000001    0.2500000000000000 Ru
   0.6250000000000000    0.6250000000000000    0.5000000000000000 Ru
   0.1250000000000000    0.1250000000000000    0.5000000000000000 Ru
   0.1250000000000000    0.6250000000000000    0.0000000000000000 Ru
   0.6250000000000000    0.1250000000000001    0.0000000000000000 Ru
   0.8750000000000000    0.6250000000000000    0.7500000000000000 Ru
   0.3750000000000001    0.1250000000000001    0.7500000000000000 Ru
   0.3750000000000001    0.6250000000000001    0.2500000000000000 Ru
   0.8750000000000000    0.1250000000000001    0.2500000000000000 Ru
   0.8750000000000000    0.6250000000000001    0.2500000000000000 Ru
   0.3750000000000001    0.1250000000000001    0.2500000000000002 Ru
   0.3750000000000001    0.6250000000000001    0.7500000000000002 Ru
   0.8750000000000000    0.1250000000000001    0.7500000000000000 Ru
   0.6250000000000000    0.6250000000000001    0.0000000000000000 Ru
   0.1250000000000000    0.1250000000000001    0.0000000000000002 Ru
   0.1250000000000000    0.6250000000000001    0.5000000000000002 Ru
   0.6250000000000000    0.1250000000000001    0.5000000000000000 Ru
   0.6250000000000000    0.8750000000000000    0.2500000000000000 Ru
   0.1250000000000000    0.3750000000000001    0.2500000000000002 Ru
   0.1250000000000000    0.8750000000000000    0.7500000000000000 Ru
   0.6250000000000000    0.3750000000000001    0.7500000000000000 Ru
   0.8750000000000000    0.8750000000000000    0.5000000000000000 Ru
   0.3750000000000001    0.3750000000000001    0.5000000000000002 Ru
   0.3750000000000001    0.8750000000000000    0.0000000000000000 Ru
   0.8750000000000000    0.3750000000000001    0.0000000000000000 Ru
   0.5000000000000000    0.4999999999999999    0.0000000000000000 W
   0.0000000000000000    0.0000000000000000    0.0000000000000000 W
   0.0000000000000000    0.5000000000000000    0.5000000000000000 W
   0.5000000000000000    0.0000000000000000    0.5000000000000000 W
   0.7500000000000001    0.7500000000000000    0.5000000000000001 W
   0.2500000000000000    0.2500000000000000    0.5000000000000000 W
   0.2500000000000000    0.7500000000000001    0.0000000000000000 W
   0.7500000000000001    0.2500000000000001    0.0000000000000002 W
   0.5000000000000000    0.7500000000000000    0.7500000000000000 W
   0.0000000000000000    0.2500000000000001    0.7500000000000000 W
   0.0000000000000000    0.7500000000000001    0.2500000000000000 W
   0.5000000000000000    0.2500000000000001    0.2500000000000000 W
   0.7500000000000001    0.5000000000000000    0.7500000000000001 W
   0.2500000000000000    0.0000000000000001    0.7500000000000000 W
   0.2500000000000000    0.5000000000000000    0.2500000000000000 W
   0.7500000000000001    0.0000000000000001    0.2500000000000000 W
