Zr2 Be2 Si2
1.0
   7.2496233360673852    0.0000000000000000    0.0000000000000004
   0.0000000000000005    3.2340593710655607   -5.6015551453798063
   0.0000000000000000    0.0000000000000000    3.7343700969198697
Zr Be Si
2 2 2
direct
   0.0000000000000000    0.0000000000000000    0.0000000000000000 Zr
   0.5000000000000000    0.0000000000000000    0.0000000000000000 Zr
   0.7500000000000000    0.3333333333333334    0.0000000000000000 Be
   0.2500000000000001    0.6666666666666665    0.9999999999999998 Be
   0.2500000000000001    0.3333333333333334    0.0000000000000000 Si
   0.7500000000000000    0.6666666666666665    0.9999999999999998 Si
