Li4 Sc4 Au8
1.0
   6.5777707484820320    0.0000000000000000    0.0000000000000004
   0.0000000000000011    6.5777707484820320    0.0000000000000004
   0.0000000000000000    0.0000000000000000    6.5777707484820320
Li Sc Au
4 4 8
direct
   0.0000000000000000    0.0000000000000000    0.5000000000000000 Li
   0.5000000000000000    0.5000000000000000    0.4999999999999999 Li
   0.0000000000000000    0.5000000000000000    0.0000000000000000 Li
   0.5000000000000000    0.0000000000000000    0.0000000000000000 Li
   0.0000000000000000    0.0000000000000000    0.0000000000000000 Sc
   0.5000000000000000    0.4999999999999999    0.0000000000000000 Sc
   0.0000000000000000    0.4999999999999999    0.5000000000000000 Sc
   0.5000000000000000    0.0000000000000000    0.4999999999999999 Sc
   0.2500000000000000    0.7500000000000000    0.2500000000000000 Au
   0.7500000000000000    0.7500000000000000    0.2500000000000000 Au
   0.7500000000000000    0.2500000000000000    0.2500000000000000 Au
   0.2500000000000000    0.2500000000000000    0.2500000000000000 Au
   0.2500000000000000    0.2500000000000000    0.7500000000000000 Au
   0.7500000000000000    0.2500000000000000    0.7500000000000000 Au
   0.7500000000000000    0.7499999999999999    0.7500000000000000 Au
   0.2500000000000000    0.7500000000000000    0.7500000000000000 Au
