Ca3 Pd3 Pb3
1.0
  13.8693518165221601    0.0000000000000000    0.0000000000000008
   6.9346759082610792    4.0037370023773455    3.8807229239716485
   0.0000000000000000    0.0000000000000000    3.8807229239716490
Ca Pd Pb
3 3 3
direct
   0.3975734742584009    0.2048530514831982    0.2951469485168017 Ca
   0.6024265257415991    0.3975734742584009    0.1024265257415991 Ca
   0.0000000000000000    0.3975734742584009    0.1024265257415991 Ca
   0.0000000000000000    0.0000000000000000    0.4999999999999999 Pd
   0.3333333333333334    0.0000000000000000    0.9999999999999999 Pd
   0.6666666666666666    0.0000000000000000    0.9999999999999999 Pd
   0.0000000000000000    0.7292179347270462    0.2707820652729537 Pb
   0.7292179347270462    0.5415641305459076    0.4584358694540922 Pb
   0.2707820652729538    0.7292179347270462    0.2707820652729537 Pb
