Mn3 Ni3 As3
1.0
   6.1735490569745144    0.0000000000000000    0.0000000000000004
  -3.0867745284872594    5.3464503148493936    0.0000000000000004
   0.0000000000000000    0.0000000000000000    3.6855799830243341
Mn Ni As
3 3 3
direct
   0.5870831325266153    0.5870831325266153    0.5000000000000000 Mn
   0.0000000000000000    0.4129168674733847    0.5000000000000000 Mn
   0.4129168674733847    0.0000000000000000    0.5000000000000000 Mn
   0.2521849660694891    0.2521849660694891    0.0000000000000000 Ni
   0.0000000000000000    0.7478150339305110    0.0000000000000000 Ni
   0.7478150339305109    0.9999999999999999    0.0000000000000000 Ni
   0.6666666666666666    0.3333333333333333    0.0000000000000000 As
   0.3333333333333333    0.6666666666666666    0.0000000000000000 As
   0.0000000000000000    0.0000000000000000    0.5000000000000000 As
