Y4 Cd2 Ge4
1.0
   7.3451765725487226    0.0000000000000000    0.0000000000000004
   0.0000000000000007    4.1949174454466727    0.0000000000000003
   0.0000000000000000    0.0000000000000000    7.3451765725487226
Y Cd Ge
4 2 4
direct
   0.1784652618965588    0.5000000000000000    0.6784652618965588 Y
   0.8215347381034411    0.5000000000000000    0.3215347381034412 Y
   0.3215347381034412    0.5000000000000001    0.1784652618965588 Y
   0.6784652618965588    0.5000000000000001    0.8215347381034411 Y
   0.5000000000000000    0.0000000000000000    0.4999999999999999 Cd
   0.0000000000000000    0.0000000000000000    0.0000000000000000 Cd
   0.6216758434612686    0.0000000000000000    0.1216758434612686 Ge
   0.3783241565387314    0.0000000000000000    0.8783241565387314 Ge
   0.8783241565387314    0.0000000000000000    0.6216758434612686 Ge
   0.1216758434612686    0.0000000000000000    0.3783241565387314 Ge
