Y6 Mg6 Ag6
1.0
   4.1240226290013311    0.0000000000000000    0.0000000000000003
   0.0000000000000022   13.3906370701019792  -15.4621758340879207
   0.0000000000000000    0.0000000000000000    7.7310879170439604
Y Mg Ag
6 6 6
direct
   0.5000000000000000    0.2937910574301945    0.8813731722905835 Y
   0.5000000000000000    0.7937910574301945    0.3813731722905834 Y
   0.5000000000000000    0.2062089425698055    0.2062089425698055 Y
   0.5000000000000000    0.7062089425698055    0.7062089425698054 Y
   0.5000000000000000    0.5000000000000000    0.9124178851396110 Y
   0.5000000000000000    0.0000000000000000    0.4124178851396109 Y
   0.0000000000000000    0.1233515720006331    0.3700547160018991 Mg
   0.0000000000000000    0.6233515720006332    0.8700547160018990 Mg
   0.0000000000000000    0.4999999999999999    0.2532968559987340 Mg
   0.0000000000000000    0.0000000000000000    0.7532968559987339 Mg
   0.0000000000000000    0.3766484279993669    0.3766484279993670 Mg
   0.0000000000000000    0.8766484279993669    0.8766484279993669 Mg
   0.0000000000000000    0.3333333333333333    0.6666666666666667 Ag
   0.0000000000000000    0.8333333333333335    0.1666666666666665 Ag
   0.0000000000000000    0.1666666666666667    0.8333333333333333 Ag
   0.0000000000000000    0.6666666666666667    0.3333333333333333 Ag
   0.5000000000000000    0.4999999999999999    0.5000000000000001 Ag
   0.5000000000000000    0.0000000000000000    0.0000000000000000 Ag
