Zr8 Co4 Ni4
1.0
   3.2804618987498428    0.0000000000000000    0.0000000000000002
  -0.0000000000000056   19.7188407558438570    4.0829652915586427
   0.0000000000000000    0.0000000000000000    4.0829652915586498
Zr Co Ni
8 4 4
direct
   0.0000000000000000    0.4294322220355973    0.5705677779644027 Zr
   0.0000000000000000    0.9294322220355972    0.0705677779644026 Zr
   0.5000000000000000    0.3192310740523858    0.1807689259476142 Zr
   0.5000000000000000    0.8192310740523858    0.6807689259476141 Zr
   0.5000000000000000    0.1794322220355973    0.8205677779644027 Zr
   0.5000000000000000    0.6794322220355974    0.3205677779644026 Zr
   0.0000000000000000    0.0692310740523858    0.4307689259476142 Zr
   0.0000000000000000    0.5692310740523858    0.9307689259476141 Zr
   0.0000000000000000    0.2930978541942899    0.7069021458057101 Co
   0.0000000000000000    0.7930978541942899    0.2069021458057101 Co
   0.5000000000000000    0.0430978541942899    0.9569021458057101 Co
   0.5000000000000000    0.5430978541942899    0.4569021458057100 Co
   0.5000000000000000    0.4582388497177234    0.0417611502822767 Ni
   0.5000000000000000    0.9582388497177236    0.5417611502822764 Ni
   0.0000000000000000    0.2082388497177234    0.2917611502822766 Ni
   0.0000000000000000    0.7082388497177234    0.7917611502822764 Ni
