Hf8 Mn4 Rh4
1.0
   6.4105655311369079    0.0000000000000000    0.0000000000000004
   0.0000000000000010    6.4105655311369070   -6.4105655311369061
   0.0000000000000000    0.0000000000000000    6.4105655311369079
Hf Mn Rh
8 4 4
direct
   0.2500000000000001    0.7500000000000000    0.5000000000000000 Hf
   0.2500000000000001    0.2500000000000000    0.0000000000000000 Hf
   0.7500000000000000    0.2500000000000000    0.0000000000000000 Hf
   0.7500000000000000    0.7500000000000000    0.5000000000000000 Hf
   0.7500000000000000    0.7500000000000000    0.0000000000000001 Hf
   0.7500000000000000    0.2500000000000000    0.5000000000000000 Hf
   0.2500000000000001    0.2500000000000000    0.5000000000000000 Hf
   0.2500000000000001    0.7500000000000000    0.0000000000000001 Hf
   0.0000000000000000    0.0000000000000000    0.0000000000000000 Mn
   0.5000000000000000    0.5000000000000000    0.5000000000000000 Mn
   0.5000000000000000    0.0000000000000000    0.5000000000000000 Mn
   0.0000000000000000    0.5000000000000000    0.0000000000000001 Mn
   0.0000000000000000    0.0000000000000000    0.5000000000000000 Rh
   0.5000000000000000    0.5000000000000000    0.0000000000000001 Rh
   0.5000000000000000    0.0000000000000000    0.0000000000000000 Rh
   0.0000000000000000    0.5000000000000000    0.5000000000000000 Rh
