Li4 Zn8 Ni4
1.0
   5.8886138323866186    0.0000000000000000   -5.8886138323866231
  -0.0000000000000004    5.8886138323866231   -5.8886138323866222
   0.0000000000000000    0.0000000000000000    5.8886138323866222
Li Zn Ni
4 8 4
direct
   0.0000000000000000    0.0000000000000000    0.5000000000000000 Li
   0.5000000000000000    0.5000000000000000    0.5000000000000000 Li
   0.0000000000000000    0.5000000000000000    0.5000000000000000 Li
   0.5000000000000000    0.0000000000000000    0.5000000000000000 Li
   0.2500000000000000    0.7500000000000000    0.2500000000000000 Zn
   0.7500000000000000    0.7500000000000000    0.7500000000000000 Zn
   0.7500000000000000    0.2500000000000001    0.2500000000000000 Zn
   0.2500000000000000    0.2500000000000000    0.7500000000000000 Zn
   0.2500000000000000    0.2500000000000001    0.2500000000000000 Zn
   0.7500000000000000    0.2500000000000000    0.7500000000000002 Zn
   0.7500000000000000    0.7500000000000000    0.2500000000000004 Zn
   0.2500000000000000    0.7500000000000000    0.7500000000000000 Zn
   0.0000000000000000    0.0000000000000000    0.0000000000000000 Ni
   0.5000000000000000    0.4999999999999999    0.0000000000000000 Ni
   0.0000000000000000    0.5000000000000000    0.0000000000000000 Ni
   0.5000000000000000    0.0000000000000000    0.0000000000000000 Ni
