Rb2 As4 Ru4
1.0
   4.0932369258751553    0.0000000000000000    0.0000000000000003
   0.0000000000000022   13.9665896966963547   -4.0932369258751535
   0.0000000000000000    0.0000000000000000    4.0932369258751553
Rb As Ru
2 4 4
direct
   0.0000000000000000    0.0000000000000000    0.0000000000000000 Rb
   0.5000000000000000    0.5000000000000001    0.0000000000000000 Rb
   0.0000000000000000    0.3447489691211985    0.3447489691211985 As
   0.5000000000000000    0.1552510308788016    0.6552510308788015 As
   0.5000000000000000    0.8447489691211987    0.3447489691211987 As
   0.0000000000000000    0.6552510308788017    0.6552510308788017 As
   0.5000000000000000    0.2500000000000000    0.2500000000000000 Ru
   0.0000000000000000    0.2500000000000001    0.7500000000000000 Ru
   0.0000000000000000    0.7500000000000001    0.2500000000000000 Ru
   0.5000000000000000    0.7500000000000001    0.7500000000000001 Ru
