Hf12 Ga4 Fe2
1.0
  20.5673507400916407    0.0000000000000000    0.0000000000000013
   5.8763859257404665    5.0890994941325838    3.3158468014441564
   0.0000000000000000    0.0000000000000000    3.3158468014441573
Hf Ga Fe
12 4 2
direct
   0.4999999999999999    0.2505966104364674    0.2494033895635326 Hf
   0.0000000000000000    0.7505966104364674    0.7494033895635326 Hf
   0.6247016947817663    0.3752983052182337    0.1247016947817663 Hf
   0.1247016947817663    0.8752983052182337    0.6247016947817663 Hf
   0.8752983052182337    0.3741050843452989    0.1258949156547011 Hf
   0.3752983052182337    0.8741050843452989    0.6258949156547011 Hf
   0.4999999999999999    0.8975332626326846    0.1024667373673154 Hf
   0.0000000000000000    0.3975332626326846    0.6024667373673154 Hf
   0.8012333686836577    0.1987666313163423    0.8012333686836576 Hf
   0.3012333686836576    0.6987666313163423    0.3012333686836577 Hf
   0.6987666313163423    0.9037001060509731    0.0962998939490269 Hf
   0.1987666313163423    0.4037001060509731    0.5962998939490269 Hf
   0.8333333333333333    0.8333333333333333    0.6666666666666665 Ga
   0.3333333333333333    0.3333333333333333    0.1666666666666667 Ga
   0.6666666666666666    0.6666666666666667    0.8333333333333333 Ga
   0.1666666666666666    0.1666666666666666    0.3333333333333333 Ga
   0.5000000000000000    0.5000000000000000    0.4999999999999999 Fe
   0.0000000000000000    0.0000000000000000    0.0000000000000000 Fe
