Sr2 Au10
1.0
   4.6750507198529476    0.0000000000000000    0.0000000000000003
   0.0000000000000016    9.8505533123565634  -11.3744392131116374
   0.0000000000000000    0.0000000000000000    5.6872196065558196
Sr Au
2 10
direct
   0.0000000000000000    0.5000000000000000    0.5000000000000001 Sr
   0.0000000000000000    0.0000000000000000    0.0000000000000000 Sr
   0.0000000000000000    0.1666666666666666    0.8333333333333334 Au
   0.0000000000000000    0.6666666666666666    0.3333333333333333 Au
   0.5000000000000000    0.2500000000000000    0.2500000000000001 Au
   0.5000000000000000    0.7500000000000000    0.7500000000000000 Au
   0.5000000000000000    0.5000000000000000    0.0000000000000000 Au
   0.5000000000000000    0.0000000000000000    0.4999999999999999 Au
   0.5000000000000000    0.2500000000000000    0.7500000000000000 Au
   0.5000000000000000    0.7500000000000000    0.2499999999999999 Au
   0.0000000000000000    0.3333333333333333    0.6666666666666665 Au
   0.0000000000000000    0.8333333333333333    0.1666666666666664 Au
