Y4 In8 Ni4
1.0
   7.3760151913459815    0.0000000000000000    0.0000000000000005
   0.0000000000000017   10.5050818003244864   -8.6878511531487046
   0.0000000000000000    0.0000000000000000    4.3439255765743532
Y In Ni
4 8 4
direct
   0.2500000000000000    0.9322504913214118    0.8645009826428236 Y
   0.7500000000000000    0.5677495086785882    0.6354990173571764 Y
   0.2499999999999999    0.4322504913214117    0.3645009826428236 Y
   0.7500000000000000    0.0677495086785882    0.1354990173571766 Y
   0.0493408961997874    0.6439245013807522    0.2878490027615045 In
   0.9506591038002126    0.8560754986192477    0.2121509972384955 In
   0.5493408961997874    0.8560754986192477    0.2121509972384955 In
   0.4506591038002126    0.6439245013807522    0.2878490027615045 In
   0.0493408961997874    0.1439245013807521    0.7878490027615044 In
   0.9506591038002126    0.3560754986192477    0.7121509972384956 In
   0.5493408961997874    0.3560754986192477    0.7121509972384956 In
   0.4506591038002126    0.1439245013807521    0.7878490027615044 In
   0.2500000000000000    0.7119855311561878    0.9239710623123758 Ni
   0.7500000000000000    0.7880144688438122    0.5760289376876243 Ni
   0.2499999999999999    0.2119855311561877    0.4239710623123756 Ni
   0.7500000000000000    0.2880144688438122    0.0760289376876244 Ni
