Mg8 Ag4 Rh4
1.0
   6.4201184742269559    0.0000000000000000   -6.4201184742269550
  -0.0000000000000004    6.4201184742269568   -6.4201184742269559
   0.0000000000000000    0.0000000000000000    6.4201184742269559
Mg Ag Rh
8 4 4
direct
   0.2500000000000000    0.7500000000000000    0.2500000000000000 Mg
   0.7500000000000000    0.7500000000000002    0.7500000000000002 Mg
   0.7500000000000000    0.2500000000000001    0.2500000000000000 Mg
   0.2500000000000000    0.2500000000000001    0.7500000000000000 Mg
   0.2500000000000000    0.2500000000000002    0.2500000000000000 Mg
   0.7500000000000000    0.2500000000000002    0.7500000000000002 Mg
   0.7500000000000000    0.7500000000000002    0.2500000000000000 Mg
   0.2500000000000000    0.7500000000000002    0.7500000000000002 Mg
   0.0000000000000000    0.0000000000000000    0.0000000000000000 Ag
   0.5000000000000000    0.5000000000000000    0.0000000000000000 Ag
   0.0000000000000000    0.5000000000000001    0.0000000000000000 Ag
   0.5000000000000000    0.0000000000000001    0.0000000000000000 Ag
   0.0000000000000000    0.0000000000000001    0.5000000000000000 Rh
   0.5000000000000000    0.5000000000000001    0.5000000000000000 Rh
   0.0000000000000000    0.5000000000000000    0.5000000000000000 Rh
   0.5000000000000000    0.0000000000000000    0.5000000000000000 Rh
