Ca4 Ni4 Ge4
1.0
   8.4081802624302231    0.0000000000000000   -4.2040901312151115
  -0.0000000000000034    6.6421037066510671   -4.2040901312151142
   0.0000000000000000    0.0000000000000000    4.2040901312151115
Ca Ni Ge
4 4 4
direct
   0.2500000000000000    0.3210957256122101    0.5710957256122100 Ca
   0.7500000000000000    0.3210957256122101    0.0710957256122102 Ca
   0.0000000000000000    0.6789042743877900    0.1789042743877900 Ca
   0.5000000000000000    0.6789042743877900    0.6789042743877900 Ca
   0.0000000000000000    0.0000000000000000    0.0000000000000000 Ni
   0.5000000000000000    0.0000000000000000    0.5000000000000000 Ni
   0.2500000000000000    0.0000000000000000    0.7500000000000000 Ni
   0.7500000000000000    0.0000000000000001    0.2500000000000000 Ni
   0.2500000000000000    0.8151323168216607    0.0651323168216607 Ge
   0.7500000000000000    0.8151323168216607    0.5651323168216607 Ge
   0.0000000000000000    0.1848676831783394    0.6848676831783393 Ge
   0.5000000000000000    0.1848676831783394    0.1848676831783393 Ge
