Na16 Ge16 Au16
1.0
  14.6760779113791049    0.0000000000000000   -4.4790796499602283
  -0.0000000000000009   15.3504019482201333   -4.4790796499602292
   0.0000000000000000    0.0000000000000000    4.4790796499602301
Na Ge Au
16 16 16
direct
   0.7500000000000001    0.8585197380679084    0.6085197380679086 Na
   0.2500000000000000    0.3585197380679084    0.6085197380679084 Na
   0.2500000000000000    0.8585197380679084    0.1085197380679084 Na
   0.7500000000000001    0.3585197380679084    0.1085197380679086 Na
   0.7500000000000001    0.5469902940226881    0.7969902940226882 Na
   0.2500000000000000    0.0469902940226881    0.7969902940226881 Na
   0.2500000000000000    0.5469902940226881    0.2969902940226881 Na
   0.7500000000000001    0.0469902940226881    0.2969902940226881 Na
   0.5000000000000000    0.6085197380679084    0.6085197380679085 Na
   0.0000000000000000    0.1085197380679084    0.6085197380679084 Na
   0.0000000000000000    0.6085197380679084    0.1085197380679084 Na
   0.5000000000000000    0.1085197380679084    0.1085197380679084 Na
   0.5000000000000000    0.7969902940226880    0.2969902940226881 Na
   0.0000000000000000    0.2969902940226881    0.2969902940226881 Na
   0.0000000000000000    0.7969902940226881    0.7969902940226881 Na
   0.5000000000000000    0.2969902940226881    0.7969902940226882 Na
   0.8381709787875203    0.6615485800543510    0.4997195588418714 Ge
   0.3381709787875203    0.1615485800543510    0.4997195588418712 Ge
   0.3381709787875203    0.6615485800543510    0.9997195588418712 Ge
   0.8381709787875203    0.1615485800543510    0.9997195588418712 Ge
   0.6618290212124799    0.6615485800543510    0.3233776012668308 Ge
   0.1618290212124798    0.1615485800543510    0.3233776012668308 Ge
   0.1618290212124798    0.6615485800543510    0.8233776012668308 Ge
   0.6618290212124799    0.1615485800543510    0.8233776012668309 Ge
   0.5881709787875203    0.9115485800543511    0.9997195588418715 Ge
   0.0881709787875202    0.4115485800543511    0.9997195588418712 Ge
   0.0881709787875202    0.9115485800543511    0.4997195588418715 Ge
   0.5881709787875203    0.4115485800543511    0.4997195588418712 Ge
   0.9118290212124799    0.9115485800543511    0.3233776012668310 Ge
   0.4118290212124798    0.4115485800543511    0.3233776012668308 Ge
   0.4118290212124798    0.9115485800543511    0.8233776012668310 Ge
   0.9118290212124799    0.4115485800543511    0.8233776012668308 Ge
   0.6022554123481373    0.5001611514003520    0.1024165637484894 Au
   0.1022554123481374    0.0001611514003521    0.1024165637484894 Au
   0.1022554123481374    0.5001611514003521    0.6024165637484894 Au
   0.6022554123481373    0.0001611514003521    0.6024165637484894 Au
   0.8977445876518627    0.5001611514003520    0.3979057390522148 Au
   0.3977445876518627    0.0001611514003521    0.3979057390522147 Au
   0.3977445876518627    0.5001611514003521    0.8979057390522147 Au
   0.8977445876518627    0.0001611514003521    0.8979057390522148 Au
   0.8522554123481374    0.7501611514003521    0.1024165637484895 Au
   0.3522554123481373    0.2501611514003521    0.1024165637484895 Au
   0.3522554123481373    0.7501611514003521    0.6024165637484895 Au
   0.8522554123481374    0.2501611514003522    0.6024165637484895 Au
   0.6477445876518626    0.7501611514003521    0.8979057390522148 Au
   0.1477445876518626    0.2501611514003521    0.8979057390522147 Au
   0.1477445876518626    0.7501611514003521    0.3979057390522147 Au
   0.6477445876518626    0.2501611514003521    0.3979057390522147 Au
