Zr6 As6 Ru6
1.0
   6.6236862431242507    0.0000000000000000    0.0000000000000004
   6.6236862431242480   11.4725611064862214    3.9373959767895581
   0.0000000000000000    0.0000000000000000    3.9373959767895590
Zr As Ru
6 6 6
direct
   0.4177142974442063    0.2911428512778969    0.2088571487221029 Zr
   0.4177142974442063    0.7911428512778969    0.7088571487221030 Zr
   0.0000000000000000    0.2088571487221031    0.2911428512778966 Zr
   0.0000000000000000    0.7088571487221031    0.7911428512778967 Zr
   0.5822857025557938    0.5000000000000000    0.9999999999999998 Zr
   0.5822857025557937    0.0000000000000000    0.4999999999999999 Zr
   0.0000000000000000    0.5000000000000000    0.9999999999999999 As
   0.0000000000000000    0.0000000000000000    0.4999999999999999 As
   0.3333333333333333    0.1666666666666667    0.8333333333333333 As
   0.3333333333333333    0.6666666666666667    0.3333333333333333 As
   0.6666666666666665    0.3333333333333334    0.6666666666666666 As
   0.6666666666666666    0.8333333333333334    0.1666666666666666 As
   0.2438422896049701    0.5000000000000000    0.5000000000000000 Ru
   0.2438422896049701    0.0000000000000000    0.0000000000000000 Ru
   0.0000000000000000    0.3780788551975149    0.6219211448024851 Ru
   0.0000000000000000    0.8780788551975149    0.1219211448024850 Ru
   0.7561577103950300    0.1219211448024850    0.8780788551975149 Ru
   0.7561577103950299    0.6219211448024851    0.3780788551975149 Ru
