Li8 Zr8 Pt16
1.0
   6.4102564014754897    0.0000000000000000   -6.4102564014754888
   0.0000000000000021   12.8205128029509794   -6.4102564014754897
   0.0000000000000000    0.0000000000000000    6.4102564014754897
Li Zr Pt
8 8 16
direct
   0.0000000000000000    0.0000000000000000    0.5000000000000000 Li
   0.0000000000000000    0.5000000000000000    0.0000000000000000 Li
   0.5000000000000000    0.2500000000000000    0.2500000000000000 Li
   0.5000000000000000    0.7500000000000000    0.7500000000000000 Li
   0.0000000000000000    0.2500000000000000    0.2500000000000000 Li
   0.0000000000000000    0.7500000000000000    0.7500000000000000 Li
   0.5000000000000000    0.0000000000000000    0.5000000000000000 Li
   0.5000000000000000    0.4999999999999999    0.0000000000000000 Li
   0.0000000000000000    0.0000000000000000    0.0000000000000000 Zr
   0.0000000000000000    0.5000000000000000    0.5000000000000000 Zr
   0.5000000000000000    0.2500000000000000    0.7500000000000000 Zr
   0.5000000000000000    0.7500000000000000    0.2500000000000000 Zr
   0.0000000000000000    0.2500000000000000    0.7500000000000000 Zr
   0.0000000000000000    0.7500000000000000    0.2500000000000000 Zr
   0.5000000000000000    0.0000000000000000    0.0000000000000000 Zr
   0.5000000000000000    0.4999999999999999    0.5000000000000000 Zr
   0.7500000000000000    0.3749999999999999    0.3750000000000000 Pt
   0.7500000000000000    0.8749999999999999    0.8750000000000000 Pt
   0.2500000000000000    0.3750000000000000    0.8750000000000000 Pt
   0.2500000000000000    0.8749999999999999    0.3750000000000000 Pt
   0.2500000000000000    0.1250000000000000    0.6250000000000000 Pt
   0.2500000000000000    0.6250000000000000    0.1250000000000000 Pt
   0.7500000000000000    0.1250000000000000    0.1250000000000000 Pt
   0.7500000000000000    0.6250000000000000    0.6250000000000000 Pt
   0.7500000000000000    0.1250000000000000    0.6250000000000000 Pt
   0.7500000000000000    0.6250000000000000    0.1250000000000000 Pt
   0.2500000000000000    0.1250000000000000    0.1250000000000000 Pt
   0.2500000000000000    0.6250000000000000    0.6250000000000000 Pt
   0.2500000000000000    0.3749999999999999    0.3750000000000000 Pt
   0.2500000000000000    0.8749999999999999    0.8750000000000000 Pt
   0.7500000000000000    0.3750000000000000    0.8750000000000000 Pt
   0.7500000000000000    0.8750000000000000    0.3750000000000000 Pt
