Ca8 Au8
1.0
   4.0152999441441306    0.0000000000000000    0.0000000000000002
  -0.0000000000000064   22.4356015127971595    4.5854873523798156
   0.0000000000000000    0.0000000000000000    4.5854873523798201
Ca Au
8 8
direct
   0.5000000000000000    0.3201173729987659    0.4298826270012341 Ca
   0.5000000000000000    0.8201173729987659    0.9298826270012343 Ca
   0.0000000000000000    0.4298826270012342    0.8201173729987659 Ca
   0.0000000000000000    0.9298826270012343    0.3201173729987657 Ca
   0.0000000000000000    0.0701173729987659    0.6798826270012341 Ca
   0.0000000000000000    0.5701173729987659    0.1798826270012341 Ca
   0.5000000000000000    0.1798826270012341    0.0701173729987659 Ca
   0.5000000000000000    0.6798826270012341    0.5701173729987659 Ca
   0.5000000000000000    0.4590979916447715    0.2909020083552285 Au
   0.5000000000000000    0.9590979916447716    0.7909020083552285 Au
   0.0000000000000000    0.2909020083552285    0.9590979916447715 Au
   0.0000000000000000    0.7909020083552285    0.4590979916447714 Au
   0.0000000000000000    0.2090979916447715    0.5409020083552285 Au
   0.0000000000000000    0.7090979916447715    0.0409020083552285 Au
   0.5000000000000000    0.0409020083552285    0.2090979916447715 Au
   0.5000000000000000    0.5409020083552285    0.7090979916447715 Au
