Hf3 Ga3 Co3
1.0
   3.3140485068220040    0.0000000000000000    0.0000000000000002
   0.0000000000000010    5.9946137204079912  -10.3829755354961453
   0.0000000000000000    0.0000000000000000    6.9219836903307623
Hf Ga Co
3 3 3
direct
   0.5000000000000000    0.5974999249741241    0.1949998499482481 Hf
   0.5000000000000000    0.0000000000000001    0.4025000750258760 Hf
   0.5000000000000000    0.4025000750258759    0.4025000750258760 Hf
   0.0000000000000000    0.2630749316534344    0.5261498633068689 Ga
   0.0000000000000000    0.0000000000000000    0.7369250683465657 Ga
   0.0000000000000000    0.7369250683465657    0.7369250683465657 Ga
   0.0000000000000000    0.6666666666666667    0.0000000000000000 Co
   0.0000000000000000    0.3333333333333334    0.0000000000000000 Co
   0.5000000000000000    0.0000000000000000    0.0000000000000000 Co
