Ca16 Si8 Ir16
1.0
   7.2079630055554116    0.0000000000000000   -1.3279785297141207
  -0.0000000000000007   11.7221131980109092   -9.7472352832613893
   0.0000000000000000    0.0000000000000000    9.7472352832613876
Ca Si Ir
16 8 16
direct
   0.8609431252868518    0.0655237457477931    0.9195298566079693 Ca
   0.8609431252868518    0.5655237457477931    0.4195298566079693 Ca
   0.6390568747131482    0.0655237457477931    0.2115176348876169 Ca
   0.6390568747131482    0.5655237457477931    0.7115176348876171 Ca
   0.1390568747131481    0.4344762542522069    0.5804701433920307 Ca
   0.1390568747131481    0.9344762542522069    0.0804701433920308 Ca
   0.3609431252868518    0.4344762542522069    0.2884823651123831 Ca
   0.3609431252868518    0.9344762542522069    0.7884823651123831 Ca
   0.8609431252868518    0.3155237457477931    0.6695298566079693 Ca
   0.8609431252868518    0.8155237457477931    0.1695298566079693 Ca
   0.6390568747131482    0.3155237457477931    0.9615176348876169 Ca
   0.6390568747131482    0.8155237457477931    0.4615176348876169 Ca
   0.1390568747131481    0.1844762542522069    0.8304701433920307 Ca
   0.1390568747131481    0.6844762542522069    0.3304701433920307 Ca
   0.3609431252868518    0.1844762542522069    0.5384823651123831 Ca
   0.3609431252868518    0.6844762542522069    0.0384823651123831 Ca
   0.2500000000000000    0.4676222971189645    0.9676222971189645 Si
   0.2500000000000000    0.9676222971189645    0.4676222971189645 Si
   0.7500000000000000    0.0323777028810354    0.5323777028810355 Si
   0.7500000000000000    0.5323777028810355    0.0323777028810355 Si
   0.2500000000000000    0.2176222971189645    0.2176222971189645 Si
   0.2500000000000000    0.7176222971189645    0.7176222971189645 Si
   0.7500000000000000    0.2823777028810355    0.2823777028810355 Si
   0.7500000000000000    0.7823777028810355    0.7823777028810355 Si
   0.0100544619462253    0.4286868566504047    0.0613342895771217 Ir
   0.0100544619462253    0.9286868566504047    0.5613342895771218 Ir
   0.4899455380537747    0.4286868566504047    0.7960394237236876 Ir
   0.4899455380537747    0.9286868566504047    0.2960394237236877 Ir
   0.9899455380537747    0.0713131433495953    0.4386657104228782 Ir
   0.9899455380537747    0.5713131433495953    0.9386657104228782 Ir
   0.5100544619462253    0.0713131433495953    0.7039605762763124 Ir
   0.5100544619462253    0.5713131433495953    0.2039605762763124 Ir
   0.0100544619462253    0.1786868566504047    0.3113342895771218 Ir
   0.0100544619462253    0.6786868566504047    0.8113342895771218 Ir
   0.4899455380537747    0.1786868566504047    0.0460394237236876 Ir
   0.4899455380537747    0.6786868566504047    0.5460394237236876 Ir
   0.9899455380537747    0.3213131433495953    0.1886657104228782 Ir
   0.9899455380537747    0.8213131433495953    0.6886657104228782 Ir
   0.5100544619462253    0.3213131433495953    0.4539605762763124 Ir
   0.5100544619462253    0.8213131433495953    0.9539605762763124 Ir
