Ca16 Si8 Ir16
1.0
  19.4944705665227751    0.0000000000000000   -5.8610565990054520
   8.4192567535472662    7.2079630055554160    0.0000000000000007
   0.0000000000000000    0.0000000000000000    5.8610565990054546
Ca Si Ir
16 8 16
direct
   0.4965314927866621    0.8609431252868518    0.6275789842822483 Ca
   0.9965314927866622    0.8609431252868518    0.1275789842822483 Ca
   0.2534685072133379    0.6390568747131482    0.3845159987089241 Ca
   0.7534685072133378    0.6390568747131482    0.8845159987089239 Ca
   0.5034685072133379    0.1390568747131481    0.3724210157177517 Ca
   0.0034685072133379    0.1390568747131481    0.8724210157177518 Ca
   0.7465314927866622    0.3609431252868518    0.6154840012910761 Ca
   0.2465314927866622    0.3609431252868518    0.1154840012910760 Ca
   0.2465314927866622    0.8609431252868518    0.8775789842822483 Ca
   0.7465314927866622    0.8609431252868518    0.3775789842822485 Ca
   0.5034685072133378    0.6390568747131482    0.1345159987089240 Ca
   0.0034685072133378    0.6390568747131482    0.6345159987089241 Ca
   0.7534685072133378    0.1390568747131481    0.1224210157177517 Ca
   0.2534685072133379    0.1390568747131481    0.6224210157177517 Ca
   0.4965314927866622    0.3609431252868518    0.8654840012910761 Ca
   0.9965314927866622    0.3609431252868518    0.3654840012910761 Ca
   0.6250000000000000    0.2500000000000000    0.5602445942379290 Si
   0.1250000000000000    0.2500000000000000    0.0602445942379291 Si
   0.3750000000000000    0.7500000000000000    0.4397554057620710 Si
   0.8750000000000000    0.7500000000000000    0.9397554057620710 Si
   0.8750000000000000    0.2500000000000000    0.3102445942379290 Si
   0.3750000000000000    0.2500000000000000    0.8102445942379290 Si
   0.6250000000000001    0.7500000000000000    0.1897554057620711 Si
   0.1250000000000000    0.7500000000000000    0.6897554057620710 Si
   0.8112964854902459    0.0100544619462253    0.6686701987910554 Ir
   0.3112964854902460    0.0100544619462253    0.1686701987910554 Ir
   0.4387035145097541    0.4899455380537747    0.2960772278105636 Ir
   0.9387035145097541    0.4899455380537747    0.7960772278105636 Ir
   0.1887035145097541    0.9899455380537747    0.3313298012089447 Ir
   0.6887035145097541    0.9899455380537747    0.8313298012089447 Ir
   0.5612964854902459    0.5100544619462253    0.7039227721894366 Ir
   0.0612964854902460    0.5100544619462253    0.2039227721894366 Ir
   0.5612964854902459    0.0100544619462253    0.9186701987910554 Ir
   0.0612964854902459    0.0100544619462253    0.4186701987910554 Ir
   0.6887035145097541    0.4899455380537747    0.0460772278105636 Ir
   0.1887035145097541    0.4899455380537747    0.5460772278105636 Ir
   0.4387035145097541    0.9899455380537747    0.0813298012089446 Ir
   0.9387035145097541    0.9899455380537747    0.5813298012089446 Ir
   0.3112964854902459    0.5100544619462253    0.9539227721894364 Ir
   0.8112964854902459    0.5100544619462253    0.4539227721894364 Ir
