K18 Sb12 Au18
1.0
   5.4845931581489289    0.0000000000000000   -9.4995940087586028
  -0.0000000000000027   43.7583446133043807   -6.3330626725057337
   0.0000000000000000    0.0000000000000000    6.3330626725057328
K Sb Au
18 12 18
direct
   0.6666666666666664    0.0833333333333333    0.0833333333333330 K
   0.6666666666666664    0.5833333333333333    0.5833333333333330 K
   0.3333333333333333    0.1264818838543663    0.1264818838543664 K
   0.3333333333333333    0.6264818838543663    0.6264818838543664 K
   0.0000000000000000    0.0401847828123003    0.0401847828123003 K
   0.0000000000000000    0.5401847828123002    0.5401847828123002 K
   0.9999999999999998    0.2499999999999999    0.2499999999999996 K
   0.9999999999999998    0.7499999999999998    0.7499999999999996 K
   0.6666666666666665    0.2931485505210330    0.2931485505210327 K
   0.6666666666666665    0.7931485505210329    0.7931485505210327 K
   0.3333333333333333    0.2068514494789669    0.2068514494789668 K
   0.3333333333333333    0.7068514494789668    0.7068514494789668 K
   0.3333333333333330    0.4166666666666665    0.4166666666666661 K
   0.3333333333333330    0.9166666666666665    0.9166666666666661 K
   0.0000000000000000    0.4598152171876996    0.4598152171876996 K
   0.0000000000000000    0.9598152171876996    0.9598152171876996 K
   0.6666666666666666    0.3735181161456335    0.3735181161456336 K
   0.6666666666666666    0.8735181161456333    0.8735181161456336 K
   0.0000000000000000    0.1212730875608929    0.1212730875608929 Sb
   0.0000000000000000    0.6212730875608929    0.6212730875608929 Sb
   0.3333333333333333    0.0453935791057737    0.0453935791057738 Sb
   0.3333333333333333    0.5453935791057737    0.5453935791057738 Sb
   0.3333333333333333    0.2879397542275595    0.2879397542275595 Sb
   0.3333333333333333    0.7879397542275595    0.7879397542275595 Sb
   0.6666666666666665    0.2120602457724403    0.2120602457724401 Sb
   0.6666666666666665    0.7120602457724403    0.7120602457724401 Sb
   0.6666666666666666    0.4546064208942261    0.4546064208942262 Sb
   0.6666666666666666    0.9546064208942261    0.9546064208942262 Sb
   0.0000000000000000    0.3787269124391071    0.3787269124391071 Sb
   0.0000000000000000    0.8787269124391069    0.8787269124391069 Sb
   0.5000000000000000    0.9999999999999999    0.0000000000000000 Au
   0.5000000000000000    0.4999999999999999    0.5000000000000000 Au
   0.5000000000000000    0.0000000000000000    0.5000000000000000 Au
   0.5000000000000000    0.4999999999999999    0.0000000000000000 Au
   0.0000000000000000    0.0000000000000000    0.5000000000000000 Au
   0.0000000000000000    0.4999999999999999    0.0000000000000000 Au
   0.8333333333333331    0.1666666666666666    0.1666666666666663 Au
   0.8333333333333331    0.6666666666666665    0.6666666666666663 Au
   0.8333333333333333    0.1666666666666665    0.6666666666666667 Au
   0.8333333333333333    0.6666666666666665    0.1666666666666665 Au
   0.3333333333333333    0.1666666666666666    0.6666666666666665 Au
   0.3333333333333333    0.6666666666666665    0.1666666666666665 Au
   0.1666666666666665    0.3333333333333333    0.3333333333333330 Au
   0.1666666666666665    0.8333333333333333    0.8333333333333330 Au
   0.1666666666666665    0.3333333333333333    0.8333333333333331 Au
   0.1666666666666665    0.8333333333333333    0.3333333333333330 Au
   0.6666666666666667    0.3333333333333332    0.8333333333333333 Au
   0.6666666666666667    0.8333333333333333    0.3333333333333335 Au
