Ta32 Nb16 Ir16
1.0
  12.9343258872571312    0.0000000000000000   -6.4671629436285656
  -0.0000000000000037   12.9343258872571312   -6.4671629436285656
   0.0000000000000000    0.0000000000000000    6.4671629436285656
Ta Nb Ir
32 16 16
direct
   0.8749999999999999    0.8750000000000000    0.0000000000000002 Ta
   0.3749999999999999    0.3750000000000001    0.0000000000000000 Ta
   0.3749999999999999    0.8750000000000001    0.5000000000000000 Ta
   0.8749999999999999    0.3750000000000001    0.5000000000000000 Ta
   0.6249999999999999    0.8750000000000000    0.7500000000000001 Ta
   0.1250000000000000    0.3750000000000001    0.7500000000000000 Ta
   0.1250000000000000    0.8750000000000001    0.2500000000000000 Ta
   0.6249999999999999    0.3750000000000001    0.2500000000000000 Ta
   0.6249999999999999    0.6250000000000000    0.5000000000000001 Ta
   0.1250000000000000    0.1250000000000001    0.5000000000000000 Ta
   0.1250000000000000    0.6250000000000001    0.0000000000000000 Ta
   0.6249999999999999    0.1250000000000001    0.0000000000000000 Ta
   0.8749999999999999    0.6250000000000000    0.7500000000000002 Ta
   0.3749999999999999    0.1250000000000001    0.7500000000000000 Ta
   0.3749999999999999    0.6250000000000001    0.2500000000000000 Ta
   0.8749999999999999    0.1250000000000001    0.2500000000000000 Ta
   0.8749999999999999    0.6250000000000000    0.2500000000000002 Ta
   0.3749999999999999    0.1250000000000001    0.2500000000000000 Ta
   0.3749999999999999    0.6250000000000001    0.7500000000000000 Ta
   0.8749999999999999    0.1250000000000002    0.7500000000000000 Ta
   0.6249999999999999    0.6250000000000000    0.0000000000000000 Ta
   0.1250000000000000    0.1250000000000001    0.9999999999999999 Ta
   0.1250000000000000    0.6250000000000001    0.5000000000000000 Ta
   0.6249999999999999    0.1250000000000002    0.5000000000000000 Ta
   0.6249999999999999    0.8750000000000001    0.2500000000000000 Ta
   0.1250000000000000    0.3750000000000001    0.2500000000000000 Ta
   0.1250000000000000    0.8750000000000001    0.7500000000000000 Ta
   0.6249999999999999    0.3750000000000001    0.7500000000000000 Ta
   0.8749999999999999    0.8750000000000001    0.5000000000000002 Ta
   0.3749999999999999    0.3750000000000002    0.5000000000000000 Ta
   0.3749999999999999    0.8750000000000001    0.0000000000000000 Ta
   0.8749999999999999    0.3750000000000002    0.0000000000000000 Ta
   0.4999999999999999    0.4999999999999999    0.0000000000000002 Nb
   0.0000000000000000    0.0000000000000000    0.0000000000000000 Nb
   0.0000000000000000    0.5000000000000000    0.5000000000000000 Nb
   0.4999999999999999    0.0000000000000000    0.5000000000000000 Nb
   0.7499999999999999    0.7500000000000000    0.5000000000000002 Nb
   0.2500000000000000    0.2500000000000000    0.5000000000000000 Nb
   0.2500000000000000    0.7500000000000001    0.0000000000000000 Nb
   0.7499999999999999    0.2500000000000001    0.0000000000000000 Nb
   0.4999999999999999    0.7500000000000000    0.7500000000000001 Nb
   0.0000000000000000    0.2500000000000001    0.7500000000000000 Nb
   0.0000000000000000    0.7500000000000001    0.2500000000000000 Nb
   0.4999999999999999    0.2500000000000001    0.2500000000000000 Nb
   0.7499999999999999    0.5000000000000000    0.7500000000000001 Nb
   0.2500000000000000    0.0000000000000001    0.7499999999999999 Nb
   0.2500000000000000    0.5000000000000001    0.2500000000000000 Nb
   0.7499999999999999    0.0000000000000001    0.2500000000000000 Nb
   0.4999999999999999    0.5000000000000000    0.5000000000000001 Ir
   0.0000000000000000    0.0000000000000001    0.4999999999999999 Ir
   0.0000000000000000    0.5000000000000001    0.0000000000000000 Ir
   0.4999999999999999    0.0000000000000001    0.0000000000000000 Ir
   0.7499999999999999    0.7500000000000000    0.0000000000000002 Ir
   0.2500000000000000    0.2500000000000001    0.0000000000000000 Ir
   0.2500000000000000    0.7500000000000001    0.5000000000000000 Ir
   0.7499999999999999    0.2500000000000002    0.5000000000000000 Ir
   0.4999999999999999    0.7500000000000000    0.2500000000000002 Ir
   0.0000000000000000    0.2500000000000000    0.2500000000000000 Ir
   0.0000000000000000    0.7500000000000001    0.7500000000000001 Ir
   0.4999999999999999    0.2500000000000001    0.7500000000000001 Ir
   0.7499999999999999    0.4999999999999999    0.2500000000000002 Ir
   0.2500000000000000    0.0000000000000000    0.2500000000000000 Ir
   0.2500000000000000    0.5000000000000000    0.7500000000000000 Ir
   0.7499999999999999    0.0000000000000001    0.7500000000000000 Ir
