Sc8 Ga8 Ni8
1.0
  11.0297565405032447    0.0000000000000000   -5.8225857025346999
   4.8937445973577631    5.4797878878740303    0.5800795015470049
   0.0000000000000000    0.0000000000000000    6.4026652040817051
Sc Ga Ni
8 8 8
direct
   0.7500000000000000    0.1936408811196773    0.9950285774032928 Sc
   0.2500000000000000    0.6936408811196770    0.4950285774032926 Sc
   0.7500000000000000    0.3063591188803230    0.5049714225967074 Sc
   0.2500000000000000    0.8063591188803230    0.0049714225967075 Sc
   0.0000000000000000    0.4436408811196770    0.7450285774032926 Sc
   0.5000000000000000    0.9436408811196770    0.2450285774032926 Sc
   0.0000000000000000    0.5563591188803230    0.2549714225967074 Sc
   0.5000000000000000    0.0563591188803230    0.7549714225967074 Sc
   0.0000000000000000    0.8260721431608254    0.5716862945970789 Ga
   0.5000000000000000    0.3260721431608253    0.0716862945970790 Ga
   0.0000000000000000    0.1739278568391747    0.4283137054029211 Ga
   0.5000000000000000    0.6739278568391747    0.9283137054029212 Ga
   0.7500000000000000    0.5760721431608253    0.8216862945970789 Ga
   0.2500000000000000    0.0760721431608253    0.3216862945970790 Ga
   0.7500000000000000    0.9239278568391748    0.6783137054029211 Ga
   0.2500000000000000    0.4239278568391749    0.1783137054029212 Ga
   0.7500000000000000    0.9070276851069714    0.2858396087212755 Ni
   0.2500000000000000    0.4070276851069716    0.7858396087212753 Ni
   0.7500000000000000    0.5929723148930285    0.2141603912787246 Ni
   0.2500000000000000    0.0929723148930286    0.7141603912787247 Ni
   0.0000000000000000    0.1570276851069714    0.0358396087212754 Ni
   0.5000000000000000    0.6570276851069714    0.5358396087212755 Ni
   0.0000000000000000    0.8429723148930287    0.9641603912787245 Ni
   0.5000000000000000    0.3429723148930286    0.4641603912787247 Ni
