Mg8 Zr8 Au16
1.0
   6.7401057147996877    0.0000000000000000   -6.7401057147996868
   0.0000000000000022   13.4802114295993736   -6.7401057147996868
   0.0000000000000000    0.0000000000000000    6.7401057147996868
Mg Zr Au
8 8 16
direct
   0.0000000000000000    0.0000000000000000    0.5000000000000000 Mg
   0.0000000000000000    0.5000000000000000    0.0000000000000000 Mg
   0.5000000000000000    0.2500000000000001    0.2500000000000000 Mg
   0.5000000000000000    0.7500000000000001    0.7500000000000000 Mg
   0.0000000000000000    0.2500000000000000    0.2500000000000000 Mg
   0.0000000000000000    0.7500000000000001    0.7500000000000001 Mg
   0.5000000000000000    0.0000000000000000    0.5000000000000000 Mg
   0.5000000000000000    0.5000000000000000    0.0000000000000000 Mg
   0.0000000000000000    0.0000000000000000    0.0000000000000000 Zr
   0.0000000000000000    0.5000000000000000    0.5000000000000000 Zr
   0.5000000000000000    0.2500000000000000    0.7500000000000000 Zr
   0.5000000000000000    0.7500000000000001    0.2500000000000000 Zr
   0.0000000000000000    0.2500000000000001    0.7500000000000000 Zr
   0.0000000000000000    0.7500000000000001    0.2500000000000000 Zr
   0.5000000000000000    0.0000000000000001    0.0000000000000000 Zr
   0.5000000000000000    0.5000000000000001    0.5000000000000000 Zr
   0.2500000000000000    0.3750000000000001    0.8750000000000000 Au
   0.2500000000000000    0.8750000000000000    0.3750000000000000 Au
   0.7500000000000001    0.3750000000000001    0.3750000000000000 Au
   0.7500000000000001    0.8750000000000000    0.8750000000000000 Au
   0.7500000000000001    0.1250000000000001    0.1250000000000000 Au
   0.7500000000000001    0.6250000000000000    0.6250000000000000 Au
   0.2500000000000000    0.1250000000000000    0.6250000000000000 Au
   0.2500000000000000    0.6250000000000000    0.1250000000000000 Au
   0.2500000000000000    0.1250000000000001    0.1250000000000000 Au
   0.2500000000000000    0.6250000000000000    0.6250000000000000 Au
   0.7500000000000001    0.1250000000000001    0.6250000000000002 Au
   0.7500000000000001    0.6250000000000002    0.1250000000000004 Au
   0.7500000000000001    0.3750000000000001    0.8750000000000002 Au
   0.7500000000000001    0.8750000000000000    0.3750000000000000 Au
   0.2500000000000000    0.3750000000000001    0.3750000000000000 Au
   0.2500000000000000    0.8750000000000000    0.8750000000000000 Au
