Ti8 Si8 Os16
1.0
   6.0434267298693678    0.0000000000000000    0.0000000000000004
   0.0000000000000019   12.0868534597387338   -6.0434267298693669
   0.0000000000000000    0.0000000000000000    6.0434267298693678
Ti Si Os
8 8 16
direct
   0.0000000000000000    0.5000000000000000    0.4999999999999999 Ti
   0.0000000000000000    0.0000000000000000    0.0000000000000000 Ti
   0.5000000000000000    0.2500000000000000    0.2500000000000000 Ti
   0.5000000000000000    0.7500000000000000    0.7500000000000000 Ti
   0.5000000000000000    0.5000000000000000    0.0000000000000000 Ti
   0.5000000000000000    0.0000000000000000    0.5000000000000000 Ti
   0.0000000000000000    0.2500000000000000    0.7500000000000000 Ti
   0.0000000000000000    0.7500000000000000    0.2500000000000001 Ti
   0.0000000000000000    0.5000000000000000    0.0000000000000000 Si
   0.0000000000000000    0.0000000000000000    0.5000000000000000 Si
   0.5000000000000000    0.2500000000000000    0.7500000000000000 Si
   0.5000000000000000    0.7500000000000000    0.2500000000000001 Si
   0.5000000000000000    0.5000000000000000    0.4999999999999999 Si
   0.5000000000000000    0.0000000000000000    0.0000000000000000 Si
   0.0000000000000000    0.2500000000000000    0.2500000000000000 Si
   0.0000000000000000    0.7500000000000000    0.7500000000000000 Si
   0.2500000000000000    0.1250000000000000    0.8750000000000000 Os
   0.2500000000000001    0.6250000000000000    0.3750000000000000 Os
   0.2500000000000000    0.3750000000000000    0.1250000000000000 Os
   0.2500000000000000    0.8750000000000000    0.6250000000000000 Os
   0.7500000000000000    0.3750000000000000    0.1250000000000000 Os
   0.7500000000000000    0.8750000000000000    0.6250000000000000 Os
   0.7500000000000000    0.1250000000000000    0.8750000000000000 Os
   0.7500000000000000    0.6250000000000000    0.3750000000000000 Os
   0.7500000000000000    0.1250000000000000    0.3749999999999999 Os
   0.7500000000000000    0.6250000000000000    0.8750000000000000 Os
   0.7500000000000000    0.3750000000000000    0.6250000000000000 Os
   0.7500000000000000    0.8750000000000000    0.1250000000000000 Os
   0.2500000000000000    0.3750000000000000    0.6250000000000000 Os
   0.2500000000000001    0.8750000000000000    0.1250000000000000 Os
   0.2500000000000000    0.1250000000000000    0.3749999999999999 Os
   0.2500000000000001    0.6250000000000000    0.8750000000000000 Os
