Y3 Cd3 Au3
1.0
   3.9993492203209016    0.0000000000000000    0.0000000000000002
   0.0000000000000011    6.7021921605463151  -11.6085373441560584
   0.0000000000000000    0.0000000000000000    7.7390248961040360
Y Cd Au
3 3 3
direct
   0.0000000000000000    0.0000000000000000    0.4051987979077865 Y
   0.0000000000000000    0.4051987979077865    0.4051987979077865 Y
   0.0000000000000000    0.5948012020922135    0.1896024041844271 Y
   0.5000000000000000    0.0000000000000000    0.7411406646851830 Cd
   0.5000000000000000    0.7411406646851830    0.7411406646851830 Cd
   0.5000000000000000    0.2588593353148170    0.5177186706296339 Cd
   0.5000000000000000    0.3333333333333334    0.0000000000000001 Au
   0.5000000000000000    0.6666666666666667    0.0000000000000001 Au
   0.0000000000000000    0.0000000000000000    0.0000000000000000 Au
