Sr4 Zn4 Si4
1.0
   9.0433708068000964    0.0000000000000000    0.0000000000000006
   0.0000000000000012    7.4578397417359534   -8.6115715649286848
   0.0000000000000000    0.0000000000000000    4.3057857824643424
Sr Zn Si
4 4 4
direct
   0.0000000000000000    0.5000000000000000    0.5000000000000000 Sr
   0.0000000000000000    0.0000000000000000    0.0000000000000000 Sr
   0.5000000000000000    0.5000000000000000    0.5000000000000000 Sr
   0.5000000000000000    0.0000000000000000    0.0000000000000000 Sr
   0.2500000000000000    0.3333333333333333    0.6666666666666667 Zn
   0.2500000000000000    0.8333333333333333    0.1666666666666666 Zn
   0.7500000000000000    0.1666666666666667    0.8333333333333334 Zn
   0.7500000000000000    0.6666666666666666    0.3333333333333334 Zn
   0.2500000000000000    0.1666666666666667    0.8333333333333333 Si
   0.2500000000000000    0.6666666666666667    0.3333333333333334 Si
   0.7500000000000000    0.3333333333333333    0.6666666666666667 Si
   0.7500000000000000    0.8333333333333334    0.1666666666666666 Si
