Na16 Sb8 Au8
1.0
  20.1997778628548978    0.0000000000000000    0.0000000000000012
   2.8479357339642339    7.0297177218558229    5.9307666039688582
   0.0000000000000000    0.0000000000000000    5.9307666039688609
Na Sb Au
16 8 8
direct
   0.8392121421772601    0.8258732423672724    0.4241267576327274 Na
   0.3392121421772600    0.3258732423672726    0.9241267576327274 Na
   0.6607878578227400    0.6741267576327273    0.0758732423672726 Na
   0.1607878578227400    0.1741267576327272    0.5758732423672726 Na
   0.6607878578227400    0.0042975267217925    0.2457024732782074 Na
   0.1607878578227400    0.5042975267217926    0.7457024732782074 Na
   0.8392121421772601    0.4957024732782073    0.2542975267217926 Na
   0.3392121421772600    0.9957024732782074    0.7542975267217924 Na
   0.5892121421772601    0.5758732423672726    0.6741267576327274 Na
   0.0892121421772600    0.0758732423672726    0.1741267576327274 Na
   0.9107878578227400    0.9241267576327274    0.8258732423672723 Na
   0.4107878578227400    0.4241267576327274    0.3258732423672726 Na
   0.9107878578227400    0.2542975267217926    0.9957024732782072 Na
   0.4107878578227400    0.7542975267217926    0.4957024732782074 Na
   0.5892121421772601    0.2457024732782073    0.5042975267217926 Na
   0.0892121421772600    0.7457024732782074    0.0042975267217926 Na
   0.5000000000000000    0.7027129204757044    0.0472870795242955 Sb
   0.0000000000000000    0.2027129204757044    0.5472870795242955 Sb
   0.5000000000000000    0.2972870795242955    0.9527129204757047 Sb
   0.0000000000000000    0.7972870795242956    0.4527129204757044 Sb
   0.7500000000000000    0.9527129204757044    0.7972870795242955 Sb
   0.2500000000000000    0.4527129204757044    0.2972870795242955 Sb
   0.7500000000000000    0.5472870795242955    0.7027129204757045 Sb
   0.2500000000000000    0.0472870795242955    0.2027129204757045 Sb
   0.5000000000000000    0.9999999999999999    0.5000000000000002 Au
   0.0000000000000000    0.5000000000000000    0.0000000000000000 Au
   0.5000000000000000    0.9999999999999999    0.0000000000000000 Au
   0.0000000000000000    0.5000000000000000    0.5000000000000000 Au
   0.7500000000000000    0.2499999999999999    0.2500000000000002 Au
   0.2500000000000000    0.7500000000000000    0.7500000000000000 Au
   0.7500000000000000    0.2499999999999999    0.7500000000000000 Au
   0.2500000000000000    0.7500000000000000    0.2500000000000000 Au
