Na16 Sb8 Au8
1.0
  15.1693993544588572    0.0000000000000000    9.3608674346307019
   7.5846996772294260    5.9307666039688618   -0.0000000000000015
   0.0000000000000000    0.0000000000000000    9.3608674346307055
Na Sb Au
16 8 8
direct
   0.2075426922722663    0.2500000000000000    0.4708815920822538 Na
   0.7075426922722663    0.2500000000000000    0.9708815920822537 Na
   0.7924573077277337    0.7500000000000001    0.5291184079177460 Na
   0.2924573077277336    0.7500000000000001    0.0291184079177462 Na
   0.2075426922722663    0.2500000000000001    0.1140330233732136 Na
   0.7075426922722663    0.2500000000000001    0.6140330233732136 Na
   0.7924573077277337    0.7500000000000001    0.8859669766267864 Na
   0.2924573077277337    0.7500000000000001    0.3859669766267861 Na
   0.9575426922722663    0.2500000000000000    0.2208815920822538 Na
   0.4575426922722663    0.2500000000000001    0.7208815920822537 Na
   0.0424573077277338    0.7500000000000001    0.7791184079177460 Na
   0.5424573077277337    0.7500000000000001    0.2791184079177462 Na
   0.9575426922722663    0.2500000000000000    0.8640330233732134 Na
   0.4575426922722663    0.2500000000000001    0.3640330233732134 Na
   0.0424573077277337    0.7500000000000001    0.1359669766267864 Na
   0.5424573077277337    0.7500000000000001    0.6359669766267864 Na
   0.7263564602378523    0.7500000000000001    0.2736435397621477 Sb
   0.2263564602378522    0.7500000000000001    0.7736435397621477 Sb
   0.2736435397621478    0.2500000000000000    0.7263564602378523 Sb
   0.7736435397621477    0.2500000000000000    0.2263564602378522 Sb
   0.9763564602378523    0.7500000000000001    0.5236435397621477 Sb
   0.4763564602378523    0.7500000000000001    0.0236435397621477 Sb
   0.0236435397621478    0.2500000000000001    0.4763564602378521 Sb
   0.5236435397621477    0.2500000000000001    0.9763564602378523 Sb
   0.0000000000000000    0.5000000000000001    0.9999999999999999 Au
   0.5000000000000000    0.5000000000000001    0.5000000000000000 Au
   0.2500000000000000    0.0000000000000000    0.7499999999999999 Au
   0.7500000000000000    0.0000000000000000    0.2500000000000000 Au
   0.2500000000000000    0.5000000000000001    0.2500000000000000 Au
   0.7500000000000000    0.5000000000000001    0.7500000000000000 Au
   0.4999999999999999    0.0000000000000000    0.9999999999999999 Au
   0.0000000000000000    0.0000000000000000    0.4999999999999999 Au
