Ti4 Ni4
1.0
   4.6978936395992630    0.0000000000000000   -1.2885928541214831
  -0.0000000000000023    8.0252959187422608   -2.9357752079495385
   0.0000000000000000    0.0000000000000000    2.9357752079495381
Ti Ni
4 4
direct
   0.2149768615706975    0.1250000000000000    0.4935764680783379 Ti
   0.2149768615706975    0.6250000000000000    0.9935764680783379 Ti
   0.7850231384293025    0.3750000000000001    0.0064235319216621 Ti
   0.7850231384293025    0.8750000000000000    0.5064235319216621 Ti
   0.6708550263600016    0.1250000000000000    0.2020984261164714 Ni
   0.6708550263600016    0.6250000000000000    0.7020984261164713 Ni
   0.3291449736399984    0.3750000000000001    0.2979015738835287 Ni
   0.3291449736399984    0.8750000000000000    0.7979015738835287 Ni
