Hf12 As12 Ru12
1.0
  11.4023307404906813    0.0000000000000000  -13.1662774448228710
  -0.0000000000000022    7.8319771761185546   -6.5831387224114390
   0.0000000000000000    0.0000000000000000    6.5831387224114373
Hf As Ru
12 12 12
direct
   0.7093291617210474    0.7500000000000000    0.8779874851631424 Hf
   0.2093291617210475    0.2500000000000001    0.8779874851631424 Hf
   0.2093291617210475    0.7500000000000000    0.3779874851631424 Hf
   0.7093291617210474    0.2500000000000001    0.3779874851631424 Hf
   0.5000000000000000    0.7500000000000000    0.8313416765579050 Hf
   0.0000000000000000    0.2500000000000001    0.8313416765579050 Hf
   0.0000000000000000    0.7500000000000000    0.3313416765579051 Hf
   0.4999999999999999    0.2500000000000001    0.3313416765579049 Hf
   0.7906708382789525    0.7500000000000000    0.5406708382789526 Hf
   0.2906708382789525    0.2500000000000000    0.5406708382789526 Hf
   0.2906708382789525    0.7500000000000000    0.0406708382789527 Hf
   0.7906708382789525    0.2500000000000001    0.0406708382789525 Hf
   0.6666666666666665    0.5000000000000000    0.8333333333333333 As
   0.1666666666666666    0.0000000000000000    0.8333333333333333 As
   0.1666666666666666    0.5000000000000000    0.3333333333333333 As
   0.6666666666666666    0.0000000000000001    0.3333333333333333 As
   0.8333333333333333    0.5000000000000000    0.6666666666666665 As
   0.3333333333333333    0.0000000000000000    0.6666666666666665 As
   0.3333333333333333    0.5000000000000000    0.1666666666666665 As
   0.8333333333333333    0.0000000000000000    0.1666666666666667 As
   0.5000000000000000    0.7500000000000000    0.2500000000000000 As
   0.0000000000000000    0.2500000000000000    0.2500000000000000 As
   0.0000000000000000    0.7500000000000000    0.7500000000000000 As
   0.5000000000000000    0.2500000000000001    0.7500000000000000 As
   0.8771642837849781    0.5000000000000000    0.1314928513549345 Ru
   0.3771642837849782    0.0000000000000000    0.1314928513549345 Ru
   0.3771642837849782    0.5000000000000001    0.6314928513549345 Ru
   0.8771642837849781    0.0000000000000001    0.6314928513549347 Ru
   0.5000000000000000    0.5000000000000000    0.2456714324300437 Ru
   0.0000000000000000    0.0000000000000000    0.2456714324300436 Ru
   0.0000000000000000    0.5000000000000000    0.7456714324300436 Ru
   0.4999999999999999    0.0000000000000000    0.7456714324300436 Ru
   0.6228357162150218    0.5000000000000000    0.1228357162150219 Ru
   0.1228357162150218    0.0000000000000000    0.1228357162150218 Ru
   0.1228357162150218    0.5000000000000000    0.6228357162150219 Ru
   0.6228357162150218    0.0000000000000000    0.6228357162150219 Ru
