Y4 Al4 Si4
1.0
  10.3125283763700235    0.0000000000000000   -8.0120430905617894
  -0.0000000000000004    5.7207931391077702   -4.0060215452808947
   0.0000000000000000    0.0000000000000000    4.0060215452808956
Y Al Si
4 4 4
direct
   0.1949934204531800    0.2500000000000000    0.1399868409063603 Y
   0.3050065795468200    0.7500000000000000    0.3600131590936402 Y
   0.6949934204531800    0.2500000000000001    0.6399868409063603 Y
   0.8050065795468200    0.7500000000000000    0.8600131590936400 Y
   0.0000000000000000    0.5000000000000000    0.5000000000000000 Al
   0.0000000000000000    0.0000000000000000    0.0000000000000000 Al
   0.5000000000000000    0.5000000000000000    0.0000000000000004 Al
   0.5000000000000000    0.0000000000000000    0.5000000000000002 Al
   0.0986973265666151    0.7500000000000000    0.4473946531332302 Si
   0.4013026734333849    0.2500000000000000    0.0526053468667700 Si
   0.5986973265666151    0.7500000000000000    0.9473946531332305 Si
   0.9013026734333850    0.2500000000000001    0.5526053468667702 Si
