Zr16 Cd16 Rh32
1.0
  12.9708177676846823    0.0000000000000000   -6.4854088838423412
  -0.0000000000000037   12.9708177676846841   -6.4854088838423420
   0.0000000000000000    0.0000000000000000    6.4854088838423420
Zr Cd Rh
16 16 32
direct
   0.5000000000000000    0.5000000000000000    0.0000000000000000 Zr
   0.0000000000000000    0.0000000000000000    0.0000000000000000 Zr
   0.0000000000000000    0.5000000000000000    0.5000000000000000 Zr
   0.5000000000000000    0.0000000000000000    0.5000000000000000 Zr
   0.7500000000000000    0.7500000000000000    0.4999999999999999 Zr
   0.2500000000000000    0.2500000000000000    0.5000000000000000 Zr
   0.2500000000000000    0.7500000000000000    0.0000000000000000 Zr
   0.7500000000000000    0.2500000000000001    0.0000000000000000 Zr
   0.5000000000000000    0.7500000000000000    0.7500000000000000 Zr
   0.0000000000000000    0.2500000000000001    0.7500000000000000 Zr
   0.0000000000000000    0.7500000000000000    0.2500000000000000 Zr
   0.5000000000000000    0.2500000000000001    0.2500000000000000 Zr
   0.7500000000000000    0.5000000000000000    0.7499999999999999 Zr
   0.2500000000000000    0.0000000000000001    0.7500000000000000 Zr
   0.2500000000000000    0.5000000000000000    0.2500000000000000 Zr
   0.7500000000000000    0.0000000000000001    0.2500000000000000 Zr
   0.5000000000000000    0.5000000000000000    0.5000000000000000 Cd
   0.0000000000000000    0.0000000000000000    0.5000000000000000 Cd
   0.0000000000000000    0.5000000000000000    0.0000000000000000 Cd
   0.5000000000000000    0.0000000000000001    0.0000000000000000 Cd
   0.7500000000000000    0.7500000000000000    0.9999999999999999 Cd
   0.2500000000000000    0.2500000000000001    0.0000000000000000 Cd
   0.2500000000000000    0.7500000000000000    0.5000000000000000 Cd
   0.7500000000000000    0.2500000000000001    0.5000000000000000 Cd
   0.5000000000000000    0.7500000000000000    0.2500000000000000 Cd
   0.0000000000000000    0.2500000000000000    0.2500000000000000 Cd
   0.0000000000000000    0.7500000000000000    0.7500000000000000 Cd
   0.5000000000000000    0.2500000000000001    0.7500000000000000 Cd
   0.7500000000000000    0.5000000000000000    0.2500000000000000 Cd
   0.2500000000000000    0.0000000000000000    0.2500000000000000 Cd
   0.2500000000000000    0.5000000000000000    0.7500000000000000 Cd
   0.7500000000000000    0.0000000000000000    0.7500000000000000 Cd
   0.8750000000000000    0.8750000000000001    0.0000000000000000 Rh
   0.3750000000000000    0.3750000000000001    0.0000000000000000 Rh
   0.3750000000000000    0.8750000000000001    0.5000000000000000 Rh
   0.8750000000000000    0.3750000000000001    0.5000000000000000 Rh
   0.6250000000000000    0.8749999999999999    0.7499999999999999 Rh
   0.1250000000000000    0.3750000000000000    0.7500000000000000 Rh
   0.1250000000000000    0.8750000000000000    0.2500000000000000 Rh
   0.6250000000000000    0.3750000000000000    0.2500000000000000 Rh
   0.6250000000000000    0.6250000000000000    0.5000000000000000 Rh
   0.1250000000000000    0.1250000000000000    0.5000000000000000 Rh
   0.1250000000000000    0.6250000000000001    0.0000000000000000 Rh
   0.6250000000000000    0.1250000000000001    0.0000000000000000 Rh
   0.8750000000000000    0.6250000000000000    0.7499999999999999 Rh
   0.3750000000000000    0.1250000000000001    0.7500000000000000 Rh
   0.3750000000000000    0.6250000000000001    0.2500000000000000 Rh
   0.8750000000000000    0.1250000000000001    0.2500000000000000 Rh
   0.8750000000000000    0.6250000000000000    0.2500000000000000 Rh
   0.3750000000000000    0.1250000000000001    0.2500000000000000 Rh
   0.3750000000000000    0.6250000000000001    0.7500000000000000 Rh
   0.8750000000000000    0.1250000000000001    0.7500000000000000 Rh
   0.6250000000000000    0.6250000000000000    0.9999999999999999 Rh
   0.1250000000000000    0.1250000000000001    0.0000000000000000 Rh
   0.1250000000000000    0.6250000000000001    0.5000000000000000 Rh
   0.6250000000000000    0.1250000000000001    0.5000000000000000 Rh
   0.6250000000000000    0.8750000000000001    0.2500000000000000 Rh
   0.1250000000000000    0.3750000000000001    0.2500000000000000 Rh
   0.1250000000000000    0.8750000000000001    0.7500000000000000 Rh
   0.6250000000000000    0.3750000000000001    0.7500000000000000 Rh
   0.8750000000000000    0.8750000000000001    0.5000000000000000 Rh
   0.3750000000000000    0.3750000000000001    0.5000000000000000 Rh
   0.3750000000000000    0.8750000000000001    0.0000000000000000 Rh
   0.8750000000000000    0.3750000000000001    0.0000000000000000 Rh
