Hf4 Al4 Cu8
1.0
   6.2100340312661606    0.0000000000000000    0.0000000000000004
   0.0000000000000010    6.2100340312661606    0.0000000000000004
   0.0000000000000000    0.0000000000000000    6.2100340312661606
Hf Al Cu
4 4 8
direct
   0.0000000000000000    0.0000000000000000    0.4999999999999999 Hf
   0.4999999999999999    0.5000000000000000    0.4999999999999999 Hf
   0.0000000000000000    0.4999999999999999    0.0000000000000000 Hf
   0.4999999999999999    0.0000000000000000    0.0000000000000000 Hf
   0.0000000000000000    0.0000000000000000    0.0000000000000000 Al
   0.4999999999999999    0.4999999999999999    0.0000000000000000 Al
   0.0000000000000000    0.4999999999999999    0.4999999999999999 Al
   0.4999999999999999    0.0000000000000000    0.4999999999999999 Al
   0.7499999999999999    0.7500000000000000    0.2500000000000000 Cu
   0.2500000000000000    0.7499999999999999    0.2500000000000000 Cu
   0.2500000000000000    0.2500000000000000    0.2500000000000000 Cu
   0.7499999999999999    0.2500000000000000    0.2500000000000000 Cu
   0.7499999999999999    0.2500000000000000    0.7499999999999999 Cu
   0.2500000000000000    0.2500000000000000    0.7499999999999999 Cu
   0.2500000000000000    0.7500000000000000    0.7499999999999999 Cu
   0.7499999999999999    0.7500000000000000    0.7499999999999999 Cu
