Ca16 Cd8 Pd16
1.0
  11.8812872853353308    0.0000000000000000   -4.5216113388586399
   0.0000000000000028   17.3358030533421399   -4.5216113388586381
   0.0000000000000000    0.0000000000000000    4.5216113388586390
Ca Cd Pd
16 8 16
direct
   0.7500000000000000    0.6008907989186341    0.3508907989186341 Ca
   0.2500000000000000    0.1008907989186340    0.3508907989186341 Ca
   0.2500000000000000    0.6008907989186340    0.8508907989186340 Ca
   0.7500000000000000    0.1008907989186341    0.8508907989186341 Ca
   0.7500000000000000    0.8991092010813659    0.6491092010813659 Ca
   0.2500000000000000    0.3991092010813659    0.6491092010813659 Ca
   0.2500000000000000    0.8991092010813658    0.1491092010813659 Ca
   0.7500000000000000    0.3991092010813659    0.1491092010813659 Ca
   0.5000000000000000    0.8508907989186340    0.8508907989186340 Ca
   0.0000000000000000    0.3508907989186340    0.8508907989186341 Ca
   0.0000000000000000    0.8508907989186340    0.3508907989186341 Ca
   0.5000000000000000    0.3508907989186340    0.3508907989186341 Ca
   0.5000000000000000    0.6491092010813659    0.6491092010813659 Ca
   0.0000000000000000    0.1491092010813659    0.6491092010813659 Ca
   0.0000000000000000    0.6491092010813659    0.1491092010813659 Ca
   0.5000000000000000    0.1491092010813659    0.1491092010813659 Ca
   0.5000000000000000    0.5000000000000000    0.0000000000000000 Cd
   0.0000000000000000    0.0000000000000000    0.0000000000000000 Cd
   0.0000000000000000    0.5000000000000000    0.5000000000000000 Cd
   0.5000000000000000    0.0000000000000000    0.5000000000000000 Cd
   0.7500000000000000    0.7500000000000000    0.0000000000000000 Cd
   0.2500000000000000    0.2500000000000000    0.0000000000000000 Cd
   0.2500000000000000    0.7500000000000000    0.5000000000000000 Cd
   0.7500000000000000    0.2500000000000000    0.5000000000000000 Cd
   0.8641943913316191    0.5000000000000000    0.8641943913316190 Pd
   0.3641943913316190    0.0000000000000000    0.8641943913316191 Pd
   0.3641943913316190    0.4999999999999999    0.3641943913316190 Pd
   0.8641943913316191    0.0000000000000000    0.3641943913316190 Pd
   0.6358056086683810    0.5000000000000000    0.6358056086683810 Pd
   0.1358056086683810    0.0000000000000000    0.6358056086683810 Pd
   0.1358056086683810    0.4999999999999999    0.1358056086683810 Pd
   0.6358056086683810    0.0000000000000000    0.1358056086683810 Pd
   0.6141943913316190    0.7500000000000000    0.3641943913316190 Pd
   0.1141943913316190    0.2500000000000000    0.3641943913316190 Pd
   0.1141943913316190    0.7500000000000000    0.8641943913316190 Pd
   0.6141943913316190    0.2500000000000000    0.8641943913316190 Pd
   0.8858056086683810    0.7500000000000000    0.6358056086683810 Pd
   0.3858056086683810    0.2500000000000000    0.6358056086683810 Pd
   0.3858056086683810    0.7500000000000000    0.1358056086683810 Pd
   0.8858056086683810    0.2500000000000000    0.1358056086683810 Pd
