Sc12 Fe12 Ge12
1.0
  11.2406323035566320    0.0000000000000000  -12.9795641726400515
  -0.0000000000000005    7.9258494031960138   -6.4897820863200257
   0.0000000000000000    0.0000000000000000    6.4897820863200248
Sc Fe Ge
12 12 12
direct
   0.4999999999999999    0.7499999999999999    0.8283565655520064 Sc
   0.0000000000000000    0.2500000000000000    0.8283565655520064 Sc
   0.0000000000000000    0.7499999999999999    0.3283565655520064 Sc
   0.5000000000000000    0.2499999999999999    0.3283565655520064 Sc
   0.7108217172239968    0.7499999999999999    0.8824651516719904 Sc
   0.2108217172239968    0.2500000000000000    0.8824651516719904 Sc
   0.2108217172239968    0.7499999999999999    0.3824651516719904 Sc
   0.7108217172239967    0.2499999999999999    0.3824651516719901 Sc
   0.7891782827760032    0.7500000000000000    0.5391782827760031 Sc
   0.2891782827760032    0.2500000000000000    0.5391782827760032 Sc
   0.2891782827760032    0.7499999999999999    0.0391782827760032 Sc
   0.7891782827760032    0.2499999999999999    0.0391782827760032 Sc
   0.4999999999999999    0.5000000000000000    0.2267493082146643 Fe
   0.0000000000000000    0.0000000000000000    0.2267493082146643 Fe
   0.0000000000000000    0.4999999999999999    0.7267493082146643 Fe
   0.5000000000000000    0.0000000000000000    0.7267493082146642 Fe
   0.8866253458926677    0.4999999999999999    0.1598760376780035 Fe
   0.3866253458926678    0.0000000000000000    0.1598760376780035 Fe
   0.3866253458926678    0.4999999999999999    0.6598760376780035 Fe
   0.8866253458926677    0.9999999999999999    0.6598760376780035 Fe
   0.6133746541073322    0.5000000000000000    0.1133746541073321 Fe
   0.1133746541073321    0.0000000000000000    0.1133746541073321 Fe
   0.1133746541073321    0.4999999999999999    0.6133746541073322 Fe
   0.6133746541073322    0.0000000000000000    0.6133746541073321 Fe
   0.5000000000000000    0.7500000000000000    0.2499999999999999 Ge
   0.0000000000000000    0.2500000000000000    0.2500000000000000 Ge
   0.0000000000000000    0.7499999999999999    0.7499999999999999 Ge
   0.5000000000000000    0.2500000000000000    0.7499999999999999 Ge
   0.8333333333333331    0.4999999999999999    0.6666666666666666 Ge
   0.3333333333333333    0.0000000000000000    0.6666666666666665 Ge
   0.3333333333333333    0.4999999999999999    0.1666666666666665 Ge
   0.8333333333333333    0.0000000000000000    0.1666666666666667 Ge
   0.6666666666666666    0.4999999999999999    0.8333333333333331 Ge
   0.1666666666666666    0.0000000000000000    0.8333333333333333 Ge
   0.1666666666666666    0.4999999999999999    0.3333333333333333 Ge
   0.6666666666666666    0.9999999999999999    0.3333333333333333 Ge
