Sr8 Ga24 Pd8
1.0
  10.5631235963093957    0.0000000000000000    0.0000000000000006
   0.0000000000000020   12.1520077037297334   -6.5036603242273898
   0.0000000000000000    0.0000000000000000    6.5036603242273916
Sr Ga Pd
8 24 8
direct
   0.2643710314547594    0.3750000000000001    0.8750000000000000 Sr
   0.2643710314547594    0.8750000000000000    0.3750000000000000 Sr
   0.7356289685452406    0.1250000000000000    0.6250000000000001 Sr
   0.7356289685452406    0.6250000000000000    0.1250000000000000 Sr
   0.7643710314547593    0.3750000000000000    0.3750000000000000 Sr
   0.7643710314547593    0.8749999999999999    0.8749999999999999 Sr
   0.2356289685452406    0.1250000000000000    0.1250000000000000 Sr
   0.2356289685452406    0.6250000000000000    0.6250000000000000 Sr
   0.8388374986807055    0.3750000000000000    0.8750000000000000 Ga
   0.8388374986807055    0.8749999999999999    0.3750000000000000 Ga
   0.1611625013192945    0.1250000000000000    0.6250000000000001 Ga
   0.1611625013192945    0.6250000000000000    0.1250000000000002 Ga
   0.0000000000000000    0.0000000000000000    0.7210754413161951 Ga
   0.0000000000000000    0.5000000000000000    0.2210754413161951 Ga
   0.0000000000000000    0.2500000000000001    0.9710754413161951 Ga
   0.0000000000000000    0.7500000000000001    0.4710754413161951 Ga
   0.0000000000000000    0.0000000000000000    0.2789245586838049 Ga
   0.0000000000000000    0.5000000000000000    0.7789245586838049 Ga
   0.0000000000000000    0.2500000000000000    0.5289245586838049 Ga
   0.0000000000000000    0.7499999999999999    0.0289245586838049 Ga
   0.3388374986807055    0.3750000000000000    0.3750000000000000 Ga
   0.3388374986807055    0.8750000000000000    0.8750000000000000 Ga
   0.6611625013192945    0.1250000000000000    0.1250000000000000 Ga
   0.6611625013192945    0.6250000000000000    0.6250000000000000 Ga
   0.5000000000000000    0.0000000000000000    0.2210754413161951 Ga
   0.5000000000000000    0.5000000000000000    0.7210754413161951 Ga
   0.5000000000000000    0.2500000000000000    0.4710754413161951 Ga
   0.5000000000000000    0.7500000000000001    0.9710754413161951 Ga
   0.5000000000000000    0.0000000000000000    0.7789245586838051 Ga
   0.5000000000000000    0.5000000000000001    0.2789245586838052 Ga
   0.5000000000000000    0.2500000000000000    0.0289245586838052 Ga
   0.5000000000000000    0.7500000000000001    0.5289245586838052 Ga
   0.5993148420225669    0.3750000000000000    0.8750000000000000 Pd
   0.5993148420225669    0.8750000000000000    0.3750000000000000 Pd
   0.4006851579774331    0.1250000000000000    0.6250000000000000 Pd
   0.4006851579774331    0.6250000000000000    0.1250000000000000 Pd
   0.0993148420225669    0.3750000000000001    0.3750000000000001 Pd
   0.0993148420225669    0.8750000000000000    0.8750000000000000 Pd
   0.9006851579774330    0.1250000000000000    0.1250000000000000 Pd
   0.9006851579774330    0.6250000000000000    0.6250000000000000 Pd
