Ba4 Cu4 Sn8
1.0
  20.1368736571071203    0.0000000000000000    0.0000000000000012
   1.1830287778568556    4.7352871025089787    4.7242441700867026
   0.0000000000000000    0.0000000000000000    4.7242441700867017
Ba Cu Sn
4 4 8
direct
   0.1084248745612948    0.3915751254387052    0.8584248745612948 Ba
   0.3915751254387052    0.6084248745612948    0.1415751254387052 Ba
   0.6084248745612948    0.3915751254387052    0.8584248745612947 Ba
   0.8915751254387051    0.6084248745612950    0.1415751254387048 Ba
   0.1797236079996913    0.8202763920003087    0.9297236079996912 Cu
   0.3202763920003087    0.1797236079996912    0.0702763920003087 Cu
   0.6797236079996913    0.8202763920003087    0.9297236079996913 Cu
   0.8202763920003088    0.1797236079996913    0.0702763920003087 Cu
   0.4567627500366872    0.0432372499633128    0.2067627500366873 Sn
   0.0432372499633128    0.9567627500366872    0.7932372499633128 Sn
   0.2503450873133948    0.2496549126866052    0.5003450873133950 Sn
   0.2496549126866053    0.7503450873133948    0.4996549126866052 Sn
   0.9567627500366873    0.0432372499633128    0.2067627500366873 Sn
   0.5432372499633128    0.9567627500366871    0.7932372499633129 Sn
   0.7503450873133948    0.2496549126866053    0.5003450873133948 Sn
   0.7496549126866052    0.7503450873133948    0.4996549126866052 Sn
