Al16 V16 Ru32
1.0
  11.9950178388504387    0.0000000000000000   -5.9975089194252194
  -0.0000000000000034   11.9950178388504387   -5.9975089194252194
   0.0000000000000000    0.0000000000000000    5.9975089194252194
Al V Ru
16 16 32
direct
   0.4999999999999999    0.5000000000000000    0.0000000000000002 Al
   0.0000000000000000    0.0000000000000000    0.0000000000000000 Al
   0.0000000000000000    0.5000000000000000    0.5000000000000000 Al
   0.4999999999999999    0.0000000000000001    0.5000000000000000 Al
   0.7500000000000000    0.7500000000000001    0.5000000000000003 Al
   0.2500000000000000    0.2500000000000001    0.5000000000000000 Al
   0.2500000000000000    0.7500000000000001    0.0000000000000000 Al
   0.7500000000000000    0.2500000000000002    0.0000000000000002 Al
   0.4999999999999999    0.7500000000000001    0.7500000000000001 Al
   0.0000000000000000    0.2500000000000001    0.7500000000000000 Al
   0.0000000000000000    0.7500000000000001    0.2500000000000000 Al
   0.4999999999999999    0.2500000000000002    0.2500000000000000 Al
   0.7500000000000000    0.5000000000000001    0.7500000000000001 Al
   0.2500000000000000    0.0000000000000001    0.7499999999999999 Al
   0.2500000000000000    0.5000000000000001    0.2500000000000000 Al
   0.7500000000000000    0.0000000000000002    0.2500000000000000 Al
   0.4999999999999999    0.5000000000000001    0.5000000000000001 V
   0.0000000000000000    0.0000000000000001    0.4999999999999999 V
   0.0000000000000000    0.5000000000000001    0.0000000000000000 V
   0.4999999999999999    0.0000000000000002    0.0000000000000000 V
   0.7500000000000000    0.7500000000000001    0.0000000000000002 V
   0.2500000000000000    0.2500000000000001    0.0000000000000000 V
   0.2500000000000000    0.7500000000000002    0.5000000000000000 V
   0.7500000000000000    0.2500000000000002    0.5000000000000000 V
   0.4999999999999999    0.7500000000000001    0.2500000000000002 V
   0.0000000000000000    0.2500000000000000    0.2500000000000000 V
   0.0000000000000000    0.7500000000000001    0.7500000000000001 V
   0.4999999999999999    0.2500000000000001    0.7500000000000001 V
   0.7500000000000000    0.5000000000000000    0.2500000000000002 V
   0.2500000000000000    0.0000000000000000    0.2500000000000000 V
   0.2500000000000000    0.5000000000000001    0.7500000000000000 V
   0.7500000000000000    0.0000000000000001    0.7500000000000001 V
   0.6249999999999999    0.8750000000000000    0.7500000000000002 Ru
   0.1250000000000000    0.3750000000000001    0.7500000000000000 Ru
   0.1250000000000000    0.8750000000000001    0.2500000000000000 Ru
   0.6249999999999999    0.3750000000000002    0.2500000000000000 Ru
   0.8749999999999999    0.8750000000000001    0.0000000000000000 Ru
   0.3750000000000000    0.3750000000000001    0.0000000000000000 Ru
   0.3750000000000000    0.8750000000000001    0.5000000000000000 Ru
   0.8749999999999999    0.3750000000000002    0.5000000000000000 Ru
   0.8749999999999999    0.6250000000000001    0.7500000000000002 Ru
   0.3750000000000000    0.1250000000000001    0.7500000000000000 Ru
   0.3750000000000000    0.6250000000000002    0.2500000000000002 Ru
   0.8749999999999999    0.1250000000000002    0.2500000000000000 Ru
   0.6249999999999999    0.6250000000000000    0.5000000000000002 Ru
   0.1250000000000000    0.1250000000000001    0.5000000000000000 Ru
   0.1250000000000000    0.6250000000000001    0.0000000000000000 Ru
   0.6249999999999999    0.1250000000000002    0.0000000000000000 Ru
   0.6249999999999999    0.6250000000000002    0.0000000000000002 Ru
   0.1250000000000000    0.1250000000000001    0.0000000000000000 Ru
   0.1250000000000000    0.6250000000000002    0.5000000000000002 Ru
   0.6249999999999999    0.1250000000000002    0.5000000000000000 Ru
   0.8749999999999999    0.6250000000000002    0.2500000000000002 Ru
   0.3750000000000000    0.1250000000000002    0.2500000000000000 Ru
   0.3750000000000000    0.6250000000000002    0.7500000000000002 Ru
   0.8749999999999999    0.1250000000000002    0.7500000000000000 Ru
   0.8749999999999999    0.8750000000000001    0.5000000000000002 Ru
   0.3750000000000000    0.3750000000000002    0.5000000000000000 Ru
   0.3750000000000000    0.8750000000000001    0.0000000000000000 Ru
   0.8749999999999999    0.3750000000000002    0.0000000000000000 Ru
   0.6249999999999999    0.8750000000000001    0.2500000000000000 Ru
   0.1250000000000000    0.3750000000000001    0.2500000000000000 Ru
   0.1250000000000000    0.8750000000000001    0.7500000000000000 Ru
   0.6249999999999999    0.3750000000000002    0.7500000000000000 Ru
