Li8 In16 Pd8
1.0
   6.6275560652164831    0.0000000000000000   -6.6275560652164822
   0.0000000000000021   13.2551121304329680   -6.6275560652164840
   0.0000000000000000    0.0000000000000000    6.6275560652164840
Li In Pd
8 16 8
direct
   0.0000000000000000    0.0000000000000000    0.0000000000000000 Li
   0.0000000000000000    0.5000000000000000    0.5000000000000000 Li
   0.5000000000000000    0.2500000000000000    0.7500000000000000 Li
   0.5000000000000000    0.7500000000000000    0.2500000000000000 Li
   0.0000000000000000    0.2500000000000000    0.7500000000000000 Li
   0.0000000000000000    0.7500000000000000    0.2500000000000000 Li
   0.5000000000000000    0.0000000000000000    0.0000000000000000 Li
   0.5000000000000000    0.5000000000000000    0.5000000000000000 Li
   0.7500000000000000    0.3750000000000001    0.3750000000000000 In
   0.7500000000000000    0.8750000000000000    0.8750000000000000 In
   0.2500000000000000    0.3750000000000000    0.8750000000000000 In
   0.2500000000000000    0.8749999999999999    0.3750000000000000 In
   0.2500000000000000    0.1250000000000000    0.6250000000000000 In
   0.2500000000000000    0.6250000000000000    0.1250000000000000 In
   0.7500000000000000    0.1250000000000000    0.1250000000000000 In
   0.7500000000000000    0.6250000000000000    0.6250000000000000 In
   0.7500000000000000    0.1250000000000001    0.6250000000000000 In
   0.7500000000000000    0.6250000000000000    0.1250000000000000 In
   0.2500000000000000    0.1250000000000000    0.1250000000000000 In
   0.2500000000000000    0.6250000000000000    0.6250000000000000 In
   0.2500000000000000    0.3750000000000001    0.3750000000000000 In
   0.2500000000000000    0.8750000000000001    0.8750000000000000 In
   0.7500000000000000    0.3750000000000001    0.8750000000000000 In
   0.7500000000000000    0.8750000000000000    0.3750000000000000 In
   0.0000000000000000    0.0000000000000000    0.5000000000000000 Pd
   0.0000000000000000    0.5000000000000000    0.0000000000000000 Pd
   0.5000000000000000    0.2500000000000001    0.2500000000000000 Pd
   0.5000000000000000    0.7500000000000000    0.7500000000000000 Pd
   0.0000000000000000    0.2500000000000000    0.2500000000000000 Pd
   0.0000000000000000    0.7500000000000000    0.7500000000000000 Pd
   0.5000000000000000    0.0000000000000000    0.5000000000000000 Pd
   0.5000000000000000    0.5000000000000000    0.0000000000000000 Pd
