Zr8 As8
1.0
   3.3196198687887888    0.0000000000000000   -1.9165834248524383
  -0.0000000000000016   25.9200037919880337   -3.8331668497048712
   0.0000000000000000    0.0000000000000000    3.8331668497048748
Zr As
8 8
direct
   0.3333333333333334    0.3081636046639034    0.9748302713305700 Zr
   0.3333333333333334    0.8081636046639035    0.4748302713305701 Zr
   0.6666666666666666    0.0581636046639034    0.3914969379972367 Zr
   0.6666666666666666    0.5581636046639034    0.8914969379972367 Zr
   0.6666666666666667    0.1918363953360967    0.5251697286694301 Zr
   0.6666666666666667    0.6918363953360968    0.0251697286694301 Zr
   0.3333333333333334    0.4418363953360967    0.1085030620027634 Zr
   0.3333333333333334    0.9418363953360968    0.6085030620027634 Zr
   0.0000000000000000    0.2500000000000000    0.2500000000000000 As
   0.0000000000000000    0.7500000000000001    0.7500000000000001 As
   0.0000000000000000    0.0000000000000000    0.0000000000000000 As
   0.0000000000000000    0.5000000000000000    0.5000000000000000 As
   0.3333333333333334    0.1250000000000000    0.7916666666666666 As
   0.3333333333333334    0.6250000000000000    0.2916666666666665 As
   0.6666666666666667    0.3750000000000001    0.7083333333333335 As
   0.6666666666666667    0.8750000000000001    0.2083333333333335 As
