K16 Ni8 As16
1.0
  14.0767175077618258    0.0000000000000000    0.0000000000000009
  -0.0000000000000038   13.3367766361266895    5.8092400376054281
   0.0000000000000000    0.0000000000000000    5.8092400376054307
K Ni As
16 8 16
direct
   0.2922086929112595    0.2500000000000000    0.5000000000000002 K
   0.2922086929112595    0.7500000000000000    0.0000000000000002 K
   0.2077913070887405    0.4999999999999999    0.7500000000000001 K
   0.2077913070887405    0.0000000000000000    0.2500000000000000 K
   0.4108324578935765    0.4999999999999999    0.2500000000000000 K
   0.4108324578935765    0.0000000000000000    0.7500000000000000 K
   0.0891675421064235    0.2500000000000000    0.0000000000000000 K
   0.0891675421064235    0.7500000000000000    0.5000000000000000 K
   0.7922086929112596    0.4999999999999999    0.2500000000000002 K
   0.7922086929112596    0.0000000000000000    0.7500000000000001 K
   0.7077913070887405    0.2500000000000000    0.0000000000000002 K
   0.7077913070887405    0.7500000000000000    0.5000000000000001 K
   0.9108324578935765    0.2500000000000000    0.5000000000000002 K
   0.9108324578935765    0.7500000000000000    0.0000000000000000 K
   0.5891675421064235    0.4999999999999999    0.7500000000000002 K
   0.5891675421064235    0.0000000000000000    0.2500000000000000 K
   0.0000000000000000    0.5000000000000000    0.5000000000000001 Ni
   0.0000000000000000    0.0000000000000000    0.0000000000000000 Ni
   0.0000000000000000    0.5000000000000000    0.0000000000000000 Ni
   0.0000000000000000    0.0000000000000000    0.5000000000000000 Ni
   0.5000000000000000    0.2500000000000000    0.7500000000000001 Ni
   0.5000000000000000    0.7500000000000000    0.2500000000000001 Ni
   0.5000000000000000    0.2500000000000000    0.2500000000000000 Ni
   0.5000000000000000    0.7500000000000000    0.7500000000000000 Ni
   0.1008849084144501    0.0918909946300807    0.6581090053699192 As
   0.1008849084144501    0.5918909946300808    0.1581090053699192 As
   0.3991150915855499    0.1581090053699193    0.0918909946300810 As
   0.3991150915855499    0.6581090053699192    0.5918909946300808 As
   0.3991150915855499    0.3418909946300807    0.9081090053699195 As
   0.3991150915855499    0.8418909946300808    0.4081090053699192 As
   0.1008849084144501    0.4081090053699192    0.3418909946300808 As
   0.1008849084144501    0.9081090053699192    0.8418909946300808 As
   0.6008849084144502    0.3418909946300808    0.4081090053699195 As
   0.6008849084144502    0.8418909946300808    0.9081090053699193 As
   0.8991150915855499    0.4081090053699192    0.8418909946300809 As
   0.8991150915855499    0.9081090053699192    0.3418909946300808 As
   0.8991150915855499    0.0918909946300808    0.1581090053699192 As
   0.8991150915855499    0.5918909946300808    0.6581090053699192 As
   0.6008849084144502    0.1581090053699192    0.5918909946300810 As
   0.6008849084144502    0.6581090053699192    0.0918909946300808 As
