Al4 Cu4 Au8
1.0
   6.2871464107784618    0.0000000000000000    0.0000000000000004
   0.0000000000000010    6.2871464107784618    0.0000000000000004
   0.0000000000000000    0.0000000000000000    6.2871464107784618
Al Cu Au
4 4 8
direct
   0.0000000000000000    0.0000000000000000    0.5000000000000000 Al
   0.5000000000000000    0.5000000000000000    0.5000000000000000 Al
   0.0000000000000000    0.5000000000000000    0.0000000000000000 Al
   0.5000000000000000    0.0000000000000000    0.0000000000000000 Al
   0.0000000000000000    0.0000000000000000    0.0000000000000000 Cu
   0.5000000000000000    0.5000000000000000    0.0000000000000000 Cu
   0.0000000000000000    0.5000000000000000    0.5000000000000000 Cu
   0.5000000000000000    0.0000000000000000    0.5000000000000000 Cu
   0.2500000000000000    0.7500000000000000    0.2500000000000000 Au
   0.7500000000000000    0.7500000000000000    0.2500000000000000 Au
   0.7500000000000000    0.2500000000000000    0.2500000000000000 Au
   0.2500000000000000    0.2500000000000000    0.2500000000000000 Au
   0.2500000000000000    0.2500000000000000    0.7500000000000000 Au
   0.7500000000000000    0.2500000000000001    0.7500000000000001 Au
   0.7500000000000000    0.7500000000000001    0.7500000000000001 Au
   0.2500000000000000    0.7500000000000000    0.7500000000000000 Au
