Te4 Ru2
1.0
   4.0629577118781954    0.0000000000000000    0.0000000000000002
  -0.0000000000000004    6.4626766659339259   -5.3470901170557221
   0.0000000000000000    0.0000000000000000    5.3470901170557266
Te Ru
4 2
direct
   0.0000000000000000    0.6334787060616804    0.4116711198388004 Te
   0.0000000000000000    0.3665212939383194    0.5883288801611997 Te
   0.5000000000000000    0.8665212939383194    0.1447137077154393 Te
   0.5000000000000000    0.1334787060616803    0.8552862922845603 Te
   0.0000000000000000    0.0000000000000000    0.0000000000000000 Ru
   0.5000000000000000    0.4999999999999999    0.0000000000000000 Ru
