K8 Cu8 Te8
1.0
   7.7611900035509755    0.0000000000000000   -8.9618502755639788
  -0.0000000000000013   20.4497029637105676   -4.4809251377819885
   0.0000000000000000    0.0000000000000000    4.4809251377819894
K Cu Te
8 8 8
direct
   0.5000000000000000    0.7500000000000000    0.2500000000000001 K
   0.0000000000000000    0.2500000000000000    0.2500000000000000 K
   0.0000000000000000    0.7500000000000000    0.7500000000000000 K
   0.5000000000000000    0.2500000000000000    0.7500000000000000 K
   0.5000000000000000    0.5000000000000000    0.0000000000000000 K
   0.0000000000000000    0.0000000000000000    0.0000000000000000 K
   0.0000000000000000    0.5000000000000000    0.5000000000000000 K
   0.5000000000000000    0.0000000000000000    0.5000000000000000 K
   0.6666666666666667    0.6250000000000000    0.9583333333333333 Cu
   0.1666666666666667    0.1250000000000000    0.9583333333333334 Cu
   0.1666666666666667    0.6250000000000000    0.4583333333333333 Cu
   0.6666666666666666    0.1250000000000000    0.4583333333333333 Cu
   0.8333333333333335    0.8750000000000000    0.0416666666666667 Cu
   0.3333333333333334    0.3750000000000001    0.0416666666666667 Cu
   0.3333333333333334    0.8750000000000000    0.5416666666666667 Cu
   0.8333333333333334    0.3750000000000001    0.5416666666666667 Cu
   0.6666666666666667    0.8750000000000000    0.2083333333333333 Te
   0.1666666666666667    0.3750000000000001    0.2083333333333335 Te
   0.1666666666666667    0.8750000000000000    0.7083333333333335 Te
   0.6666666666666666    0.3750000000000001    0.7083333333333333 Te
   0.8333333333333335    0.6250000000000000    0.7916666666666666 Te
   0.3333333333333334    0.1250000000000000    0.7916666666666667 Te
   0.3333333333333334    0.6250000000000000    0.2916666666666667 Te
   0.8333333333333334    0.1250000000000000    0.2916666666666667 Te
