Sr8 Cd8 Pb8
1.0
   8.1984562461819426    0.0000000000000000    0.0000000000000005
  15.7164518693623982   18.1755316962786040    5.1442355100229751
   0.0000000000000000    0.0000000000000000    5.1442355100229751
Sr Cd Pb
8 8 8
direct
   0.2021658867142904    0.0220882330699678    0.4779117669300321 Sr
   0.2021658867142904    0.5220882330699679    0.9779117669300322 Sr
   0.7978341132857096    0.4779117669300321    0.0220882330699679 Sr
   0.7978341132857096    0.9779117669300320    0.5220882330699680 Sr
   0.2021658867142904    0.2720882330699678    0.7279117669300321 Sr
   0.2021658867142904    0.7720882330699679    0.2279117669300322 Sr
   0.7978341132857096    0.2279117669300321    0.7720882330699679 Sr
   0.7978341132857096    0.7279117669300320    0.2720882330699679 Sr
   0.4057891158429356    0.0761741889160232    0.9238258110839768 Cd
   0.4057891158429356    0.5761741889160232    0.4238258110839767 Cd
   0.5942108841570644    0.4238258110839767    0.5761741889160232 Cd
   0.5942108841570644    0.9238258110839768    0.0761741889160233 Cd
   0.4057891158429356    0.3261741889160232    0.1738258110839769 Cd
   0.4057891158429356    0.8261741889160232    0.6738258110839768 Cd
   0.5942108841570644    0.1738258110839767    0.3261741889160232 Cd
   0.5942108841570644    0.6738258110839768    0.8261741889160232 Cd
   0.2194199445817446    0.1658143599106365    0.3341856400893635 Pb
   0.2194199445817446    0.6658143599106365    0.8341856400893635 Pb
   0.7805800554182554    0.3341856400893635    0.1658143599106365 Pb
   0.7805800554182554    0.8341856400893635    0.6658143599106365 Pb
   0.2194199445817446    0.4158143599106365    0.5841856400893635 Pb
   0.2194199445817446    0.9158143599106365    0.0841856400893635 Pb
   0.7805800554182554    0.0841856400893635    0.9158143599106365 Pb
   0.7805800554182554    0.5841856400893635    0.4158143599106366 Pb
