Y2 Sn2 Au2
1.0
   4.7079070236322176    0.0000000000000000    0.0000000000000003
  -2.3539535118161106    4.0771670811206855    0.0000000000000003
   0.0000000000000000    0.0000000000000000    7.4562562260196099
Y Sn Au
2 2 2
direct
   0.0000000000000000    0.0000000000000000    0.2460426364339839 Y
   0.0000000000000000    0.0000000000000000    0.7460426364339838 Y
   0.6666666666666666    0.3333333333333333    0.4718623144105294 Sn
   0.3333333333333334    0.6666666666666666    0.9718623144105294 Sn
   0.3333333333333334    0.6666666666666666    0.5743840491554835 Au
   0.6666666666666667    0.3333333333333333    0.0743840491554835 Au
