Ta8 Ga8 Fe16
1.0
   5.9134586040664807    0.0000000000000000   -5.9134586040664798
   0.0000000000000019   11.8269172081329597   -5.9134586040664798
   0.0000000000000000    0.0000000000000000    5.9134586040664798
Ta Ga Fe
8 8 16
direct
   0.0000000000000000    0.0000000000000000    0.0000000000000000 Ta
   0.0000000000000000    0.5000000000000000    0.5000000000000000 Ta
   0.5000000000000000    0.2500000000000000    0.7500000000000000 Ta
   0.5000000000000000    0.7500000000000000    0.2500000000000000 Ta
   0.0000000000000000    0.2500000000000000    0.7500000000000000 Ta
   0.0000000000000000    0.7500000000000000    0.2500000000000000 Ta
   0.5000000000000000    0.0000000000000000    0.0000000000000000 Ta
   0.5000000000000000    0.5000000000000000    0.5000000000000000 Ta
   0.0000000000000000    0.0000000000000000    0.5000000000000000 Ga
   0.0000000000000000    0.5000000000000000    0.0000000000000000 Ga
   0.5000000000000000    0.2500000000000001    0.2500000000000000 Ga
   0.5000000000000000    0.7500000000000000    0.7500000000000000 Ga
   0.0000000000000000    0.2500000000000000    0.2500000000000000 Ga
   0.0000000000000000    0.7500000000000000    0.7500000000000000 Ga
   0.5000000000000000    0.0000000000000000    0.5000000000000000 Ga
   0.5000000000000000    0.5000000000000000    0.0000000000000000 Ga
   0.7500000000000000    0.3750000000000001    0.3750000000000000 Fe
   0.7500000000000000    0.8750000000000001    0.8750000000000000 Fe
   0.2500000000000000    0.3750000000000000    0.8750000000000000 Fe
   0.2500000000000000    0.8749999999999999    0.3750000000000000 Fe
   0.2500000000000000    0.1250000000000000    0.6250000000000000 Fe
   0.2500000000000000    0.6250000000000000    0.1250000000000000 Fe
   0.7500000000000000    0.1250000000000000    0.1250000000000000 Fe
   0.7500000000000000    0.6250000000000000    0.6250000000000000 Fe
   0.7500000000000000    0.1250000000000001    0.6250000000000000 Fe
   0.7500000000000000    0.6250000000000000    0.1250000000000000 Fe
   0.2500000000000000    0.1250000000000001    0.1250000000000000 Fe
   0.2500000000000000    0.6250000000000000    0.6250000000000000 Fe
   0.2500000000000000    0.3750000000000001    0.3750000000000000 Fe
   0.2500000000000000    0.8750000000000001    0.8750000000000000 Fe
   0.7500000000000000    0.3750000000000001    0.8750000000000000 Fe
   0.7500000000000000    0.8750000000000001    0.3750000000000000 Fe
