Rb2 Si8 Pt8
1.0
   8.5457988582209872    0.0000000000000000    0.0000000000000005
   0.0000000000000014    8.5457988582209872    0.0000000000000005
   0.0000000000000000    0.0000000000000000    4.6313918254273974
Rb Si Pt
2 8 8
direct
   0.0000000000000000    0.0000000000000000    0.7007420358584894 Rb
   0.5000000000000000    0.5000000000000000    0.2007420358584895 Rb
   0.8867567232983049    0.6145369212132579    0.9999134129984882 Si
   0.1132432767016951    0.3854630787867421    0.9999134129984881 Si
   0.8854630787867421    0.3867567232983049    0.4999134129984881 Si
   0.1145369212132579    0.6132432767016951    0.4999134129984881 Si
   0.3867567232983049    0.1145369212132579    0.4999134129984881 Si
   0.6132432767016951    0.8854630787867421    0.4999134129984881 Si
   0.3854630787867421    0.8867567232983049    0.9999134129984882 Si
   0.6145369212132579    0.1132432767016951    0.9999134129984881 Si
   0.1755847309480033    0.3285119844520068    0.4999010805368869 Pt
   0.8244152690519968    0.6714880155479932    0.4999010805368869 Pt
   0.1714880155479932    0.6755847309480032    0.9999010805368869 Pt
   0.8285119844520069    0.3244152690519967    0.9999010805368869 Pt
   0.6755847309480032    0.8285119844520068    0.9999010805368869 Pt
   0.3244152690519969    0.1714880155479932    0.9999010805368870 Pt
   0.6714880155479932    0.1755847309480032    0.4999010805368869 Pt
   0.3285119844520069    0.8244152690519968    0.4999010805368869 Pt
