Al18 Si6 Pd24
1.0
  12.0612786967454682    0.0000000000000000  -13.9271650046741922
  -0.0000000000000042    8.3292108185036735   -6.9635825023370970
   0.0000000000000000    0.0000000000000000    6.9635825023370952
Al Si Pd
18 6 24
direct
   0.1332779650449076    0.6172124170889908    0.9757063939273336 Al
   0.6332779650449076    0.6172124170889908    0.4757063939273336 Al
   0.4793300408518099    0.6172124170889909    0.8299865278509855 Al
   0.9793300408518099    0.6172124170889909    0.3299865278509855 Al
   0.3873919941032823    0.6172124170889908    0.0459443294886532 Al
   0.8873919941032824    0.6172124170889908    0.5459443294886532 Al
   0.2999446317115742    0.9505457504223240    0.1423730605940001 Al
   0.7999446317115742    0.9505457504223240    0.6423730605940001 Al
   0.1459967075184766    0.9505457504223240    0.4966531945176520 Al
   0.6459967075184766    0.9505457504223240    0.9966531945176520 Al
   0.0540586607699490    0.9505457504223240    0.7126109961553198 Al
   0.5540586607699489    0.9505457504223240    0.2126109961553198 Al
   0.4666112983782409    0.2838790837556573    0.3090397272606669 Al
   0.9666112983782409    0.2838790837556573    0.8090397272606669 Al
   0.3126633741851432    0.2838790837556573    0.6633198611843186 Al
   0.8126633741851432    0.2838790837556573    0.1633198611843187 Al
   0.2207253274366156    0.2838790837556573    0.8792776628219864 Al
   0.7207253274366155    0.2838790837556573    0.3792776628219863 Al
   0.0000000000000000    0.1562663632136675    0.1562663632136675 Si
   0.5000000000000000    0.1562663632136675    0.6562663632136675 Si
   0.1666666666666666    0.4895996965470009    0.3229330298803341 Si
   0.6666666666666665    0.4895996965470009    0.8229330298803339 Si
   0.3333333333333333    0.8229330298803341    0.4895996965470006 Si
   0.8333333333333331    0.8229330298803341    0.9895996965470006 Si
   0.0000000000000000    0.8572551652225637    0.8572551652225637 Pd
   0.5000000000000000    0.8572551652225637    0.3572551652225637 Pd
   0.3681005478170481    0.3782800734322697    0.5164567414191505 Pd
   0.8681005478170480    0.3782800734322697    0.0164567414191503 Pd
   0.0169375122678683    0.3782800734322697    0.6590164900660417 Pd
   0.5169375122678682    0.3782800734322697    0.1590164900660418 Pd
   0.1149619399150836    0.3782800734322697    0.4593669888116167 Pd
   0.6149619399150835    0.3782800734322697    0.9593669888116167 Pd
   0.1666666666666666    0.1905884985558970    0.0239218318892302 Pd
   0.6666666666666665    0.1905884985558970    0.5239218318892300 Pd
   0.0347672144837147    0.7116134067656030    0.1831234080858171 Pd
   0.5347672144837148    0.7116134067656031    0.6831234080858171 Pd
   0.1836041789345349    0.7116134067656031    0.8256831567327083 Pd
   0.6836041789345348    0.7116134067656031    0.3256831567327083 Pd
   0.2816286065817502    0.7116134067656031    0.6260336554782835 Pd
   0.7816286065817502    0.7116134067656031    0.1260336554782837 Pd
   0.3333333333333333    0.5239218318892305    0.1905884985558970 Pd
   0.8333333333333331    0.5239218318892305    0.6905884985558970 Pd
   0.2014338811503814    0.0449467400989363    0.3497900747524837 Pd
   0.7014338811503814    0.0449467400989363    0.8497900747524836 Pd
   0.3502708456012015    0.0449467400989363    0.9923498233993751 Pd
   0.8502708456012015    0.0449467400989363    0.4923498233993748 Pd
   0.4482952732484168    0.0449467400989363    0.7927003221449500 Pd
   0.9482952732484168    0.0449467400989363    0.2927003221449500 Pd
