Cu4 Sn4 Rh8
1.0
   6.2169969662226903    0.0000000000000000    0.0000000000000004
   0.0000000000000010    6.2169969662226903    0.0000000000000004
   0.0000000000000000    0.0000000000000000    6.2169969662226903
Cu Sn Rh
4 4 8
direct
   0.0000000000000000    0.0000000000000000    0.0000000000000000 Cu
   0.5000000000000000    0.4999999999999999    0.0000000000000000 Cu
   0.0000000000000000    0.4999999999999999    0.5000000000000000 Cu
   0.5000000000000000    0.0000000000000000    0.4999999999999999 Cu
   0.0000000000000000    0.0000000000000000    0.5000000000000000 Sn
   0.5000000000000000    0.5000000000000000    0.4999999999999999 Sn
   0.0000000000000000    0.5000000000000000    0.0000000000000000 Sn
   0.5000000000000000    0.0000000000000000    0.0000000000000000 Sn
   0.7499999999999999    0.7500000000000000    0.2500000000000000 Rh
   0.2500000000000000    0.7499999999999999    0.2500000000000000 Rh
   0.2500000000000000    0.2500000000000000    0.2500000000000000 Rh
   0.7499999999999999    0.2500000000000000    0.2500000000000000 Rh
   0.7499999999999999    0.2500000000000000    0.7500000000000000 Rh
   0.2500000000000000    0.2500000000000000    0.7499999999999999 Rh
   0.2500000000000000    0.7500000000000000    0.7499999999999999 Rh
   0.7499999999999999    0.7500000000000000    0.7500000000000000 Rh
