Y8 Si16 Ni8
1.0
  16.4033231916900100    0.0000000000000000   -4.0031018702420367
   0.0000000000000030    7.9597582302255088   -4.0031018702420385
   0.0000000000000000    0.0000000000000000    4.0031018702420411
Y Si Ni
8 16 8
direct
   0.3945047852433970    0.1250000000000000    0.5195047852433970 Y
   0.3945047852433970    0.6250000000000001    0.0195047852433972 Y
   0.1054952147566030    0.3750000000000000    0.9804952147566030 Y
   0.1054952147566030    0.8750000000000000    0.4804952147566028 Y
   0.8945047852433970    0.1250000000000001    0.5195047852433972 Y
   0.8945047852433970    0.6250000000000000    0.0195047852433969 Y
   0.6054952147566030    0.3750000000000000    0.9804952147566031 Y
   0.6054952147566030    0.8750000000000000    0.4804952147566031 Y
   0.0400712916192863    0.1250000000000000    0.1650712916192863 Si
   0.0400712916192863    0.6250000000000000    0.6650712916192862 Si
   0.4599287083807137    0.3750000000000001    0.3349287083807138 Si
   0.4599287083807137    0.8750000000000001    0.8349287083807138 Si
   0.2499766471713817    0.1250000000000000    0.8749766471713816 Si
   0.2499766471713817    0.6250000000000001    0.3749766471713818 Si
   0.2500233528286184    0.3750000000000000    0.6250233528286183 Si
   0.2500233528286184    0.8750000000000000    0.1250233528286182 Si
   0.5400712916192862    0.1250000000000001    0.1650712916192862 Si
   0.5400712916192862    0.6250000000000001    0.6650712916192865 Si
   0.9599287083807139    0.3750000000000001    0.3349287083807138 Si
   0.9599287083807139    0.8750000000000001    0.8349287083807138 Si
   0.7499766471713816    0.1250000000000000    0.8749766471713816 Si
   0.7499766471713816    0.6250000000000000    0.3749766471713816 Si
   0.7500233528286185    0.3750000000000001    0.6250233528286187 Si
   0.7500233528286185    0.8750000000000001    0.1250233528286184 Si
   0.1781482238647900    0.1250000000000000    0.3031482238647901 Ni
   0.1781482238647900    0.6250000000000000    0.8031482238647900 Ni
   0.3218517761352100    0.3750000000000001    0.1968517761352100 Ni
   0.3218517761352100    0.8750000000000001    0.6968517761352100 Ni
   0.6781482238647900    0.1250000000000001    0.3031482238647900 Ni
   0.6781482238647900    0.6250000000000001    0.8031482238647902 Ni
   0.8218517761352100    0.3750000000000001    0.1968517761352100 Ni
   0.8218517761352100    0.8750000000000001    0.6968517761352100 Ni
