Zn8 Ru16 W8
1.0
   6.1237897377799966    0.0000000000000000   -6.1237897377800010
  -0.0000000000000035   12.2475794755599985   -6.1237897377799992
   0.0000000000000000    0.0000000000000000    6.1237897377800001
Zn Ru W
8 16 8
direct
   0.0000000000000000    0.0000000000000000    0.0000000000000000 Zn
   0.0000000000000000    0.5000000000000000    0.5000000000000000 Zn
   0.5000000000000000    0.2500000000000000    0.7500000000000000 Zn
   0.5000000000000000    0.7500000000000000    0.2500000000000000 Zn
   0.0000000000000000    0.2500000000000001    0.7500000000000000 Zn
   0.0000000000000000    0.7500000000000000    0.2500000000000000 Zn
   0.5000000000000000    0.0000000000000001    0.0000000000000000 Zn
   0.5000000000000000    0.5000000000000001    0.5000000000000000 Zn
   0.7500000000000000    0.3750000000000001    0.3750000000000000 Ru
   0.7500000000000000    0.8750000000000002    0.8750000000000002 Ru
   0.2500000000000000    0.3750000000000000    0.8750000000000000 Ru
   0.2500000000000000    0.8750000000000000    0.3750000000000000 Ru
   0.2500000000000000    0.1250000000000001    0.6250000000000000 Ru
   0.2500000000000000    0.6250000000000001    0.1250000000000000 Ru
   0.7500000000000000    0.1250000000000001    0.1250000000000000 Ru
   0.7500000000000000    0.6250000000000001    0.6250000000000000 Ru
   0.7500000000000000    0.1250000000000001    0.6250000000000000 Ru
   0.7500000000000000    0.6250000000000002    0.1250000000000000 Ru
   0.2500000000000000    0.1250000000000001    0.1250000000000000 Ru
   0.2500000000000000    0.6250000000000001    0.6250000000000000 Ru
   0.2500000000000000    0.3750000000000001    0.3750000000000000 Ru
   0.2500000000000000    0.8750000000000002    0.8750000000000002 Ru
   0.7500000000000000    0.3750000000000001    0.8750000000000000 Ru
   0.7500000000000000    0.8750000000000002    0.3750000000000000 Ru
   0.0000000000000000    0.0000000000000000    0.5000000000000000 W
   0.0000000000000000    0.5000000000000001    0.0000000000000000 W
   0.5000000000000000    0.2500000000000001    0.2500000000000000 W
   0.5000000000000000    0.7500000000000002    0.7500000000000002 W
   0.0000000000000000    0.2500000000000000    0.2500000000000000 W
   0.0000000000000000    0.7500000000000000    0.7500000000000000 W
   0.5000000000000000    0.0000000000000000    0.5000000000000000 W
   0.5000000000000000    0.5000000000000000    0.0000000000000000 W
