Ta8 V4 Os4
1.0
   6.3394546957206162    0.0000000000000000    0.0000000000000004
   0.0000000000000010    6.3394546957206162    0.0000000000000004
   0.0000000000000000    0.0000000000000000    6.3394546957206162
Ta V Os
8 4 4
direct
   0.7500000000000000    0.7499999999999999    0.2500000000000000 Ta
   0.2500000000000000    0.7500000000000000    0.2500000000000000 Ta
   0.2500000000000000    0.2500000000000000    0.2500000000000000 Ta
   0.7500000000000000    0.2500000000000000    0.2500000000000000 Ta
   0.7500000000000000    0.2500000000000000    0.7500000000000000 Ta
   0.2500000000000000    0.2500000000000000    0.7500000000000000 Ta
   0.2500000000000000    0.7499999999999999    0.7500000000000000 Ta
   0.7500000000000000    0.7499999999999999    0.7500000000000000 Ta
   0.0000000000000000    0.0000000000000000    0.0000000000000000 V
   0.5000000000000000    0.4999999999999999    0.0000000000000000 V
   0.0000000000000000    0.4999999999999999    0.5000000000000000 V
   0.5000000000000000    0.0000000000000000    0.4999999999999999 V
   0.0000000000000000    0.0000000000000000    0.5000000000000000 Os
   0.5000000000000000    0.5000000000000000    0.4999999999999999 Os
   0.0000000000000000    0.5000000000000000    0.0000000000000000 Os
   0.5000000000000000    0.0000000000000000    0.0000000000000000 Os
