Ni4 Ge4 Pd4
1.0
   3.6441253314269511    0.0000000000000000    0.0000000000000002
  -0.0000000000000021    7.2882506628539021    6.2910377186412578
   0.0000000000000000    0.0000000000000000    6.2910377186412596
Ni Ge Pd
4 4 4
direct
   0.5000000000000000    0.2500000000000000    0.7500000000000000 Ni
   0.5000000000000000    0.7500000000000000    0.2500000000000000 Ni
   0.0000000000000000    0.5000000000000000    0.5000000000000000 Ni
   0.0000000000000000    0.0000000000000000    0.0000000000000000 Ni
   0.0000000000000000    0.2500000000000000    0.9949428223439654 Ge
   0.0000000000000000    0.7500000000000000    0.4949428223439654 Ge
   0.5000000000000000    0.4999999999999999    0.2550571776560346 Ge
   0.5000000000000000    0.0000000000000000    0.7550571776560346 Ge
   0.0000000000000000    0.2500000000000000    0.3898280976251698 Pd
   0.0000000000000000    0.7500000000000000    0.8898280976251699 Pd
   0.5000000000000000    0.4999999999999999    0.8601719023748303 Pd
   0.5000000000000000    0.0000000000000000    0.3601719023748302 Pd
