Ni2 Ge2 Pd2
1.0
   3.6441253314269511    0.0000000000000000    0.0000000000000002
   0.0000000000000010    6.2910377186412587   -3.6441253314269524
   0.0000000000000000    0.0000000000000000    3.6441253314269511
Ni Ge Pd
2 2 2
direct
   0.5000000000000000    0.0000000000000000    0.4999999999999999 Ni
   0.0000000000000000    0.0000000000000000    0.0000000000000000 Ni
   0.0000000000000000    0.2449428223439654    0.7449428223439654 Ge
   0.5000000000000000    0.7550571776560346    0.7550571776560346 Ge
   0.0000000000000000    0.6398280976251699    0.1398280976251698 Pd
   0.5000000000000000    0.3601719023748302    0.3601719023748302 Pd
