Hf12 Al4 Co2
1.0
  20.7908764983063499    0.0000000000000000    0.0000000000000013
   5.9402504280875297    5.1444077755651865    6.5764596257426522
   0.0000000000000000    0.0000000000000000    3.2882298128713265
Hf Al Co
12 4 2
direct
   0.5000000000000000    0.1020711628593247    0.2958576742813506 Hf
   0.0000000000000000    0.6020711628593247    0.2958576742813506 Hf
   0.6989644185703376    0.3010355814296624    0.8979288371406753 Hf
   0.1989644185703377    0.8010355814296624    0.8979288371406753 Hf
   0.8010355814296625    0.5968932557110127    0.3062134885779746 Hf
   0.3010355814296625    0.0968932557110128    0.3062134885779746 Hf
   0.5000000000000000    0.7505194252250716    0.4989611495498567 Hf
   0.0000000000000001    0.2505194252250716    0.4989611495498567 Hf
   0.8747402873874641    0.1252597126125357    0.7494805747749287 Hf
   0.3747402873874642    0.6252597126125358    0.7494805747749285 Hf
   0.6252597126125359    0.1242208621623923    0.7515582756752154 Hf
   0.1252597126125359    0.6242208621623924    0.7515582756752153 Hf
   0.8333333333333334    0.8333333333333333    0.3333333333333335 Al
   0.3333333333333334    0.3333333333333334    0.3333333333333333 Al
   0.6666666666666667    0.6666666666666666    0.6666666666666667 Al
   0.1666666666666667    0.1666666666666666    0.6666666666666667 Al
   0.4999999999999999    0.4999999999999999    0.5000000000000001 Co
   0.0000000000000000    0.0000000000000000    0.5000000000000000 Co
