Mn16 Ge16 Ru32
1.0
  11.9987284709350686    0.0000000000000000   -5.9993642354675343
  -0.0000000000000034   11.9987284709350686   -5.9993642354675343
   0.0000000000000000    0.0000000000000000    5.9993642354675343
Mn Ge Ru
16 16 32
direct
   0.5000000000000000    0.4999999999999999    0.0000000000000000 Mn
   0.0000000000000000    0.0000000000000000    0.0000000000000000 Mn
   0.0000000000000000    0.5000000000000000    0.5000000000000000 Mn
   0.5000000000000000    0.0000000000000000    0.5000000000000000 Mn
   0.7500000000000000    0.7499999999999999    0.5000000000000000 Mn
   0.2500000000000000    0.2500000000000000    0.5000000000000000 Mn
   0.2500000000000000    0.7500000000000000    0.0000000000000000 Mn
   0.7500000000000000    0.2500000000000001    0.0000000000000000 Mn
   0.5000000000000000    0.7500000000000000    0.7500000000000000 Mn
   0.0000000000000000    0.2500000000000001    0.7500000000000000 Mn
   0.0000000000000000    0.7500000000000000    0.2500000000000000 Mn
   0.5000000000000000    0.2500000000000001    0.2500000000000000 Mn
   0.7500000000000000    0.5000000000000000    0.7500000000000000 Mn
   0.2500000000000000    0.0000000000000001    0.7500000000000000 Mn
   0.2500000000000000    0.5000000000000001    0.2500000000000000 Mn
   0.7500000000000000    0.0000000000000001    0.2500000000000000 Mn
   0.5000000000000000    0.5000000000000000    0.5000000000000000 Ge
   0.0000000000000000    0.0000000000000000    0.5000000000000000 Ge
   0.0000000000000000    0.5000000000000001    0.0000000000000000 Ge
   0.5000000000000000    0.0000000000000001    0.0000000000000000 Ge
   0.7500000000000000    0.7500000000000000    0.9999999999999999 Ge
   0.2500000000000000    0.2500000000000001    0.0000000000000000 Ge
   0.2500000000000000    0.7500000000000000    0.5000000000000000 Ge
   0.7500000000000000    0.2500000000000001    0.5000000000000000 Ge
   0.5000000000000000    0.7499999999999999    0.2500000000000000 Ge
   0.0000000000000000    0.2500000000000000    0.2500000000000000 Ge
   0.0000000000000000    0.7500000000000000    0.7500000000000000 Ge
   0.5000000000000000    0.2500000000000001    0.7500000000000000 Ge
   0.7500000000000000    0.4999999999999999    0.2500000000000001 Ge
   0.2500000000000000    0.0000000000000000    0.2500000000000000 Ge
   0.2500000000000000    0.5000000000000000    0.7500000000000000 Ge
   0.7500000000000000    0.0000000000000000    0.7500000000000000 Ge
   0.6250000000000001    0.8750000000000001    0.7500000000000001 Ru
   0.1250000000000000    0.3750000000000000    0.7500000000000000 Ru
   0.1250000000000000    0.8750000000000001    0.2500000000000002 Ru
   0.6250000000000001    0.3750000000000000    0.2500000000000002 Ru
   0.8750000000000001    0.8750000000000001    0.0000000000000002 Ru
   0.3750000000000000    0.3750000000000001    0.0000000000000000 Ru
   0.3750000000000000    0.8750000000000001    0.5000000000000002 Ru
   0.8750000000000001    0.3750000000000001    0.5000000000000000 Ru
   0.8750000000000001    0.6250000000000000    0.7500000000000002 Ru
   0.3750000000000000    0.1250000000000001    0.7500000000000000 Ru
   0.3750000000000000    0.6250000000000001    0.2500000000000000 Ru
   0.8750000000000001    0.1250000000000001    0.2500000000000000 Ru
   0.6250000000000001    0.6250000000000000    0.5000000000000000 Ru
   0.1250000000000000    0.1250000000000001    0.5000000000000000 Ru
   0.1250000000000000    0.6250000000000001    0.0000000000000000 Ru
   0.6250000000000001    0.1250000000000001    0.0000000000000002 Ru
   0.6250000000000001    0.6250000000000000    0.0000000000000000 Ru
   0.1250000000000000    0.1250000000000001    0.0000000000000000 Ru
   0.1250000000000000    0.6250000000000001    0.5000000000000000 Ru
   0.6250000000000001    0.1250000000000001    0.5000000000000000 Ru
   0.8750000000000001    0.6250000000000000    0.2500000000000002 Ru
   0.3750000000000000    0.1250000000000001    0.2500000000000000 Ru
   0.3750000000000000    0.6250000000000001    0.7500000000000000 Ru
   0.8750000000000001    0.1250000000000001    0.7500000000000002 Ru
   0.8750000000000001    0.8750000000000001    0.5000000000000002 Ru
   0.3750000000000000    0.3750000000000001    0.5000000000000000 Ru
   0.3750000000000000    0.8750000000000001    0.0000000000000000 Ru
   0.8750000000000001    0.3750000000000001    0.0000000000000004 Ru
   0.6250000000000001    0.8750000000000001    0.2500000000000000 Ru
   0.1250000000000000    0.3750000000000001    0.2500000000000000 Ru
   0.1250000000000000    0.8750000000000001    0.7500000000000002 Ru
   0.6250000000000001    0.3750000000000001    0.7500000000000000 Ru
