Al8 Ir4 Rh4
1.0
   6.0161328572138046    0.0000000000000000    0.0000000000000004
   0.0000000000000010    6.0161328572138046   -6.0161328572138029
   0.0000000000000000    0.0000000000000000    6.0161328572138046
Al Ir Rh
8 4 4
direct
   0.2500000000000001    0.2500000000000000    0.0000000000000000 Al
   0.2500000000000001    0.7500000000000000    0.5000000000000000 Al
   0.7500000000000000    0.7500000000000000    0.5000000000000000 Al
   0.7500000000000000    0.2500000000000000    0.0000000000000000 Al
   0.7500000000000000    0.2500000000000000    0.5000000000000000 Al
   0.7500000000000000    0.7500000000000000    0.0000000000000000 Al
   0.2500000000000001    0.7500000000000000    0.0000000000000000 Al
   0.2500000000000000    0.2500000000000000    0.5000000000000000 Al
   0.0000000000000000    0.0000000000000000    0.0000000000000000 Ir
   0.5000000000000000    0.5000000000000000    0.5000000000000000 Ir
   0.5000000000000000    0.0000000000000000    0.5000000000000000 Ir
   0.0000000000000000    0.5000000000000000    0.0000000000000001 Ir
   0.0000000000000000    0.0000000000000000    0.5000000000000000 Rh
   0.5000000000000000    0.5000000000000000    0.0000000000000001 Rh
   0.5000000000000000    0.0000000000000000    0.0000000000000000 Rh
   0.0000000000000000    0.5000000000000000    0.5000000000000000 Rh
