Y6 Si6 Ag6
1.0
   7.0582658184649940    0.0000000000000000    0.0000000000000004
   7.0582658184649976   12.2252750109080957    4.2002518554272799
   0.0000000000000000    0.0000000000000000    4.2002518554272799
Y Si Ag
6 6 6
direct
   0.4174264047042868    0.5000000000000000    0.0000000000000002 Y
   0.4174264047042868    0.0000000000000000    0.5000000000000000 Y
   0.5825735952957132    0.2087132023521434    0.2912867976478568 Y
   0.5825735952957132    0.7087132023521434    0.7912867976478567 Y
   0.0000000000000000    0.2912867976478566    0.2087132023521436 Y
   0.0000000000000000    0.7912867976478566    0.7087132023521434 Y
   0.6666666666666665    0.3333333333333333    0.6666666666666667 Si
   0.6666666666666666    0.8333333333333333    0.1666666666666667 Si
   0.3333333333333334    0.1666666666666667    0.8333333333333334 Si
   0.3333333333333333    0.6666666666666667    0.3333333333333333 Si
   0.0000000000000000    0.5000000000000000    0.0000000000000002 Si
   0.0000000000000000    0.0000000000000000    0.5000000000000000 Si
   0.7502194448503161    0.5000000000000000    0.5000000000000000 Ag
   0.7502194448503161    0.0000000000000000    0.0000000000000001 Ag
   0.2497805551496839    0.3751097224251581    0.6248902775748419 Ag
   0.2497805551496839    0.8751097224251581    0.1248902775748420 Ag
   0.0000000000000000    0.1248902775748419    0.8751097224251581 Ag
   0.0000000000000000    0.6248902775748419    0.3751097224251581 Ag
