Fe2 Ni2 Pt4
1.0
   3.6814602367437437    0.0000000000000000    0.0000000000000002
   0.0000000000000012    7.7314611032240430   -3.8657305516120215
   0.0000000000000000    0.0000000000000000    3.8657305516120219
Fe Ni Pt
2 2 4
direct
   0.0000000000000000    0.5000000000000000    0.5000000000000000 Fe
   0.0000000000000000    0.0000000000000000    0.0000000000000000 Fe
   0.0000000000000000    0.2500000000000000    0.7500000000000000 Ni
   0.0000000000000000    0.7500000000000000    0.2500000000000000 Ni
   0.5000000000000000    0.5000000000000000    0.0000000000000000 Pt
   0.5000000000000000    0.0000000000000000    0.5000000000000000 Pt
   0.5000000000000000    0.2500000000000000    0.2500000000000000 Pt
   0.5000000000000000    0.7500000000000000    0.7500000000000000 Pt
