Cs8 Bi8 Pd4
1.0
  15.4887185272445578    0.0000000000000000    0.0000000000000009
   0.0000000000000011    7.0837724800419499    0.0000000000000004
   0.0000000000000000    0.0000000000000000    7.8269046209898940
Cs Bi Pd
8 8 4
direct
   0.3948940108659897    0.2500000000000000    0.0000000000000000 Cs
   0.1051059891340103    0.7500000000000001    0.5000000000000001 Cs
   0.3058258922271477    0.2500000000000000    0.5000000000000000 Cs
   0.1941741077728523    0.7500000000000000    0.0000000000000000 Cs
   0.8948940108659899    0.2500000000000000    0.5000000000000000 Cs
   0.6051059891340103    0.7500000000000000    0.0000000000000000 Cs
   0.8058258922271478    0.2500000000000000    0.0000000000000000 Cs
   0.6941741077728523    0.7500000000000000    0.5000000000000000 Cs
   0.0996791128052621    0.2500000000000000    0.8090093209821134 Bi
   0.4003208871947379    0.7500000000000000    0.3090093209821134 Bi
   0.4003208871947379    0.7500000000000000    0.6909906790178866 Bi
   0.0996791128052621    0.2500000000000000    0.1909906790178866 Bi
   0.5996791128052621    0.2500000000000000    0.3090093209821134 Bi
   0.9003208871947380    0.7500000000000001    0.8090093209821134 Bi
   0.9003208871947380    0.7500000000000000    0.1909906790178866 Bi
   0.5996791128052621    0.2500000000000000    0.6909906790178866 Bi
   0.0000000000000000    0.5000000000000000    0.0000000000000000 Pd
   0.0000000000000000    0.0000000000000000    0.0000000000000000 Pd
   0.5000000000000000    0.5000000000000000    0.5000000000000001 Pd
   0.5000000000000000    0.0000000000000000    0.5000000000000001 Pd
