Hf2 Zn4 Ga2
1.0
   3.9918280055727808    0.0000000000000000   -3.9918280055727799
  -0.0000000000000023    8.2728138037038530   -3.9918280055727804
   0.0000000000000000    0.0000000000000000    3.9918280055727804
Hf Zn Ga
2 4 2
direct
   0.4999999999999999    0.0000000000000000    0.9999999999999999 Hf
   0.4999999999999999    0.4999999999999999    0.5000000000000000 Hf
   0.0000000000000000    0.2499999999999999    0.7500000000000000 Zn
   0.0000000000000000    0.7499999999999999    0.2500000000000000 Zn
   0.4999999999999999    0.2499999999999999    0.7499999999999999 Zn
   0.4999999999999999    0.7499999999999999    0.2499999999999998 Zn
   0.0000000000000000    0.0000000000000000    0.0000000000000000 Ga
   0.0000000000000000    0.4999999999999999    0.5000000000000000 Ga
