Ba6 Cd4 As8
1.0
   4.6502823013582280    0.0000000000000000    0.0000000000000003
   0.0000000000000026   16.0286429235758483    0.9356455014040764
   0.0000000000000000    0.0000000000000000    7.4285402430826295
Ba Cd As
6 4 8
direct
   0.5000000000000000    0.6422239616459784    0.9363069033272531 Ba
   0.0000000000000000    0.8577760383540216    0.5636930966727469 Ba
   0.0000000000000000    0.0000000000000000    0.0000000000000000 Ba
   0.0000000000000000    0.1422239616459785    0.4363069033272530 Ba
   0.5000000000000000    0.3577760383540216    0.0636930966727469 Ba
   0.5000000000000000    0.5000000000000000    0.4999999999999999 Ba
   0.5000000000000000    0.8306422739324901    0.1985151172197703 Cd
   0.0000000000000000    0.6693577260675099    0.3014848827802297 Cd
   0.0000000000000000    0.3306422739324901    0.6985151172197704 Cd
   0.5000000000000000    0.1693577260675100    0.8014848827802296 Cd
   0.5000000000000000    0.7066591934952271    0.4851694387066985 As
   0.0000000000000000    0.7933408065047729    0.0148305612933015 As
   0.5000000000000000    0.9946410653621456    0.3313871331999750 As
   0.0000000000000000    0.5053589346378544    0.1686128668000251 As
   0.0000000000000000    0.2066591934952272    0.9851694387066985 As
   0.5000000000000000    0.2933408065047729    0.5148305612933015 As
   0.0000000000000000    0.4946410653621457    0.8313871331999749 As
   0.5000000000000000    0.0053589346378544    0.6686128668000251 As
