Mn8 Sn8 Pd16
1.0
   6.4212809329316336    0.0000000000000000    0.0000000000000004
   0.0000000000000021   12.8425618658632672   -6.4212809329316336
   0.0000000000000000    0.0000000000000000    6.4212809329316336
Mn Sn Pd
8 8 16
direct
   0.0000000000000000    0.5000000000000000    0.4999999999999999 Mn
   0.0000000000000000    0.0000000000000000    0.0000000000000000 Mn
   0.5000000000000000    0.2500000000000000    0.2500000000000000 Mn
   0.5000000000000000    0.7500000000000000    0.7500000000000000 Mn
   0.5000000000000000    0.5000000000000000    0.0000000000000000 Mn
   0.5000000000000000    0.0000000000000000    0.5000000000000000 Mn
   0.0000000000000000    0.2500000000000000    0.7500000000000000 Mn
   0.0000000000000000    0.7500000000000000    0.2500000000000000 Mn
   0.0000000000000000    0.5000000000000000    0.0000000000000000 Sn
   0.0000000000000000    0.0000000000000000    0.5000000000000000 Sn
   0.5000000000000000    0.2500000000000000    0.7500000000000000 Sn
   0.5000000000000000    0.7500000000000000    0.2500000000000000 Sn
   0.5000000000000000    0.5000000000000000    0.4999999999999999 Sn
   0.5000000000000000    0.0000000000000000    0.0000000000000000 Sn
   0.0000000000000000    0.2500000000000000    0.2500000000000000 Sn
   0.0000000000000000    0.7500000000000000    0.7500000000000000 Sn
   0.2500000000000000    0.1250000000000000    0.8750000000000000 Pd
   0.2500000000000001    0.6250000000000000    0.3750000000000000 Pd
   0.2500000000000000    0.3750000000000000    0.1250000000000000 Pd
   0.2500000000000000    0.8750000000000000    0.6250000000000000 Pd
   0.7500000000000000    0.3750000000000000    0.1250000000000000 Pd
   0.7500000000000000    0.8750000000000000    0.6250000000000000 Pd
   0.7500000000000000    0.1250000000000000    0.8750000000000000 Pd
   0.7500000000000000    0.6250000000000000    0.3750000000000000 Pd
   0.7500000000000000    0.1250000000000000    0.3750000000000000 Pd
   0.7500000000000000    0.6250000000000000    0.8750000000000000 Pd
   0.7500000000000000    0.3750000000000000    0.6250000000000000 Pd
   0.7500000000000000    0.8750000000000000    0.1250000000000000 Pd
   0.2500000000000000    0.3750000000000000    0.6250000000000000 Pd
   0.2500000000000001    0.8750000000000000    0.1250000000000000 Pd
   0.2499999999999999    0.1250000000000000    0.3750000000000000 Pd
   0.2500000000000000    0.6250000000000000    0.8750000000000000 Pd
