Zn16 Cu16 Au32
1.0
  12.5707536402204916    0.0000000000000000   -6.2853768201102458
  -0.0000000000000036   12.5707536402204934   -6.2853768201102467
   0.0000000000000000    0.0000000000000000    6.2853768201102467
Zn Cu Au
16 16 32
direct
   0.5000000000000000    0.4999999999999999    0.0000000000000000 Zn
   0.0000000000000000    0.0000000000000000    0.0000000000000000 Zn
   0.0000000000000000    0.5000000000000000    0.5000000000000000 Zn
   0.5000000000000000    0.0000000000000000    0.5000000000000000 Zn
   0.7500000000000000    0.7500000000000000    0.5000000000000000 Zn
   0.2500000000000000    0.2500000000000000    0.5000000000000000 Zn
   0.2500000000000000    0.7500000000000000    0.0000000000000000 Zn
   0.7500000000000000    0.2500000000000001    0.0000000000000000 Zn
   0.5000000000000000    0.7500000000000000    0.7500000000000000 Zn
   0.0000000000000000    0.2500000000000001    0.7500000000000000 Zn
   0.0000000000000000    0.7500000000000001    0.2500000000000000 Zn
   0.5000000000000000    0.2500000000000001    0.2500000000000000 Zn
   0.7500000000000000    0.5000000000000000    0.7500000000000000 Zn
   0.2500000000000000    0.0000000000000001    0.7500000000000000 Zn
   0.2500000000000000    0.5000000000000001    0.2500000000000000 Zn
   0.7500000000000000    0.0000000000000001    0.2500000000000000 Zn
   0.5000000000000000    0.5000000000000000    0.5000000000000000 Cu
   0.0000000000000000    0.0000000000000001    0.5000000000000000 Cu
   0.0000000000000000    0.5000000000000001    0.0000000000000000 Cu
   0.5000000000000000    0.0000000000000001    0.0000000000000000 Cu
   0.7500000000000000    0.7500000000000000    0.9999999999999999 Cu
   0.2500000000000000    0.2500000000000001    0.0000000000000000 Cu
   0.2500000000000000    0.7500000000000001    0.5000000000000000 Cu
   0.7500000000000000    0.2500000000000001    0.5000000000000000 Cu
   0.5000000000000000    0.7500000000000000    0.2500000000000000 Cu
   0.0000000000000000    0.2500000000000000    0.2500000000000000 Cu
   0.0000000000000000    0.7500000000000000    0.7500000000000000 Cu
   0.5000000000000000    0.2500000000000001    0.7500000000000000 Cu
   0.7500000000000000    0.5000000000000000    0.2500000000000001 Cu
   0.2500000000000000    0.0000000000000000    0.2500000000000000 Cu
   0.2500000000000000    0.5000000000000000    0.7500000000000000 Cu
   0.7500000000000000    0.0000000000000001    0.7500000000000000 Cu
   0.6250000000000001    0.8749999999999999    0.7499999999999999 Au
   0.1250000000000000    0.3750000000000001    0.7500000000000000 Au
   0.1250000000000000    0.8750000000000000    0.2500000000000000 Au
   0.6250000000000001    0.3750000000000001    0.2500000000000002 Au
   0.8750000000000000    0.8750000000000001    0.0000000000000000 Au
   0.3750000000000000    0.3750000000000001    0.0000000000000000 Au
   0.3750000000000000    0.8750000000000001    0.5000000000000002 Au
   0.8750000000000000    0.3750000000000001    0.5000000000000000 Au
   0.8750000000000000    0.6250000000000000    0.7500000000000000 Au
   0.3750000000000000    0.1250000000000001    0.7500000000000000 Au
   0.3750000000000000    0.6250000000000001    0.2500000000000000 Au
   0.8750000000000000    0.1250000000000001    0.2500000000000000 Au
   0.6250000000000001    0.6250000000000000    0.5000000000000000 Au
   0.1250000000000000    0.1250000000000001    0.5000000000000000 Au
   0.1250000000000000    0.6250000000000001    0.0000000000000000 Au
   0.6250000000000001    0.1250000000000001    0.0000000000000002 Au
   0.6250000000000001    0.6250000000000000    0.0000000000000000 Au
   0.1250000000000000    0.1250000000000001    0.0000000000000000 Au
   0.1250000000000000    0.6250000000000001    0.5000000000000000 Au
   0.6250000000000001    0.1250000000000001    0.5000000000000000 Au
   0.8750000000000000    0.6250000000000001    0.2500000000000000 Au
   0.3750000000000000    0.1250000000000001    0.2500000000000000 Au
   0.3750000000000000    0.6250000000000001    0.7500000000000000 Au
   0.8750000000000000    0.1250000000000002    0.7500000000000000 Au
   0.8750000000000000    0.8750000000000001    0.5000000000000000 Au
   0.3750000000000000    0.3750000000000002    0.5000000000000000 Au
   0.3750000000000000    0.8750000000000002    0.0000000000000000 Au
   0.8750000000000000    0.3750000000000002    0.0000000000000000 Au
   0.6250000000000001    0.8750000000000001    0.2500000000000000 Au
   0.1250000000000000    0.3750000000000002    0.2500000000000000 Au
   0.1250000000000000    0.8750000000000002    0.7500000000000002 Au
   0.6250000000000001    0.3750000000000002    0.7500000000000000 Au
