Y2 Al2 Zn2
1.0
   4.4736214734766442    0.0000000000000000    0.0000000000000003
  -2.2368107367383216    3.8742698429463465    0.0000000000000003
   0.0000000000000000    0.0000000000000000    7.2227758037124561
Y Al Zn
2 2 2
direct
   0.0000000000000000    0.0000000000000000    0.5000000000000000 Y
   0.0000000000000000    0.0000000000000000    0.0000000000000000 Y
   0.3333333333333334    0.6666666666666666    0.2500000000000000 Al
   0.6666666666666667    0.3333333333333333    0.7500000000000000 Al
   0.3333333333333334    0.6666666666666666    0.7500000000000000 Zn
   0.6666666666666667    0.3333333333333333    0.2500000000000000 Zn
