Y4 Al4 Zn4
1.0
   3.8742698429463465    0.0000000000000000   -2.2368107367383212
   0.0000000000000023   14.4455516074249104   -4.4736214734766442
   0.0000000000000000    0.0000000000000000    4.4736214734766442
Y Al Zn
4 4 4
direct
   0.0000000000000000    0.2500000000000000    0.2500000000000000 Y
   0.0000000000000000    0.7500000000000000    0.7500000000000000 Y
   0.0000000000000000    0.0000000000000000    0.0000000000000000 Y
   0.0000000000000000    0.5000000000000000    0.5000000000000000 Y
   0.6666666666666666    0.1250000000000000    0.4583333333333334 Al
   0.6666666666666666    0.6250000000000000    0.9583333333333334 Al
   0.3333333333333333    0.3750000000000000    0.0416666666666667 Al
   0.3333333333333333    0.8750000000000000    0.5416666666666667 Al
   0.6666666666666666    0.3750000000000000    0.7083333333333334 Zn
   0.6666666666666666    0.8750000000000000    0.2083333333333333 Zn
   0.3333333333333333    0.1250000000000000    0.7916666666666667 Zn
   0.3333333333333333    0.6250000000000000    0.2916666666666667 Zn
