Ti16 Pd24
1.0
   4.6314215383489064    0.0000000000000000    0.0000000000000003
   0.0000000000000046   28.7019166860181372   -4.7303267707154770
   0.0000000000000000    0.0000000000000000    4.7303267707154824
Ti Pd
16 24
direct
   0.2500000000000000    0.4460449881624910    0.2178622736586034 Ti
   0.2500000000000000    0.9460449881624911    0.7178622736586036 Ti
   0.7500000000000000    0.3039550118375089    0.0321377263413966 Ti
   0.7500000000000000    0.8039550118375089    0.5321377263413964 Ti
   0.2500000000000000    0.3039550118375089    0.5757722973336215 Ti
   0.2500000000000000    0.8039550118375089    0.0757722973336216 Ti
   0.7500000000000000    0.4460449881624910    0.6742277026663785 Ti
   0.7500000000000000    0.9460449881624911    0.1742277026663787 Ti
   0.2499999999999999    0.1960449881624910    0.4678622736586036 Ti
   0.2499999999999999    0.6960449881624911    0.9678622736586036 Ti
   0.7500000000000000    0.0539550118375090    0.2821377263413966 Ti
   0.7500000000000000    0.5539550118375089    0.7821377263413964 Ti
   0.2500000000000000    0.0539550118375090    0.8257722973336215 Ti
   0.2499999999999999    0.5539550118375089    0.3257722973336216 Ti
   0.7500000000000000    0.1960449881624910    0.9242277026663785 Ti
   0.7500000000000000    0.6960449881624911    0.4242277026663785 Ti
   0.7500000000000000    0.3472921448117248    0.5635165151001473 Pd
   0.7500000000000000    0.8472921448117248    0.0635165151001473 Pd
   0.2499999999999999    0.4027078551882752    0.6864834848998527 Pd
   0.2499999999999999    0.9027078551882752    0.1864834848998527 Pd
   0.2499999999999999    0.3472921448117248    0.1310677745233022 Pd
   0.2499999999999999    0.8472921448117248    0.6310677745233022 Pd
   0.7500000000000000    0.4027078551882752    0.1189322254766978 Pd
   0.7500000000000000    0.9027078551882752    0.6189322254766978 Pd
   0.2500000000000000    0.5000000000000000    0.7964931031609979 Pd
   0.2500000000000000    0.0000000000000000    0.2964931031609979 Pd
   0.7500000000000000    0.5000000000000000    0.2035068968390021 Pd
   0.7500000000000000    0.0000000000000000    0.7035068968390021 Pd
   0.7500000000000000    0.0972921448117248    0.8135165151001473 Pd
   0.7500000000000000    0.5972921448117248    0.3135165151001474 Pd
   0.2499999999999999    0.1527078551882752    0.9364834848998527 Pd
   0.2499999999999999    0.6527078551882752    0.4364834848998527 Pd
   0.2500000000000000    0.0972921448117248    0.3810677745233022 Pd
   0.2500000000000000    0.5972921448117248    0.8810677745233022 Pd
   0.7500000000000000    0.1527078551882752    0.3689322254766978 Pd
   0.7500000000000000    0.6527078551882752    0.8689322254766978 Pd
   0.2500000000000000    0.2500000000000000    0.0464931031609979 Pd
   0.2500000000000000    0.7500000000000000    0.5464931031609979 Pd
   0.7500000000000000    0.2500000000000000    0.4535068968390021 Pd
   0.7500000000000000    0.7500000000000000    0.9535068968390021 Pd
