Na16 Zn8 Ge8
1.0
   5.5123154774960055    0.0000000000000000    0.0000000000000003
   0.0000000000000030   18.4826592217918169   -7.4535213621669820
   0.0000000000000000    0.0000000000000000    7.4535213621669847
Na Zn Ge
16 8 8
direct
   0.7500000000000000    0.3376760099417843    0.6950142360487739 Na
   0.7500000000000000    0.8376760099417844    0.1950142360487738 Na
   0.2500000000000000    0.1623239900582157    0.8049857639512261 Na
   0.2500000000000000    0.6623239900582156    0.3049857639512262 Na
   0.2500000000000000    0.3376760099417843    0.9803377838347948 Na
   0.2500000000000000    0.8376760099417844    0.4803377838347949 Na
   0.7500000000000000    0.1623239900582157    0.5196622161652052 Na
   0.7500000000000000    0.6623239900582156    0.0196622161652052 Na
   0.7500000000000000    0.0876760099417843    0.9450142360487738 Na
   0.7500000000000000    0.5876760099417844    0.4450142360487738 Na
   0.2500000000000000    0.4123239900582156    0.5549857639512259 Na
   0.2500000000000000    0.9123239900582156    0.0549857639512260 Na
   0.2500000000000001    0.0876760099417843    0.2303377838347948 Na
   0.2500000000000000    0.5876760099417844    0.7303377838347946 Na
   0.7500000000000000    0.4123239900582156    0.2696622161652051 Na
   0.7500000000000000    0.9123239900582156    0.7696622161652051 Na
   0.0000000000000000    0.5000000000000000    0.0000000000000000 Zn
   0.0000000000000000    0.0000000000000000    0.5000000000000000 Zn
   0.4999999999999999    0.5000000000000000    0.0000000000000000 Zn
   0.5000000000000000    0.0000000000000000    0.5000000000000000 Zn
   0.0000000000000000    0.2500000000000000    0.2500000000000000 Zn
   0.0000000000000000    0.7500000000000000    0.7500000000000000 Zn
   0.5000000000000000    0.2500000000000000    0.2500000000000000 Zn
   0.5000000000000000    0.7500000000000000    0.7500000000000000 Zn
   0.7500000000000000    0.5000000000000000    0.7280764333700489 Ge
   0.7500000000000000    0.0000000000000000    0.2280764333700488 Ge
   0.2500000000000001    0.5000000000000000    0.2719235666299511 Ge
   0.2500000000000001    0.0000000000000000    0.7719235666299511 Ge
   0.7500000000000000    0.2500000000000000    0.9780764333700489 Ge
   0.7500000000000000    0.7500000000000000    0.4780764333700489 Ge
   0.2500000000000000    0.2500000000000000    0.5219235666299510 Ge
   0.2500000000000000    0.7500000000000000    0.0219235666299511 Ge
