Zn16 Sn16 As32
1.0
  11.8764230553215011    0.0000000000000000   -5.9382115276607506
  -0.0000000000000068   23.8485325438352191   -5.9382115276607497
   0.0000000000000000    0.0000000000000000    5.9382115276607514
Zn Sn As
16 16 32
direct
   0.5000000000000000    0.5000000000000000    0.0000000000000000 Zn
   0.0000000000000000    0.0000000000000000    0.0000000000000000 Zn
   0.0000000000000000    0.5000000000000000    0.5000000000000000 Zn
   0.5000000000000000    0.0000000000000000    0.4999999999999999 Zn
   0.7500000000000000    0.6250000000000000    0.3750000000000001 Zn
   0.2500000000000000    0.1250000000000000    0.3750000000000000 Zn
   0.2500000000000000    0.6250000000000000    0.8750000000000000 Zn
   0.7500000000000000    0.1250000000000000    0.8750000000000000 Zn
   0.7500000000000000    0.7500000000000000    0.9999999999999999 Zn
   0.2500000000000000    0.2500000000000000    0.9999999999999999 Zn
   0.2500000000000000    0.7500000000000000    0.4999999999999998 Zn
   0.7500000000000000    0.2500000000000000    0.5000000000000000 Zn
   0.5000000000000000    0.8750000000000001    0.8750000000000000 Zn
   0.0000000000000000    0.3749999999999999    0.8750000000000000 Zn
   0.0000000000000000    0.8750000000000000    0.3750000000000000 Zn
   0.5000000000000000    0.3750000000000000    0.3749999999999998 Zn
   0.7500000000000000    0.5000000000000000    0.7499999999999999 Sn
   0.2500000000000000    0.0000000000000000    0.7499999999999999 Sn
   0.2500000000000000    0.5000000000000000    0.2499999999999998 Sn
   0.7500000000000000    0.0000000000000000    0.2500000000000000 Sn
   0.5000000000000000    0.6250000000000000    0.6250000000000000 Sn
   0.0000000000000000    0.1250000000000000    0.6250000000000000 Sn
   0.0000000000000000    0.6250000000000000    0.1250000000000000 Sn
   0.5000000000000000    0.1250000000000000    0.1250000000000000 Sn
   0.5000000000000000    0.7500000000000000    0.2500000000000000 Sn
   0.0000000000000000    0.2500000000000000    0.2500000000000000 Sn
   0.0000000000000000    0.7500000000000000    0.7500000000000000 Sn
   0.5000000000000000    0.2500000000000000    0.7499999999999999 Sn
   0.7500000000000000    0.8750000000000001    0.6250000000000001 Sn
   0.2500000000000000    0.3750000000000000    0.6250000000000000 Sn
   0.2500000000000000    0.8750000000000000    0.1250000000000000 Sn
   0.7500000000000000    0.3750000000000000    0.1250000000000000 Sn
   0.6250000000000000    0.5625000000000000    0.4138898784813206 As
   0.1250000000000000    0.0625000000000000    0.4138898784813207 As
   0.1250000000000000    0.5625000000000000    0.9138898784813206 As
   0.6250000000000000    0.0625000000000000    0.9138898784813206 As
   0.8749999999999999    0.5625000000000001    0.2111101215186793 As
   0.3750000000000000    0.0625000000000000    0.2111101215186793 As
   0.3750000000000000    0.5625000000000000    0.7111101215186793 As
   0.8749999999999999    0.0625000000000000    0.7111101215186793 As
   0.6368050607593396    0.6875000000000001    0.0743050607593396 As
   0.1368050607593396    0.1875000000000000    0.0743050607593396 As
   0.1368050607593396    0.6875000000000000    0.5743050607593396 As
   0.6368050607593396    0.1875000000000000    0.5743050607593396 As
   0.8631949392406603    0.6875000000000001    0.8006949392406604 As
   0.3631949392406603    0.1875000000000000    0.8006949392406604 As
   0.3631949392406603    0.6875000000000001    0.3006949392406604 As
   0.8631949392406603    0.1875000000000000    0.3006949392406602 As
   0.8749999999999999    0.8125000000000000    0.4138898784813205 As
   0.3750000000000000    0.3125000000000000    0.4138898784813207 As
   0.3750000000000000    0.8125000000000000    0.9138898784813207 As
   0.8749999999999999    0.3125000000000000    0.9138898784813205 As
   0.6250000000000000    0.8125000000000000    0.7111101215186793 As
   0.1250000000000000    0.3125000000000000    0.7111101215186793 As
   0.1250000000000000    0.8125000000000000    0.2111101215186793 As
   0.6250000000000000    0.3125000000000000    0.2111101215186793 As
   0.8868050607593395    0.9375000000000000    0.0743050607593394 As
   0.3868050607593396    0.4375000000000000    0.0743050607593396 As
   0.3868050607593396    0.9374999999999999    0.5743050607593396 As
   0.8868050607593395    0.4375000000000001    0.5743050607593396 As
   0.6131949392406603    0.9375000000000000    0.3006949392406602 As
   0.1131949392406604    0.4375000000000000    0.3006949392406604 As
   0.1131949392406604    0.9374999999999999    0.8006949392406604 As
   0.6131949392406603    0.4375000000000000    0.8006949392406602 As
