Y4 Ag4 Sb8
1.0
  10.5188187663504920    0.0000000000000000    0.0000000000000006
   0.0000000000000014    8.6693833172631436   -4.3346916586315718
   0.0000000000000000    0.0000000000000000    4.3346916586315718
Y Ag Sb
4 4 8
direct
   0.2353401842209947    0.2500000000000000    0.2500000000000000 Y
   0.2353401842209947    0.7500000000000000    0.7500000000000000 Y
   0.7646598157790052    0.5000000000000000    0.0000000000000000 Y
   0.7646598157790052    0.0000000000000000    0.5000000000000000 Y
   0.4999999999999999    0.5000000000000000    0.4999999999999999 Ag
   0.5000000000000000    0.0000000000000000    0.0000000000000000 Ag
   0.5000000000000000    0.2500000000000000    0.7500000000000000 Ag
   0.5000000000000000    0.7500000000000000    0.2500000000000000 Ag
   0.0000000000000000    0.5000000000000000    0.4999999999999999 Sb
   0.0000000000000000    0.0000000000000000    0.0000000000000000 Sb
   0.0000000000000000    0.2500000000000000    0.7500000000000000 Sb
   0.0000000000000000    0.7500000000000000    0.2500000000000000 Sb
   0.6843887346531048    0.2500000000000000    0.2500000000000000 Sb
   0.6843887346531048    0.7500000000000000    0.7500000000000000 Sb
   0.3156112653468951    0.5000000000000000    0.0000000000000000 Sb
   0.3156112653468951    0.0000000000000000    0.5000000000000000 Sb
