Co4 Sb4 Te4
1.0
   3.8129483342175519    0.0000000000000000    0.0000000000000002
  -0.0000000000000007   10.6423463781884688    6.4887043421120456
   0.0000000000000000    0.0000000000000000    6.2658794279205337
Co Sb Te
4 4 4
direct
   0.5000000000000000    0.2500000000000000    0.2500000000000002 Co
   0.5000000000000000    0.7500000000000000    0.7500000000000001 Co
   0.0000000000000000    0.4999999999999999    0.5000000000000001 Co
   0.0000000000000000    0.0000000000000000    0.0000000000000000 Co
   0.5000000000000000    0.1405404953809110    0.9975174784860814 Sb
   0.5000000000000000    0.6405404953809111    0.4975174784860814 Sb
   0.5000000000000000    0.3594595046190890    0.5024825215139186 Sb
   0.5000000000000000    0.8594595046190890    0.0024825215139188 Sb
   0.0000000000000000    0.3876299426430591    0.9687343714060503 Te
   0.0000000000000000    0.8876299426430592    0.4687343714060504 Te
   0.0000000000000000    0.1123700573569408    0.5312656285939499 Te
   0.0000000000000000    0.6123700573569408    0.0312656285939497 Te
