Sc2 Cu2 Sn2
1.0
   3.8282538624002362    0.0000000000000000   -2.2102433979830018
  -0.0000000000000020    6.8991334189293667   -4.4204867959660028
   0.0000000000000000    0.0000000000000000    4.4204867959660019
Sc Cu Sn
2 2 2
direct
   0.0000000000000000    0.9972747461865482    0.9972747461865482 Sc
   0.0000000000000000    0.4972747461865481    0.4972747461865481 Sc
   0.6666666666666665    0.8292733888083746    0.1626067221417080 Cu
   0.3333333333333331    0.3292733888083746    0.9959400554750413 Cu
   0.6666666666666665    0.2290628750050772    0.5623962083384105 Sn
   0.3333333333333331    0.7290628750050773    0.3957295416717439 Sn
