Al2 Co4 Si4
1.0
   4.6254152669731576    0.0000000000000000    0.0000000000000003
   0.0000000000000011    6.8119273940552088   -7.8657362293159228
   0.0000000000000000    0.0000000000000000    3.9328681146579614
Al Co Si
2 4 4
direct
   0.0000000000000000    0.5000000000000000    0.5000000000000001 Al
   0.0000000000000000    0.0000000000000000    0.0000000000000000 Al
   0.8373634430997114    0.3333333333333333    0.6666666666666666 Co
   0.8373634430997114    0.8333333333333333    0.1666666666666665 Co
   0.1626365569002886    0.1666666666666666    0.8333333333333333 Co
   0.1626365569002886    0.6666666666666666    0.3333333333333331 Co
   0.6521243688545297    0.1666666666666666    0.8333333333333333 Si
   0.6521243688545297    0.6666666666666666    0.3333333333333333 Si
   0.3478756311454703    0.3333333333333333    0.6666666666666665 Si
   0.3478756311454703    0.8333333333333333    0.1666666666666664 Si
