Ba2 Ge6 Ir2
1.0
  10.3360392739715188    0.0000000000000000    0.0000000000000006
  -0.0000000000000003    4.6009320640018583    4.6009320640018574
   0.0000000000000000    0.0000000000000000    4.6009320640018583
Ba Ge Ir
2 6 2
direct
   0.9104769693278527    0.5000000000000000    0.0000000000000000 Ba
   0.4104769693278527    0.0000000000000000    0.0000000000000000 Ba
   0.9987458885823202    0.0000000000000000    0.0000000000000000 Ge
   0.6581718022284093    0.5000000000000000    0.5000000000000000 Ge
   0.6581718022284093    0.0000000000000000    0.5000000000000000 Ge
   0.4987458885823202    0.5000000000000000    0.0000000000000000 Ge
   0.1581718022284094    0.0000000000000000    0.5000000000000000 Ge
   0.1581718022284094    0.5000000000000000    0.5000000000000000 Ge
   0.7594325276330025    0.0000000000000000    0.0000000000000000 Ir
   0.2594325276330025    0.5000000000000000    0.0000000000000000 Ir
