Mn8 V8 Ru16
1.0
   6.0034899050679478    0.0000000000000000    0.0000000000000004
   0.0000000000000019   12.0069798101358955   -6.0034899050679478
   0.0000000000000000    0.0000000000000000    6.0034899050679478
Mn V Ru
8 8 16
direct
   0.0000000000000000    0.4999999999999999    0.4999999999999999 Mn
   0.0000000000000000    0.0000000000000000    0.0000000000000000 Mn
   0.5000000000000000    0.2500000000000000    0.2500000000000000 Mn
   0.5000000000000000    0.7500000000000000    0.7500000000000000 Mn
   0.5000000000000000    0.4999999999999999    0.0000000000000000 Mn
   0.5000000000000000    0.0000000000000000    0.5000000000000000 Mn
   0.0000000000000000    0.2500000000000000    0.7500000000000000 Mn
   0.0000000000000000    0.7500000000000000    0.2500000000000001 Mn
   0.0000000000000000    0.4999999999999999    0.0000000000000000 V
   0.0000000000000000    0.0000000000000000    0.5000000000000000 V
   0.5000000000000000    0.2500000000000000    0.7500000000000000 V
   0.5000000000000000    0.7500000000000000    0.2500000000000001 V
   0.5000000000000000    0.4999999999999999    0.4999999999999999 V
   0.5000000000000000    0.0000000000000000    0.0000000000000000 V
   0.0000000000000000    0.2500000000000000    0.2500000000000000 V
   0.0000000000000000    0.7500000000000000    0.7500000000000000 V
   0.2500000000000000    0.3750000000000000    0.1250000000000000 Ru
   0.2500000000000001    0.8750000000000000    0.6250000000000000 Ru
   0.2500000000000000    0.1250000000000000    0.8750000000000000 Ru
   0.2500000000000001    0.6250000000000000    0.3750000000000000 Ru
   0.7500000000000000    0.1250000000000000    0.8750000000000000 Ru
   0.7500000000000000    0.6250000000000000    0.3750000000000000 Ru
   0.7500000000000000    0.3750000000000000    0.1250000000000000 Ru
   0.7500000000000000    0.8750000000000000    0.6250000000000000 Ru
   0.7500000000000000    0.3750000000000000    0.6250000000000000 Ru
   0.7500000000000000    0.8750000000000000    0.1250000000000000 Ru
   0.7500000000000000    0.1250000000000000    0.3750000000000000 Ru
   0.7500000000000000    0.6250000000000000    0.8750000000000000 Ru
   0.2499999999999999    0.1250000000000000    0.3750000000000000 Ru
   0.2500000000000000    0.6250000000000000    0.8750000000000000 Ru
   0.2500000000000000    0.3750000000000000    0.6250000000000000 Ru
   0.2500000000000001    0.8750000000000000    0.1250000000000000 Ru
