Hf12 Ga4 Co2
1.0
  13.4358720598311780    0.0000000000000000    0.0000000000000008
   0.0000000000000012    7.7572043505409001   -3.3331985233721149
   0.0000000000000000    0.0000000000000000    3.3331985233721126
Hf Ga Co
12 4 2
direct
   0.1247711658159751    0.8752288341840250    0.8752288341840250 Hf
   0.6247711658159751    0.3752288341840249    0.3752288341840249 Hf
   0.3752288341840249    0.3752288341840249    0.3752288341840249 Hf
   0.8752288341840249    0.8752288341840249    0.8752288341840249 Hf
   0.5000000000000000    0.7495423316319503    0.7495423316319503 Hf
   0.0000000000000000    0.2495423316319502    0.2495423316319502 Hf
   0.2995337441723755    0.7004662558276246    0.2004662558276245 Hf
   0.7995337441723755    0.2004662558276245    0.7004662558276245 Hf
   0.2004662558276244    0.2004662558276245    0.7004662558276245 Hf
   0.7004662558276245    0.7004662558276245    0.2004662558276243 Hf
   0.5000000000000000    0.0990674883447512    0.5990674883447511 Hf
   0.0000000000000000    0.5990674883447511    0.0990674883447510 Hf
   0.1666666666666667    0.5000000000000001    0.5000000000000001 Ga
   0.6666666666666667    0.0000000000000000    0.0000000000000000 Ga
   0.3333333333333334    0.0000000000000000    0.0000000000000000 Ga
   0.8333333333333334    0.5000000000000000    0.5000000000000000 Ga
   0.5000000000000000    0.5000000000000001    0.0000000000000001 Co
   0.0000000000000000    0.0000000000000000    0.5000000000000000 Co
