Ta8 Pt16
1.0
  17.6466118256632782    0.0000000000000000    0.0000000000000011
   1.3304171286234843    4.6591141753446506    4.7932701525975787
   0.0000000000000000    0.0000000000000000    4.7932701525975787
Ta Pt
8 16
direct
   0.5000000000000000    0.2699864734757826    0.4800135265242174 Ta
   0.0000000000000000    0.7699864734757824    0.9800135265242176 Ta
   0.5000000000000000    0.7300135265242177    0.5199864734757822 Ta
   0.0000000000000000    0.2300135265242176    0.0199864734757824 Ta
   0.7500000000000000    0.5199864734757825    0.2300135265242176 Ta
   0.2500000000000000    0.0199864734757824    0.7300135265242176 Ta
   0.7500000000000000    0.9800135265242177    0.2699864734757822 Ta
   0.2500000000000000    0.4800135265242176    0.7699864734757825 Ta
   0.6689629360433856    0.5490577324122158    0.7009422675877841 Pt
   0.1689629360433856    0.0490577324122156    0.2009422675877846 Pt
   0.5810370639566144    0.7009422675877846    0.0490577324122157 Pt
   0.0810370639566144    0.2009422675877844    0.5490577324122157 Pt
   0.6689629360433856    0.1130163955010133    0.6369836044989867 Pt
   0.1689629360433856    0.6130163955010133    0.1369836044989869 Pt
   0.5810370639566144    0.1369836044989869    0.1130163955010131 Pt
   0.0810370639566144    0.6369836044989867    0.6130163955010133 Pt
   0.9189629360433856    0.7990577324122157    0.4509422675877843 Pt
   0.4189629360433856    0.2990577324122157    0.9509422675877844 Pt
   0.8310370639566144    0.9509422675877846    0.7990577324122154 Pt
   0.3310370639566144    0.4509422675877844    0.2990577324122157 Pt
   0.9189629360433856    0.3630163955010133    0.3869836044989867 Pt
   0.4189629360433856    0.8630163955010131    0.8869836044989869 Pt
   0.8310370639566144    0.3869836044989869    0.8630163955010133 Pt
   0.3310370639566144    0.8869836044989869    0.3630163955010133 Pt
