Nb3 Ge6
1.0
   4.3365640333670887    0.0000000000000000   -7.5111492360676220
   0.0000000000000041    6.8196815985564783   -5.0074328240450772
   0.0000000000000000    0.0000000000000000    5.0074328240450798
Nb Ge
3 6
direct
   0.5000000000000000    0.8333333333333333    0.8333333333333333 Nb
   0.0000000000000000    0.5000000000000000    0.0000000000000000 Nb
   0.5000000000000000    0.1666666666666665    0.6666666666666665 Nb
   0.8359559357855275    0.1666666666666666    0.6745344740232493 Ge
   0.6719118715710550    0.5000000000000000    0.0078678073565825 Ge
   0.1640440642144724    0.8333333333333333    0.8333333333333333 Ge
   0.1640440642144725    0.1666666666666666    0.6587988593100841 Ge
   0.3280881284289450    0.5000000000000000    0.9921321926434175 Ge
   0.8359559357855275    0.8333333333333333    0.8333333333333333 Ge
