Na16 Ag8 As8
1.0
   5.6825638024678460    0.0000000000000000    0.0000000000000003
   0.0000000000000029   17.8348562420720818   -7.4180192617727441
   0.0000000000000000    0.0000000000000000    7.4180192617727476
Na Ag As
16 8 8
direct
   0.7500000000000000    0.1612898082755763    0.8065130677904300 Na
   0.7500000000000000    0.6612898082755763    0.3065130677904299 Na
   0.2500000000000000    0.3387101917244237    0.6934869322095699 Na
   0.2499999999999999    0.8387101917244237    0.1934869322095700 Na
   0.7500000000000000    0.3387101917244237    0.9839334512392774 Na
   0.7500000000000000    0.8387101917244237    0.4839334512392774 Na
   0.2500000000000000    0.1612898082755763    0.5160665487607226 Na
   0.2500000000000000    0.6612898082755763    0.0160665487607226 Na
   0.7500000000000000    0.4112898082755763    0.5565130677904301 Na
   0.7500000000000000    0.9112898082755763    0.0565130677904300 Na
   0.2500000000000000    0.0887101917244238    0.9434869322095700 Na
   0.2499999999999999    0.5887101917244237    0.4434869322095700 Na
   0.7500000000000000    0.0887101917244238    0.2339334512392774 Na
   0.7500000000000000    0.5887101917244237    0.7339334512392774 Na
   0.2500000000000001    0.4112898082755763    0.2660665487607226 Na
   0.2500000000000000    0.9112898082755763    0.7660665487607226 Na
   0.4999999999999999    0.5000000000000000    0.0000000000000000 Ag
   0.4999999999999999    0.0000000000000000    0.5000000000000000 Ag
   0.0000000000000000    0.5000000000000000    0.0000000000000000 Ag
   0.0000000000000000    0.0000000000000000    0.5000000000000000 Ag
   0.4999999999999999    0.2500000000000000    0.2500000000000000 Ag
   0.5000000000000000    0.7500000000000000    0.7500000000000000 Ag
   0.0000000000000000    0.2500000000000000    0.2500000000000000 Ag
   0.0000000000000000    0.7500000000000000    0.7500000000000000 Ag
   0.2500000000000000    0.5000000000000000    0.7128509140465304 As
   0.2499999999999999    0.0000000000000000    0.2128509140465304 As
   0.7500000000000000    0.5000000000000000    0.2871490859534696 As
   0.7500000000000000    0.0000000000000000    0.7871490859534696 As
   0.2500000000000000    0.2500000000000000    0.9628509140465303 As
   0.2499999999999999    0.7500000000000000    0.4628509140465303 As
   0.7500000000000000    0.2500000000000000    0.5371490859534696 As
   0.7500000000000000    0.7500000000000000    0.0371490859534696 As
