Y8 Mg4 Si8
1.0
   7.1848966974532225    0.0000000000000000    0.0000000000000004
  -0.0000000000000005    8.4043359379149578   -7.1848966974532216
   0.0000000000000000    0.0000000000000000    7.1848966974532225
Y Mg Si
8 4 8
direct
   0.1786769149643064    0.2500000000000001    0.9286769149643065 Y
   0.1786769149643064    0.7500000000000000    0.4286769149643064 Y
   0.8213230850356936    0.2500000000000001    0.5713230850356936 Y
   0.8213230850356936    0.7500000000000000    0.0713230850356936 Y
   0.3213230850356936    0.2500000000000000    0.4286769149643064 Y
   0.3213230850356936    0.7500000000000000    0.9286769149643064 Y
   0.6786769149643064    0.2500000000000001    0.0713230850356936 Y
   0.6786769149643064    0.7500000000000000    0.5713230850356936 Y
   0.0000000000000000    0.0000000000000000    0.0000000000000000 Mg
   0.0000000000000000    0.5000000000000000    0.5000000000000000 Mg
   0.5000000000000000    0.0000000000000000    0.5000000000000000 Mg
   0.5000000000000000    0.5000000000000000    0.0000000000000000 Mg
   0.6178391934083436    0.0000000000000000    0.1178391934083436 Si
   0.6178391934083436    0.5000000000000000    0.6178391934083436 Si
   0.3821608065916564    0.0000000000000001    0.8821608065916564 Si
   0.3821608065916564    0.5000000000000001    0.3821608065916564 Si
   0.8821608065916564    0.0000000000000001    0.6178391934083436 Si
   0.8821608065916564    0.5000000000000001    0.1178391934083436 Si
   0.1178391934083436    0.0000000000000000    0.3821608065916564 Si
   0.1178391934083436    0.5000000000000000    0.8821608065916564 Si
