Li16 Al8 Pt8
1.0
   6.0303134788309185    0.0000000000000000   -6.0303134788309176
   0.0000000000000019   12.0606269576618370   -6.0303134788309185
   0.0000000000000000    0.0000000000000000    6.0303134788309185
Li Al Pt
16 8 8
direct
   0.7499999999999999    0.3750000000000001    0.3750000000000000 Li
   0.7499999999999999    0.8750000000000002    0.8750000000000000 Li
   0.0000000000000000    0.0000000000000001    0.4999999999999999 Li
   0.0000000000000000    0.5000000000000001    0.0000000000000000 Li
   0.2500000000000000    0.1250000000000001    0.6250000000000000 Li
   0.2500000000000000    0.6250000000000001    0.1250000000000000 Li
   0.4999999999999999    0.2500000000000001    0.2500000000000000 Li
   0.4999999999999999    0.7500000000000002    0.7500000000000000 Li
   0.7499999999999999    0.1250000000000001    0.6249999999999998 Li
   0.7499999999999999    0.6250000000000001    0.1250000000000000 Li
   0.0000000000000000    0.2500000000000000    0.2500000000000000 Li
   0.0000000000000000    0.7500000000000000    0.7500000000000000 Li
   0.2500000000000000    0.3750000000000002    0.3749999999999998 Li
   0.2500000000000000    0.8750000000000002    0.8750000000000000 Li
   0.4999999999999999    0.0000000000000000    0.4999999999999999 Li
   0.4999999999999999    0.5000000000000000    0.0000000000000000 Li
   0.0000000000000000    0.0000000000000000    0.0000000000000000 Al
   0.0000000000000000    0.5000000000000000    0.5000000000000000 Al
   0.4999999999999999    0.2500000000000000    0.7500000000000000 Al
   0.4999999999999999    0.7500000000000000    0.2500000000000000 Al
   0.0000000000000000    0.2500000000000001    0.7500000000000000 Al
   0.0000000000000000    0.7500000000000001    0.2500000000000000 Al
   0.4999999999999999    0.0000000000000001    0.9999999999999999 Al
   0.4999999999999999    0.5000000000000001    0.5000000000000000 Al
   0.2500000000000000    0.3750000000000001    0.8750000000000000 Pt
   0.2500000000000000    0.8750000000000001    0.3750000000000000 Pt
   0.7499999999999999    0.1250000000000001    0.1250000000000000 Pt
   0.7499999999999999    0.6250000000000001    0.6250000000000000 Pt
   0.2500000000000000    0.1250000000000001    0.1249999999999998 Pt
   0.2500000000000000    0.6250000000000001    0.6249999999999998 Pt
   0.7499999999999999    0.3750000000000002    0.8749999999999998 Pt
   0.7499999999999999    0.8750000000000002    0.3750000000000000 Pt
