Ca4 Co4 Si4
1.0
   3.8933488319709113    0.0000000000000000    0.0000000000000002
  -0.0000000000000022    7.7866976639418235    7.5592786738712121
   0.0000000000000000    0.0000000000000000    7.5592786738712130
Ca Co Si
4 4 4
direct
   0.5000000000000000    0.5000000000000000    0.8172199527073616 Ca
   0.5000000000000000    0.0000000000000000    0.3172199527073616 Ca
   0.0000000000000000    0.2500000000000000    0.4327800472926384 Ca
   0.0000000000000000    0.7500000000000000    0.9327800472926384 Ca
   0.0000000000000000    0.5000000000000000    0.5000000000000000 Co
   0.0000000000000000    0.0000000000000000    0.0000000000000000 Co
   0.5000000000000000    0.2500000000000000    0.7500000000000000 Co
   0.5000000000000000    0.7500000000000000    0.2500000000000000 Co
   0.5000000000000000    0.5000000000000000    0.3422975895488352 Si
   0.5000000000000000    0.0000000000000000    0.8422975895488350 Si
   0.0000000000000000    0.2500000000000000    0.9077024104511652 Si
   0.0000000000000000    0.7500000000000000    0.4077024104511651 Si
