Y8 Mg4 Ni8
1.0
   7.3925623248866437    0.0000000000000000    0.0000000000000005
  -0.0000000000000005    7.4584217007044575   -7.3925623248866410
   0.0000000000000000    0.0000000000000000    7.3925623248866437
Y Mg Ni
8 4 8
direct
   0.6736979060030561    0.2500000000000001    0.4236979060030563 Y
   0.6736979060030561    0.7500000000000001    0.9236979060030563 Y
   0.8263020939969438    0.2500000000000001    0.9236979060030561 Y
   0.8263020939969438    0.7500000000000001    0.4236979060030561 Y
   0.1736979060030562    0.2500000000000001    0.5763020939969437 Y
   0.1736979060030562    0.7500000000000001    0.0763020939969439 Y
   0.3263020939969437    0.2500000000000001    0.0763020939969437 Y
   0.3263020939969437    0.7500000000000001    0.5763020939969439 Y
   0.4999999999999999    0.0000000000000000    0.4999999999999999 Mg
   0.4999999999999999    0.5000000000000001    0.0000000000000000 Mg
   0.0000000000000000    0.0000000000000000    0.0000000000000000 Mg
   0.0000000000000000    0.5000000000000000    0.5000000000000000 Mg
   0.6192872750628239    0.0000000000000000    0.8807127249371761 Ni
   0.6192872750628239    0.5000000000000001    0.3807127249371762 Ni
   0.8807127249371759    0.0000000000000000    0.3807127249371760 Ni
   0.8807127249371759    0.5000000000000000    0.8807127249371760 Ni
   0.1192872750628240    0.0000000000000000    0.6192872750628239 Ni
   0.1192872750628240    0.5000000000000001    0.1192872750628240 Ni
   0.3807127249371760    0.0000000000000000    0.1192872750628240 Ni
   0.3807127249371760    0.5000000000000001    0.6192872750628241 Ni
