Mg8 Zn8 Cu8
1.0
   7.2066686526644474    0.0000000000000000    0.0000000000000004
   7.1456329840087811    7.2064101823618234    7.1331809005119178
   0.0000000000000000    0.0000000000000000    7.1331809005119187
Mg Zn Cu
8 8 8
direct
   0.2500000000000000    0.1250000000000000    0.7526922272067509 Mg
   0.2500000000000000    0.6250000000000000    0.2526922272067509 Mg
   0.7500000000000000    0.8750000000000000    0.2473077727932493 Mg
   0.7500000000000000    0.3750000000000000    0.7473077727932490 Mg
   0.7500000000000000    0.1250000000000000    0.2526922272067509 Mg
   0.7500000000000000    0.6250000000000000    0.7526922272067509 Mg
   0.2500000000000000    0.3750000000000000    0.2473077727932491 Mg
   0.2500000000000000    0.8750000000000000    0.7473077727932491 Mg
   0.4999999999999999    0.0000000000000000    0.5000000000000002 Zn
   0.4999999999999999    0.5000000000000000    0.0000000000000000 Zn
   0.4999999999999999    0.2500000000000000    0.7500000000000000 Zn
   0.4999999999999999    0.7500000000000000    0.2500000000000000 Zn
   0.0000000000000000    0.5000000000000000    0.5000000000000000 Zn
   0.0000000000000000    0.0000000000000000    0.0000000000000000 Zn
   0.0000000000000000    0.2500000000000000    0.2500000000000002 Zn
   0.0000000000000000    0.7500000000000000    0.7500000000000000 Zn
   0.2500000000000000    0.2500000000000000    0.9999999999999999 Cu
   0.2500000000000000    0.7500000000000000    0.5000000000000000 Cu
   0.7500000000000000    0.0000000000000000    0.7500000000000000 Cu
   0.7500000000000000    0.4999999999999999    0.2500000000000000 Cu
   0.7500000000000000    0.7500000000000000    0.0000000000000000 Cu
   0.7500000000000000    0.2500000000000000    0.5000000000000000 Cu
   0.2500000000000000    0.0000000000000000    0.2500000000000000 Cu
   0.2500000000000000    0.5000000000000000    0.7500000000000000 Cu
