Zn8 Cu4 Au4
1.0
   4.5973851819657510    0.0000000000000000    0.0000000000000003
   0.0000000000000018   11.4869897954644831   -4.4520067668649350
   0.0000000000000000    0.0000000000000000    4.4520067668649350
Zn Cu Au
8 4 4
direct
   0.1904273988809067    0.3749967290827989    0.8749967290827988 Zn
   0.1904273988809067    0.8749967290827988    0.3749967290827989 Zn
   0.1904273988809067    0.1250032709172011    0.6250032709172011 Zn
   0.1904273988809067    0.6250032709172010    0.1250032709172011 Zn
   0.8095726011190933    0.1249967290827989    0.1249967290827989 Zn
   0.8095726011190933    0.6249967290827989    0.6249967290827989 Zn
   0.8095726011190933    0.3750032709172011    0.3750032709172011 Zn
   0.8095726011190933    0.8750032709172011    0.8750032709172011 Zn
   0.3053757838478290    0.2500000000000000    0.2500000000000000 Cu
   0.3053757838478290    0.7500000000000000    0.7500000000000000 Cu
   0.6946242161521710    0.0000000000000000    0.5000000000000000 Cu
   0.6946242161521710    0.4999999999999999    0.0000000000000000 Cu
   0.6875281589834259    0.2500000000000000    0.7500000000000000 Au
   0.6875281589834259    0.7500000000000000    0.2500000000000000 Au
   0.3124718410165741    0.0000000000000000    0.0000000000000000 Au
   0.3124718410165741    0.4999999999999999    0.4999999999999999 Au
