Sr2 Cd4 Sb4
1.0
   8.3080223755379379    0.0000000000000000    0.0000000000000005
  -0.0000000000000005    7.8991571424931486    4.7966389549502617
   0.0000000000000000    0.0000000000000000    4.7966389549502626
Sr Cd Sb
2 4 4
direct
   0.5000000000000000    0.0000000000000000    0.5000000000000000 Sr
   0.0000000000000000    0.0000000000000000    0.0000000000000000 Sr
   0.1666666666666667    0.6321675705725694    0.8678324294274306 Cd
   0.6666666666666667    0.6321675705725694    0.3678324294274306 Cd
   0.3333333333333334    0.3678324294274306    0.6321675705725693 Cd
   0.8333333333333334    0.3678324294274306    0.1321675705725694 Cd
   0.1666666666666667    0.2505048703454022    0.2494951296545978 Sb
   0.6666666666666667    0.2505048703454022    0.7494951296545977 Sb
   0.3333333333333334    0.7494951296545977    0.2505048703454021 Sb
   0.8333333333333334    0.7494951296545977    0.7505048703454023 Sb
