Cs2 Fe4 As4
1.0
   3.7853218463660161    0.0000000000000000    0.0000000000000002
   0.0000000000000006    3.7853218463660161    0.0000000000000002
   0.0000000000000000    0.0000000000000000   15.5035667241625390
Cs Fe As
2 4 4
direct
   0.0000000000000000    0.0000000000000000    0.0000000000000000 Cs
   0.4999999999999999    0.5000000000000000    0.4999999999999999 Cs
   0.0000000000000000    0.5000000000000000    0.2500000000000000 Fe
   0.5000000000000000    0.0000000000000000    0.2500000000000000 Fe
   0.5000000000000000    0.0000000000000000    0.7499999999999999 Fe
   0.0000000000000000    0.5000000000000000    0.7499999999999999 Fe
   0.4999999999999999    0.5000000000000000    0.1608509220441636 As
   0.0000000000000000    0.0000000000000000    0.3391490779558364 As
   0.0000000000000000    0.0000000000000000    0.6608509220441635 As
   0.4999999999999999    0.5000000000000000    0.8391490779558363 As
