Hf4 Zr4 Fe16
1.0
   7.0057579481924348    0.0000000000000000    0.0000000000000004
   0.0000000000000011    7.0057579481924357   -7.0057579481924339
   0.0000000000000000    0.0000000000000000    7.0057579481924348
Hf Zr Fe
4 4 16
direct
   0.0000000000000000    0.0000000000000000    0.0000000000000000 Hf
   0.5000000000000000    0.5000000000000000    0.5000000000000000 Hf
   0.5000000000000000    0.0000000000000000    0.5000000000000000 Hf
   0.0000000000000000    0.5000000000000000    0.0000000000000000 Hf
   0.2500000000000000    0.2500000000000000    0.0000000000000001 Zr
   0.7500000000000000    0.7500000000000000    0.5000000000000000 Zr
   0.7500000000000000    0.2500000000000000    0.5000000000000000 Zr
   0.2500000000000000    0.7500000000000000    0.0000000000000000 Zr
   0.3748296639813657    0.1251703360186341    0.2503406720372683 Fe
   0.3748296639813659    0.8748296639813659    0.7496593279627317 Fe
   0.1251703360186340    0.1251703360186341    0.5000000000000000 Fe
   0.1251703360186341    0.8748296639813659    0.5000000000000000 Fe
   0.8748296639813660    0.6251703360186340    0.7503406720372683 Fe
   0.8748296639813660    0.3748296639813659    0.2496593279627317 Fe
   0.6251703360186340    0.6251703360186340    0.0000000000000000 Fe
   0.6251703360186340    0.3748296639813659    0.0000000000000000 Fe
   0.8748296639813660    0.1251703360186341    0.7503406720372683 Fe
   0.8748296639813660    0.8748296639813659    0.2496593279627317 Fe
   0.6251703360186340    0.1251703360186341    0.0000000000000001 Fe
   0.6251703360186340    0.8748296639813659    0.0000000000000000 Fe
   0.3748296639813659    0.6251703360186340    0.2503406720372681 Fe
   0.3748296639813659    0.3748296639813659    0.7496593279627315 Fe
   0.1251703360186341    0.6251703360186340    0.5000000000000000 Fe
   0.1251703360186340    0.3748296639813659    0.5000000000000000 Fe
