Ba2 Zn2 Ge2
1.0
   9.8409287676830264    0.0000000000000000    0.0000000000000006
   0.0000000000000006    3.8743449936937484   -6.7105623751277017
   0.0000000000000000    0.0000000000000000    4.4737082500851333
Ba Zn Ge
2 2 2
direct
   0.0000000000000000    0.0000000000000000    0.0000000000000000 Ba
   0.5000000000000000    0.0000000000000000    0.0000000000000000 Ba
   0.2499999999999999    0.3333333333333334    0.0000000000000000 Zn
   0.7500000000000000    0.6666666666666665    0.9999999999999998 Zn
   0.2499999999999999    0.6666666666666667    0.0000000000000000 Ge
   0.7500000000000000    0.3333333333333331    0.9999999999999998 Ge
