K16 Bi8 Au8
1.0
   6.8005270793577832    0.0000000000000000    0.0000000000000004
  -0.0000000000000010   15.9483414159852739   10.8630645453496264
   0.0000000000000000    0.0000000000000000   10.8630645453496264
K Bi Au
16 8 8
direct
   0.2500000000000000    0.1606661227557699    0.6686678747140401 K
   0.2499999999999999    0.6606661227557699    0.1686678747140402 K
   0.7500000000000000    0.3393338772442300    0.4900001202255800 K
   0.7500000000000000    0.8393338772442300    0.9900001202255800 K
   0.7500000000000000    0.3393338772442300    0.8313321252859602 K
   0.7500000000000000    0.8393338772442299    0.3313321252859601 K
   0.2500000000000000    0.1606661227557699    0.0099998797744202 K
   0.2500000000000000    0.6606661227557699    0.5099998797744202 K
   0.2500000000000000    0.4106661227557700    0.9186678747140400 K
   0.2500000000000000    0.9106661227557699    0.4186678747140400 K
   0.7500000000000000    0.0893338772442300    0.2400001202255799 K
   0.7500000000000000    0.5893338772442299    0.7400001202255799 K
   0.7500000000000000    0.0893338772442300    0.5813321252859600 K
   0.7500000000000000    0.5893338772442300    0.0813321252859601 K
   0.2500000000000000    0.4106661227557700    0.2599998797744201 K
   0.2500000000000000    0.9106661227557700    0.7599998797744201 K
   0.2500000000000000    0.3621799855029257    0.6378200144970743 Bi
   0.2500000000000000    0.8621799855029256    0.1378200144970743 Bi
   0.7500000000000000    0.1378200144970743    0.8621799855029257 Bi
   0.7500000000000000    0.6378200144970743    0.3621799855029257 Bi
   0.2500000000000000    0.1121799855029257    0.3878200144970743 Bi
   0.2500000000000000    0.6121799855029256    0.8878200144970743 Bi
   0.7500000000000000    0.3878200144970743    0.1121799855029257 Bi
   0.7500000000000000    0.8878200144970742    0.6121799855029257 Bi
   0.5000000000000000    0.0000000000000000    0.0000000000000000 Au
   0.5000000000000000    0.4999999999999999    0.5000000000000000 Au
   0.0000000000000000    0.0000000000000000    0.0000000000000000 Au
   0.0000000000000000    0.4999999999999999    0.5000000000000000 Au
   0.5000000000000000    0.2500000000000000    0.2500000000000000 Au
   0.5000000000000000    0.7499999999999999    0.7500000000000000 Au
   0.0000000000000000    0.2500000000000000    0.2500000000000000 Au
   0.0000000000000000    0.7499999999999999    0.7500000000000000 Au
