Zr4 Ga6 Cu2
1.0
   6.6094060634340170    0.0000000000000000    0.0000000000000004
   6.5789464981468120    7.4958943591972380    8.3243118344542655
   0.0000000000000000    0.0000000000000000    4.1621559172271327
Zr Ga Cu
4 6 2
direct
   0.7980058670913381    0.9592644501199243    0.5814710997601518 Zr
   0.2082523281025744    0.0441689484527343    0.4116621030945313 Zr
   0.7980058670913381    0.4592644501199242    0.0814710997601515 Zr
   0.2082523281025744    0.5441689484527343    0.9116621030945313 Zr
   0.3847818679439062    0.1491746463668291    0.7016507072663418 Ga
   0.7929376935779986    0.6739530355716106    0.1520939288567789 Ga
   0.2043632255930451    0.3401129770020856    0.8197740459958287 Ga
   0.3847818679439062    0.6491746463668291    0.2016507072663418 Ga
   0.7929376935779986    0.1739530355716105    0.6520939288567789 Ga
   0.2043632255930451    0.8401129770020856    0.3197740459958287 Ga
   0.6116590176911312    0.8333269224868122    0.3333461550263757 Cu
   0.6116590176911312    0.3333269224868120    0.8333461550263761 Cu
