Ca2 Ni4 As4
1.0
   9.9787865516309626    0.0000000000000000    0.0000000000000006
   0.0000000000000007    4.1107101285124390   -4.1107101285124381
   0.0000000000000000    0.0000000000000000    4.1107101285124390
Ca Ni As
2 4 4
direct
   0.0000000000000000    0.0000000000000000    0.0000000000000000 Ca
   0.5000000000000000    0.5000000000000000    0.0000000000000000 Ca
   0.7500000000000000    0.5000000000000000    0.5000000000000000 Ni
   0.7500000000000000    0.0000000000000000    0.5000000000000000 Ni
   0.2499999999999999    0.0000000000000000    0.5000000000000000 Ni
   0.2499999999999999    0.5000000000000000    0.5000000000000000 Ni
   0.6323106413893029    0.0000000000000000    0.0000000000000000 As
   0.8676893586106971    0.5000000000000000    0.0000000000000000 As
   0.1323106413893029    0.5000000000000000    0.0000000000000000 As
   0.3676893586106970    0.0000000000000000    0.0000000000000000 As
