Li16 Ga8 Au8
1.0
   6.2457564916368007    0.0000000000000000   -6.2457564916367998
   0.0000000000000020   12.4915129832736014   -6.2457564916368007
   0.0000000000000000    0.0000000000000000    6.2457564916368007
Li Ga Au
16 8 8
direct
   0.2500000000000000    0.3749999999999999    0.8749999999999999 Li
   0.2500000000000000    0.8750000000000000    0.3750000000000000 Li
   0.0000000000000000    0.0000000000000000    0.5000000000000000 Li
   0.0000000000000000    0.4999999999999999    0.0000000000000000 Li
   0.7500000000000000    0.1249999999999999    0.1249999999999998 Li
   0.7500000000000000    0.6250000000000000    0.6249999999999998 Li
   0.5000000000000000    0.2499999999999999    0.2499999999999998 Li
   0.5000000000000000    0.7499999999999999    0.7499999999999998 Li
   0.2500000000000000    0.1250000000000000    0.1250000000000000 Li
   0.2500000000000000    0.6250000000000000    0.6250000000000000 Li
   0.0000000000000000    0.2500000000000000    0.2500000000000000 Li
   0.0000000000000000    0.7500000000000000    0.7500000000000000 Li
   0.7500000000000000    0.3749999999999999    0.8749999999999998 Li
   0.7500000000000000    0.8749999999999999    0.3750000000000000 Li
   0.5000000000000000    0.0000000000000000    0.4999999999999999 Li
   0.5000000000000000    0.4999999999999999    0.9999999999999999 Li
   0.0000000000000000    0.0000000000000000    0.0000000000000000 Ga
   0.0000000000000000    0.5000000000000000    0.5000000000000000 Ga
   0.5000000000000000    0.2499999999999999    0.7499999999999999 Ga
   0.5000000000000000    0.7499999999999999    0.2499999999999998 Ga
   0.0000000000000000    0.2500000000000000    0.7500000000000000 Ga
   0.0000000000000000    0.7500000000000000    0.2500000000000000 Ga
   0.5000000000000000    0.0000000000000000    0.9999999999999998 Ga
   0.5000000000000000    0.4999999999999999    0.4999999999999998 Ga
   0.7500000000000000    0.3749999999999999    0.3749999999999998 Au
   0.7500000000000000    0.8750000000000000    0.8749999999999998 Au
   0.2500000000000000    0.1250000000000000    0.6249999999999999 Au
   0.2500000000000000    0.6249999999999999    0.1249999999999998 Au
   0.7500000000000000    0.1249999999999999    0.6249999999999998 Au
   0.7500000000000000    0.6249999999999999    0.1250000000000000 Au
   0.2500000000000000    0.3749999999999999    0.3749999999999998 Au
   0.2500000000000000    0.8750000000000000    0.8750000000000000 Au
