Y8 Zr8 Sb8
1.0
   8.5573851009155479    0.0000000000000000   -4.2786925504577740
   0.0000000000000027   16.6375237472804578   -4.2786925504577775
   0.0000000000000000    0.0000000000000000    4.2786925504577749
Y Zr Sb
8 8 8
direct
   0.0000000000000000    0.3235841405965444    0.3235841405965444 Y
   0.5000000000000000    0.3235841405965445    0.8235841405965445 Y
   0.2500000000000000    0.1764158594034556    0.9264158594034556 Y
   0.7500000000000000    0.1764158594034557    0.4264158594034557 Y
   0.2500000000000000    0.8235841405965446    0.5735841405965445 Y
   0.7500000000000000    0.8235841405965446    0.0735841405965449 Y
   0.0000000000000000    0.6764158594034555    0.6764158594034555 Y
   0.5000000000000000    0.6764158594034555    0.1764158594034557 Y
   0.0000000000000000    0.0000000000000000    0.5000000000000000 Zr
   0.5000000000000000    0.0000000000000001    0.0000000000000000 Zr
   0.2500000000000000    0.0000000000000000    0.2500000000000000 Zr
   0.7500000000000000    0.0000000000000001    0.7500000000000001 Zr
   0.2500000000000000    0.5000000000000000    0.7500000000000000 Zr
   0.7500000000000000    0.5000000000000001    0.2500000000000002 Zr
   0.0000000000000000    0.5000000000000000    0.0000000000000000 Zr
   0.5000000000000000    0.5000000000000001    0.5000000000000000 Zr
   0.0000000000000000    0.1329869801127259    0.1329869801127259 Sb
   0.5000000000000000    0.1329869801127259    0.6329869801127260 Sb
   0.2500000000000000    0.3670130198872742    0.1170130198872741 Sb
   0.7500000000000000    0.3670130198872742    0.6170130198872743 Sb
   0.2500000000000000    0.6329869801127260    0.3829869801127259 Sb
   0.7500000000000000    0.6329869801127260    0.8829869801127261 Sb
   0.0000000000000000    0.8670130198872741    0.8670130198872741 Sb
   0.5000000000000000    0.8670130198872742    0.3670130198872743 Sb
