Ti16 Mn8 Be8
1.0
   5.9283345417997602    0.0000000000000000    0.0000000000000004
   0.0000000000000019   11.8566690835995203   -5.9283345417997602
   0.0000000000000000    0.0000000000000000    5.9283345417997602
Ti Mn Be
16 8 8
direct
   0.2500000000000000    0.1250000000000000    0.8750000000000000 Ti
   0.2500000000000000    0.6250000000000000    0.3750000000000000 Ti
   0.2499999999999999    0.3750000000000000    0.1250000000000000 Ti
   0.2500000000000000    0.8750000000000000    0.6250000000000000 Ti
   0.7500000000000000    0.3750000000000000    0.1250000000000000 Ti
   0.7500000000000000    0.8750000000000000    0.6250000000000000 Ti
   0.7500000000000000    0.1250000000000000    0.8750000000000000 Ti
   0.7500000000000000    0.6250000000000000    0.3750000000000000 Ti
   0.7500000000000000    0.1250000000000000    0.3750000000000000 Ti
   0.7500000000000000    0.6250000000000000    0.8749999999999998 Ti
   0.7500000000000000    0.3750000000000000    0.6250000000000000 Ti
   0.7500000000000000    0.8750000000000000    0.1250000000000000 Ti
   0.2500000000000000    0.3750000000000000    0.6250000000000000 Ti
   0.2500000000000000    0.8750000000000000    0.1250000000000000 Ti
   0.2499999999999999    0.1250000000000000    0.3750000000000000 Ti
   0.2499999999999999    0.6250000000000000    0.8749999999999998 Ti
   0.0000000000000000    0.5000000000000000    0.5000000000000000 Mn
   0.0000000000000000    0.0000000000000000    0.0000000000000000 Mn
   0.5000000000000000    0.2500000000000000    0.2500000000000000 Mn
   0.5000000000000000    0.7500000000000000    0.7500000000000000 Mn
   0.5000000000000000    0.5000000000000000    0.0000000000000000 Mn
   0.5000000000000000    0.0000000000000000    0.5000000000000000 Mn
   0.0000000000000000    0.2500000000000000    0.7500000000000000 Mn
   0.0000000000000000    0.7500000000000000    0.2500000000000000 Mn
   0.0000000000000000    0.5000000000000000    0.0000000000000000 Be
   0.0000000000000000    0.0000000000000000    0.5000000000000000 Be
   0.5000000000000000    0.2500000000000000    0.7500000000000000 Be
   0.5000000000000000    0.7500000000000000    0.2500000000000000 Be
   0.5000000000000000    0.5000000000000000    0.5000000000000000 Be
   0.5000000000000000    0.0000000000000000    0.0000000000000000 Be
   0.0000000000000000    0.2500000000000000    0.2500000000000000 Be
   0.0000000000000000    0.7500000000000000    0.7500000000000000 Be
