Y2 Al4 Pd10
1.0
  14.9836297278073083    0.0000000000000000    0.0000000000000009
   0.0000000000000007    4.1440411301450997   -4.1440411301450988
   0.0000000000000000    0.0000000000000000    4.1440411301450997
Y Al Pd
2 4 10
direct
   0.0000000000000000    0.0000000000000000    0.0000000000000000 Y
   0.5000000000000000    0.5000000000000000    0.0000000000000000 Y
   0.7532975256709520    0.5000000000000000    0.0000000000000000 Al
   0.7467024743290480    0.0000000000000000    0.0000000000000000 Al
   0.2532975256709519    0.0000000000000000    0.0000000000000000 Al
   0.2467024743290479    0.5000000000000000    0.0000000000000000 Al
   0.0000000000000000    0.5000000000000000    0.0000000000000000 Pd
   0.6446836120040800    0.5000000000000000    0.5000000000000000 Pd
   0.6446836120040800    0.0000000000000000    0.5000000000000000 Pd
   0.8553163879959200    0.0000000000000000    0.5000000000000000 Pd
   0.8553163879959200    0.5000000000000000    0.5000000000000000 Pd
   0.5000000000000000    0.0000000000000000    0.0000000000000000 Pd
   0.1446836120040800    0.0000000000000000    0.5000000000000000 Pd
   0.1446836120040800    0.5000000000000000    0.5000000000000000 Pd
   0.3553163879959199    0.5000000000000000    0.5000000000000000 Pd
   0.3553163879959199    0.0000000000000000    0.5000000000000000 Pd
