Hf4 Ni8 Sb4
1.0
   3.6523323018821880    0.0000000000000000   -6.3260251129849481
  -0.0000000000000047   16.5462424145800604   -4.2173500753232966
   0.0000000000000000    0.0000000000000000    4.2173500753232975
Hf Ni Sb
4 8 4
direct
   0.6666666666666666    0.1250000000000000    0.1250000000000000 Hf
   0.6666666666666666    0.6250000000000000    0.6250000000000000 Hf
   0.3333333333333333    0.3749999999999999    0.3750000000000000 Hf
   0.3333333333333333    0.8749999999999999    0.8750000000000000 Hf
   0.6666666666666666    0.4515426856324502    0.4515426856324503 Ni
   0.6666666666666666    0.9515426856324501    0.9515426856324503 Ni
   0.3333333333333333    0.0484573143675497    0.0484573143675497 Ni
   0.3333333333333333    0.5484573143675497    0.5484573143675497 Ni
   0.3333333333333333    0.2015426856324502    0.2015426856324503 Ni
   0.3333333333333333    0.7015426856324501    0.7015426856324503 Ni
   0.6666666666666667    0.2984573143675497    0.2984573143675497 Ni
   0.6666666666666667    0.7984573143675496    0.7984573143675497 Ni
   0.0000000000000000    0.2500000000000000    0.2500000000000000 Sb
   0.0000000000000000    0.7499999999999999    0.7499999999999999 Sb
   0.0000000000000000    0.0000000000000000    0.0000000000000000 Sb
   0.0000000000000000    0.5000000000000000    0.5000000000000000 Sb
