Nb2 Ni12 Mo2
1.0
   8.4941553418512559    0.0000000000000000    4.5051779574637800
   4.2470776709256288    5.0704392990588802   -0.0000000000000011
   0.0000000000000000    0.0000000000000000    4.5051779574637818
Nb Ni Mo
2 12 2
direct
   0.5000000000000001    0.0000000000000000    0.8460688477735449 Nb
   0.0000000000000000    0.0000000000000000    0.3460688477735447 Nb
   0.2500000000000002    0.5000000000000000    0.0830702770292435 Ni
   0.7500000000000000    0.5000000000000000    0.5830702770292435 Ni
   0.2500000000000001    0.0000000000000000    0.4283374986966495 Ni
   0.7500000000000000    0.0000000000000000    0.9283374986966495 Ni
   0.8772272992568447    0.7455454014863108    0.2801332786225219 Ni
   0.3772272992568447    0.7455454014863108    0.7801332786225218 Ni
   0.1227727007431555    0.2544545985136892    0.0345878771362111 Ni
   0.6227727007431554    0.2544545985136892    0.5345878771362110 Ni
   0.1277454673999827    0.7445090652000346    0.7106428912834704 Ni
   0.6277454673999827    0.7445090652000346    0.2106428912834704 Ni
   0.3722545326000173    0.2554909347999654    0.4661338260834358 Ni
   0.8722545326000173    0.2554909347999654    0.9661338260834358 Ni
   0.0000000000000001    0.5000000000000000    0.6510245133749140 Mo
   0.5000000000000000    0.5000000000000000    0.1510245133749140 Mo
