Li16 Cu8 Ge8
1.0
   5.9579831178080509    0.0000000000000000    0.0000000000000004
   0.0000000000000019   11.9159662356161018   -5.9579831178080509
   0.0000000000000000    0.0000000000000000    5.9579831178080509
Li Cu Ge
16 8 8
direct
   0.2500000000000000    0.3750000000000000    0.1250000000000000 Li
   0.2500000000000001    0.8750000000000000    0.6250000000000000 Li
   0.0000000000000000    0.5000000000000000    0.0000000000000000 Li
   0.0000000000000000    0.0000000000000000    0.5000000000000000 Li
   0.7500000000000000    0.1250000000000000    0.8750000000000000 Li
   0.7500000000000000    0.6250000000000000    0.3750000000000000 Li
   0.5000000000000000    0.2500000000000000    0.7500000000000000 Li
   0.5000000000000000    0.7500000000000000    0.2500000000000000 Li
   0.7500000000000000    0.3750000000000000    0.6250000000000001 Li
   0.7500000000000000    0.8750000000000000    0.1250000000000000 Li
   0.5000000000000000    0.5000000000000000    0.5000000000000000 Li
   0.5000000000000000    0.0000000000000000    0.0000000000000000 Li
   0.2499999999999999    0.1250000000000000    0.3750000000000000 Li
   0.2500000000000000    0.6250000000000000    0.8750000000000000 Li
   0.0000000000000000    0.2500000000000000    0.2500000000000000 Li
   0.0000000000000000    0.7500000000000000    0.7500000000000000 Li
   0.2499999999999999    0.1250000000000000    0.8750000000000000 Cu
   0.2499999999999999    0.6250000000000000    0.3750000000000000 Cu
   0.7500000000000000    0.3750000000000000    0.1250000000000000 Cu
   0.7500000000000000    0.8750000000000000    0.6250000000000000 Cu
   0.7500000000000000    0.1250000000000000    0.3750000000000000 Cu
   0.7500000000000000    0.6250000000000000    0.8750000000000000 Cu
   0.2499999999999999    0.3750000000000000    0.6250000000000001 Cu
   0.2499999999999999    0.8750000000000000    0.1250000000000000 Cu
   0.0000000000000000    0.5000000000000000    0.5000000000000000 Ge
   0.0000000000000000    0.0000000000000000    0.0000000000000000 Ge
   0.5000000000000000    0.2500000000000000    0.2500000000000000 Ge
   0.5000000000000000    0.7500000000000000    0.7500000000000000 Ge
   0.5000000000000000    0.5000000000000000    0.0000000000000000 Ge
   0.5000000000000000    0.0000000000000000    0.5000000000000000 Ge
   0.0000000000000000    0.2500000000000000    0.7500000000000000 Ge
   0.0000000000000000    0.7500000000000000    0.2500000000000000 Ge
