Si2 Sn2 Pd10
1.0
   4.0052764483736354    0.0000000000000000    0.0000000000000002
   0.0000000000000023   14.0071833330805049   -4.0052764483736354
   0.0000000000000000    0.0000000000000000    4.0052764483736354
Si Sn Pd
2 2 10
direct
   0.0000000000000000    0.2500000000000000    0.2500000000000000 Si
   0.0000000000000000    0.7499999999999999    0.7499999999999999 Si
   0.5000000000000000    0.0000000000000000    0.4999999999999999 Sn
   0.5000000000000000    0.4999999999999999    0.9999999999999999 Sn
   0.0000000000000000    0.0000000000000000    0.0000000000000000 Pd
   0.0000000000000000    0.4999999999999999    0.4999999999999999 Pd
   0.0000000000000000    0.3520864832116251    0.8520864832116252 Pd
   0.0000000000000000    0.8520864832116252    0.3520864832116251 Pd
   0.5000000000000000    0.3520864832116252    0.3520864832116252 Pd
   0.5000000000000000    0.8520864832116252    0.8520864832116252 Pd
   0.0000000000000000    0.1479135167883747    0.6479135167883747 Pd
   0.0000000000000000    0.6479135167883747    0.1479135167883747 Pd
   0.5000000000000000    0.1479135167883748    0.1479135167883748 Pd
   0.5000000000000000    0.6479135167883747    0.6479135167883747 Pd
