Ba8 In16 Pd8
1.0
  12.8825934462390990    0.0000000000000000    0.0000000000000008
   3.2818539879078736    8.5899368888440932    8.1364145152624765
   0.0000000000000000    0.0000000000000000    8.1364145152624747
Ba In Pd
8 16 8
direct
   0.4512301159990387    0.2743849420004806    0.9756150579995194 Ba
   0.4512301159990387    0.7743849420004807    0.4756150579995194 Ba
   0.0487698840009614    0.2256150579995193    0.5243849420004807 Ba
   0.0487698840009614    0.7256150579995193    0.0243849420004807 Ba
   0.9512301159990386    0.7743849420004807    0.4756150579995195 Ba
   0.9512301159990386    0.2743849420004806    0.9756150579995194 Ba
   0.5487698840009614    0.2256150579995193    0.5243849420004807 Ba
   0.5487698840009614    0.7256150579995193    0.0243849420004807 Ba
   0.1662875511030890    0.4168562244484555    0.6404731699591756 In
   0.1662875511030890    0.9168562244484555    0.1404731699591757 In
   0.3337124488969110    0.0831437755515445    0.8595268300408245 In
   0.3337124488969110    0.5831437755515445    0.3595268300408243 In
   0.3337124488969110    0.0831437755515445    0.4741856188560865 In
   0.3337124488969110    0.5831437755515445    0.9741856188560867 In
   0.1662875511030890    0.4168562244484555    0.0258143811439133 In
   0.1662875511030890    0.9168562244484555    0.5258143811439133 In
   0.6662875511030891    0.9168562244484554    0.1404731699591757 In
   0.6662875511030891    0.4168562244484554    0.6404731699591758 In
   0.8337124488969110    0.0831437755515445    0.8595268300408245 In
   0.8337124488969110    0.5831437755515445    0.3595268300408243 In
   0.8337124488969110    0.0831437755515445    0.4741856188560867 In
   0.8337124488969110    0.5831437755515445    0.9741856188560868 In
   0.6662875511030891    0.9168562244484554    0.5258143811439133 In
   0.6662875511030891    0.4168562244484554    0.0258143811439133 In
   0.2248900458587464    0.1375549770706268    0.1124450229293734 Pd
   0.2248900458587464    0.6375549770706268    0.6124450229293732 Pd
   0.2751099541412536    0.3624450229293731    0.3875549770706268 Pd
   0.2751099541412536    0.8624450229293732    0.8875549770706268 Pd
   0.7248900458587464    0.1375549770706267    0.1124450229293734 Pd
   0.7248900458587464    0.6375549770706268    0.6124450229293732 Pd
   0.7751099541412537    0.8624450229293732    0.8875549770706268 Pd
   0.7751099541412537    0.3624450229293731    0.3875549770706268 Pd
