Ba4 As4 Pd4
1.0
   7.6114500189698280    0.0000000000000000   -8.7889454347512252
  -0.0000000000000027    9.6201963953611145   -4.3944727173756108
   0.0000000000000000    0.0000000000000000    4.3944727173756126
Ba As Pd
4 4 4
direct
   0.5000000000000000    0.5000000000000000    0.0000000000000000 Ba
   0.0000000000000000    0.0000000000000000    0.0000000000000000 Ba
   0.0000000000000000    0.4999999999999999    0.4999999999999999 Ba
   0.5000000000000000    0.0000000000000000    0.5000000000000000 Ba
   0.6666666666666666    0.7500000000000000    0.0833333333333335 As
   0.1666666666666667    0.2499999999999999    0.0833333333333333 As
   0.1666666666666667    0.7500000000000000    0.5833333333333335 As
   0.6666666666666666    0.2499999999999999    0.5833333333333333 As
   0.8333333333333333    0.7500000000000000    0.9166666666666666 Pd
   0.3333333333333333    0.2499999999999999    0.9166666666666666 Pd
   0.3333333333333333    0.7500000000000000    0.4166666666666667 Pd
   0.8333333333333333    0.2499999999999999    0.4166666666666667 Pd
