Ba2 Sb4 Pd4
1.0
   4.8078419706885267    0.0000000000000000    0.0000000000000003
   0.0000000000000008    4.8078419706885267    0.0000000000000003
   0.0000000000000000    0.0000000000000000   10.8461959022717842
Ba Sb Pd
2 4 4
direct
   0.0000000000000000    0.4999999999999999    0.2442435493120670 Ba
   0.4999999999999999    0.0000000000000000    0.7557564506879330 Ba
   0.0000000000000000    0.0000000000000000    0.5000000000000000 Sb
   0.5000000000000000    0.4999999999999999    0.4999999999999999 Sb
   0.0000000000000000    0.4999999999999999    0.8773914785671268 Sb
   0.4999999999999999    0.0000000000000000    0.1226085214328732 Sb
   0.0000000000000000    0.0000000000000000    0.0000000000000000 Pd
   0.5000000000000000    0.4999999999999999    0.0000000000000000 Pd
   0.0000000000000000    0.4999999999999999    0.6231155974160387 Pd
   0.4999999999999999    0.0000000000000000    0.3768844025839612 Pd
