Mg8 Si4 Pt4
1.0
   3.7272897451550362    0.0000000000000000   -2.1519517377129906
   0.0000000000000028   17.1281528298252326   -4.3039034754259831
   0.0000000000000000    0.0000000000000000    4.3039034754259831
Mg Si Pt
8 4 4
direct
   0.3333333333333334    0.0421350830750598    0.7088017497417264 Mg
   0.3333333333333334    0.5421350830750598    0.2088017497417265 Mg
   0.6666666666666666    0.2921350830750598    0.6254684164083930 Mg
   0.6666666666666666    0.7921350830750598    0.1254684164083930 Mg
   0.6666666666666667    0.4578649169249402    0.7911982502582735 Mg
   0.6666666666666667    0.9578649169249402    0.2911982502582735 Mg
   0.3333333333333333    0.2078649169249402    0.8745315835916069 Mg
   0.3333333333333333    0.7078649169249402    0.3745315835916068 Mg
   0.0000000000000000    0.1250000000000000    0.1250000000000000 Si
   0.0000000000000000    0.6250000000000000    0.6250000000000000 Si
   0.0000000000000000    0.3750000000000000    0.3750000000000000 Si
   0.0000000000000000    0.8750000000000000    0.8750000000000000 Si
   0.6666666666666666    0.1250000000000000    0.4583333333333333 Pt
   0.6666666666666666    0.6250000000000000    0.9583333333333333 Pt
   0.3333333333333333    0.3750000000000000    0.0416666666666667 Pt
   0.3333333333333333    0.8750000000000000    0.5416666666666667 Pt
