Mg4 Si2 Pt2
1.0
   8.5640764149126145    0.0000000000000000    0.0000000000000005
   0.0000000000000006    3.7272897451550326   -6.4558552131389764
   0.0000000000000000    0.0000000000000000    4.3039034754259831
Mg Si Pt
4 2 2
direct
   0.9157298338498805    0.6666666666666667    0.0000000000000000 Mg
   0.4157298338498805    0.3333333333333334    0.0000000000000000 Mg
   0.0842701661501195    0.3333333333333334    0.0000000000000000 Mg
   0.5842701661501195    0.6666666666666667    0.0000000000000000 Mg
   0.7500000000000000    0.0000000000000000    0.0000000000000000 Si
   0.2500000000000000    0.0000000000000000    0.0000000000000000 Si
   0.7500000000000000    0.3333333333333334    0.0000000000000000 Pt
   0.2500000000000000    0.6666666666666667    0.0000000000000000 Pt
