Y3 Tl3 Te6
1.0
   3.8666348098775476    0.0000000000000000   -2.2324026483407784
  -0.0000000000000015   24.4727173290856896    8.9296105933631171
   0.0000000000000000    0.0000000000000000    4.4648052966815586
Y Tl Te
3 3 6
direct
   0.6666666666666665    0.1666666666666667    0.9999999999999999 Y
   0.9999999999999997    0.5000000000000000    0.9999999999999998 Y
   0.3333333333333331    0.8333333333333333    0.0000000000000001 Y
   0.0000000000000000    0.0000000000000000    0.0000000000000000 Tl
   0.3333333333333333    0.3333333333333333    0.9999999999999999 Tl
   0.6666666666666666    0.6666666666666667    0.0000000000000000 Tl
   0.3333333333333333    0.0954612020764382    0.4757442625137903 Te
   0.0000000000000000    0.2378721312568952    0.5242557374862096 Te
   0.6666666666666666    0.4287945354097715    0.4757442625137903 Te
   0.3333333333333333    0.5712054645902285    0.5242557374862097 Te
   0.0000000000000000    0.7621278687431048    0.4757442625137904 Te
   0.6666666666666666    0.9045387979235618    0.5242557374862096 Te
