Mg4 Ge4 Rh8
1.0
   6.1107309279455402    0.0000000000000000   -6.1107309279455393
  -0.0000000000000004    6.1107309279455402   -6.1107309279455393
   0.0000000000000000    0.0000000000000000    6.1107309279455393
Mg Ge Rh
4 4 8
direct
   0.0000000000000000    0.0000000000000000    0.5000000000000000 Mg
   0.5000000000000000    0.5000000000000001    0.5000000000000000 Mg
   0.0000000000000000    0.5000000000000000    0.5000000000000000 Mg
   0.5000000000000000    0.0000000000000000    0.5000000000000000 Mg
   0.0000000000000000    0.0000000000000000    0.0000000000000000 Ge
   0.5000000000000000    0.5000000000000000    0.0000000000000000 Ge
   0.0000000000000000    0.5000000000000000    0.0000000000000000 Ge
   0.5000000000000000    0.0000000000000001    0.0000000000000000 Ge
   0.2500000000000000    0.7500000000000000    0.2500000000000000 Rh
   0.7500000000000000    0.7500000000000000    0.7500000000000000 Rh
   0.7500000000000000    0.2500000000000001    0.2500000000000000 Rh
   0.2500000000000000    0.2500000000000001    0.7500000000000000 Rh
   0.2500000000000000    0.2500000000000001    0.2500000000000000 Rh
   0.7500000000000000    0.2500000000000001    0.7500000000000002 Rh
   0.7500000000000000    0.7500000000000001    0.2500000000000000 Rh
   0.2500000000000000    0.7500000000000000    0.7500000000000000 Rh
