Zn1 Cd1 Au2
1.0
   7.0202433808469307    0.0000000000000000    0.0000000000000004
   0.0000000000000005    3.1876218595812080   -3.1876218595812076
   0.0000000000000000    0.0000000000000000    3.1876218595812076
Zn Cd Au
1 1 2
direct
   0.5000000000000000    0.5000000000000000    0.0000000000000000 Zn
   0.0000000000000000    0.5000000000000000    0.0000000000000000 Cd
   0.2777227451643397    0.0000000000000000    0.0000000000000000 Au
   0.7222772548356602    0.0000000000000000    0.0000000000000000 Au
