Ca2 Ga6 Pt2
1.0
   4.2793367799594542    0.0000000000000000    0.0000000000000003
   0.0000000000000018   10.9406069722808859   -4.2793367799594533
   0.0000000000000000    0.0000000000000000    4.2793367799594542
Ca Ga Pt
2 6 2
direct
   0.0000000000000000    0.0019138415712661    0.0019138415712661 Ca
   0.5000000000000000    0.5019138415712661    0.0019138415712661 Ca
   0.5000000000000000    0.2550810352862491    0.2550810352862491 Ga
   0.0000000000000000    0.2550810352862491    0.7550810352862491 Ga
   0.5000000000000000    0.1069608274289351    0.6069608274289351 Ga
   0.0000000000000000    0.7550810352862491    0.2550810352862491 Ga
   0.5000000000000000    0.7550810352862491    0.7550810352862491 Ga
   0.0000000000000000    0.6069608274289351    0.6069608274289351 Ga
   0.0000000000000000    0.3809632504272926    0.3809632504272926 Pt
   0.5000000000000000    0.8809632504272926    0.3809632504272926 Pt
