Hf6 Cu8 Si4
1.0
   6.3177331567051391    0.0000000000000000    0.0000000000000004
   6.3177331567051409   10.9426348160758060    3.9817702062760141
   0.0000000000000000    0.0000000000000000    3.9817702062760150
Hf Cu Si
6 8 4
direct
   0.5860082201037250    0.4999999999999999    0.0000000000000000 Hf
   0.5860082201037250    0.0000000000000000    0.4999999999999999 Hf
   0.4139917798962749    0.2930041100518626    0.2069958899481374 Hf
   0.4139917798962748    0.7930041100518626    0.7069958899481373 Hf
   0.0000000000000000    0.2069958899481374    0.2930041100518626 Hf
   0.0000000000000000    0.7069958899481374    0.7930041100518624 Hf
   0.0000000000000001    0.3763577863451193    0.6236422136548806 Cu
   0.0000000000000000    0.8763577863451193    0.1236422136548807 Cu
   0.2472844273097614    0.4999999999999999    0.5000000000000000 Cu
   0.2472844273097614    0.0000000000000000    0.0000000000000000 Cu
   0.0000000000000000    0.5000000000000000    0.0000000000000000 Cu
   0.0000000000000000    0.0000000000000000    0.4999999999999999 Cu
   0.7527155726902385    0.1236422136548807    0.8763577863451192 Cu
   0.7527155726902385    0.6236422136548807    0.3763577863451192 Cu
   0.3333333333333333    0.1666666666666667    0.8333333333333333 Si
   0.3333333333333333    0.6666666666666667    0.3333333333333333 Si
   0.6666666666666665    0.3333333333333333    0.6666666666666666 Si
   0.6666666666666666    0.8333333333333333    0.1666666666666667 Si
