Sc2 Ga10 Ni2
1.0
   4.1951643718847658    0.0000000000000000    0.0000000000000003
  -0.0000000000000024    8.3903287437695315    6.6055572568665912
   0.0000000000000000    0.0000000000000000    6.6055572568665921
Sc Ga Ni
2 10 2
direct
   0.0000000000000000    0.5000000000000000    0.4999999999999999 Sc
   0.0000000000000000    0.0000000000000000    0.0000000000000000 Sc
   0.5000000000000000    0.5000000000000000    0.7989910717694642 Ga
   0.5000000000000000    0.0000000000000000    0.2989910717694642 Ga
   0.5000000000000000    0.5000000000000000    0.2010089282305356 Ga
   0.5000000000000000    0.0000000000000000    0.7010089282305357 Ga
   0.0000000000000000    0.2500000000000000    0.0489910717694642 Ga
   0.0000000000000000    0.7500000000000000    0.5489910717694642 Ga
   0.0000000000000000    0.2500000000000000    0.4510089282305356 Ga
   0.0000000000000000    0.7500000000000000    0.9510089282305357 Ga
   0.5000000000000000    0.2500000000000000    0.7499999999999999 Ga
   0.5000000000000000    0.7500000000000000    0.2500000000000000 Ga
   0.0000000000000000    0.5000000000000000    0.0000000000000000 Ni
   0.0000000000000000    0.0000000000000000    0.5000000000000000 Ni
