Ba4 Zn8 Ge8
1.0
  10.6177954931005996    0.0000000000000000    0.0000000000000007
   0.0000000000000015    9.1963393725984623   -4.5981696862992312
   0.0000000000000000    0.0000000000000000    4.5981696862992312
Ba Zn Ge
4 8 8
direct
   0.0000000000000000    0.5000000000000000    0.5000000000000000 Ba
   0.0000000000000000    0.0000000000000000    0.0000000000000000 Ba
   0.5000000000000000    0.2500000000000000    0.7500000000000000 Ba
   0.5000000000000000    0.7500000000000000    0.2500000000000000 Ba
   0.7500000000000000    0.2500000000000000    0.2500000000000001 Zn
   0.7500000000000000    0.7500000000000000    0.7500000000000000 Zn
   0.7500000000000000    0.5000000000000000    0.0000000000000000 Zn
   0.7500000000000000    0.0000000000000000    0.5000000000000000 Zn
   0.2499999999999999    0.5000000000000000    0.0000000000000000 Zn
   0.2499999999999999    0.0000000000000000    0.5000000000000000 Zn
   0.2499999999999999    0.2500000000000000    0.2500000000000001 Zn
   0.2499999999999999    0.7500000000000000    0.7500000000000000 Zn
   0.6236162835849584    0.5000000000000000    0.5000000000000000 Ge
   0.6236162835849584    0.0000000000000000    0.0000000000000000 Ge
   0.8763837164150416    0.2500000000000000    0.7500000000000000 Ge
   0.8763837164150416    0.7500000000000000    0.2500000000000000 Ge
   0.1236162835849584    0.2500000000000000    0.7500000000000000 Ge
   0.1236162835849584    0.7500000000000000    0.2500000000000000 Ge
   0.3763837164150416    0.5000000000000000    0.5000000000000000 Ge
   0.3763837164150416    0.0000000000000000    0.0000000000000000 Ge
