Ba2 Zn4 Ge4
1.0
   4.5981696862992312    0.0000000000000000    0.0000000000000003
   0.0000000000000017   10.6177954931005996    0.0000000000000007
   0.0000000000000000    0.0000000000000000    4.5981696862992312
Ba Zn Ge
2 4 4
direct
   0.0000000000000000    0.0000000000000000    0.0000000000000000 Ba
   0.5000000000000000    0.5000000000000000    0.5000000000000000 Ba
   0.5000000000000000    0.2500000000000000    0.0000000000000000 Zn
   0.0000000000000000    0.2500000000000000    0.5000000000000000 Zn
   0.0000000000000000    0.7500000000000001    0.5000000000000000 Zn
   0.5000000000000000    0.7500000000000001    0.0000000000000000 Zn
   0.0000000000000000    0.3763837164150416    0.0000000000000000 Ge
   0.5000000000000000    0.1236162835849584    0.5000000000000000 Ge
   0.5000000000000000    0.8763837164150416    0.5000000000000000 Ge
   0.0000000000000000    0.6236162835849584    0.0000000000000000 Ge
