Cd2 As2 Pt10
1.0
   7.2807554835175345    0.0000000000000000    0.0000000000000004
   0.0000000000000013    8.0362881726459392   -4.0181440863229696
   0.0000000000000000    0.0000000000000000    4.0181440863229696
Cd As Pt
2 2 10
direct
   0.0000000000000000    0.2500000000000000    0.7500000000000000 Cd
   0.0000000000000000    0.7500000000000000    0.2499999999999999 Cd
   0.5000000000000000    0.5000000000000000    0.5000000000000000 As
   0.5000000000000000    0.0000000000000000    0.0000000000000000 As
   0.7133586853602338    0.2500000000000000    0.2500000000000000 Pt
   0.7133586853602338    0.7500000000000000    0.7500000000000000 Pt
   0.2866413146397662    0.2500000000000000    0.2500000000000000 Pt
   0.2866413146397663    0.7500000000000000    0.7500000000000000 Pt
   0.7133586853602338    0.5000000000000000    0.0000000000000000 Pt
   0.7133586853602338    0.0000000000000000    0.5000000000000000 Pt
   0.2866413146397662    0.5000000000000000    0.0000000000000000 Pt
   0.2866413146397663    0.0000000000000000    0.5000000000000000 Pt
   0.0000000000000000    0.5000000000000000    0.5000000000000000 Pt
   0.0000000000000000    0.0000000000000000    0.0000000000000000 Pt
