Ca2 Ag4 Ge4
1.0
   4.3627168285323581    0.0000000000000000    0.0000000000000003
   0.0000000000000018   10.9939907653050550    0.0000000000000007
   0.0000000000000000    0.0000000000000000    4.3627168285323581
Ca Ag Ge
2 4 4
direct
   0.0000000000000000    0.0000000000000000    0.0000000000000000 Ca
   0.5000000000000000    0.5000000000000000    0.5000000000000000 Ca
   0.0000000000000000    0.2500000000000000    0.5000000000000000 Ag
   0.5000000000000000    0.2500000000000000    0.0000000000000000 Ag
   0.5000000000000000    0.7500000000000000    0.0000000000000000 Ag
   0.0000000000000000    0.7500000000000000    0.5000000000000000 Ag
   0.0000000000000000    0.3897271237178899    0.0000000000000000 Ge
   0.5000000000000000    0.1102728762821101    0.5000000000000000 Ge
   0.5000000000000000    0.8897271237178900    0.5000000000000000 Ge
   0.0000000000000000    0.6102728762821102    0.0000000000000000 Ge
