Mn8 Co16 Si8
1.0
   5.6259955829344159    0.0000000000000000    0.0000000000000003
   0.0000000000000018   11.2519911658688319   -5.6259955829344159
   0.0000000000000000    0.0000000000000000    5.6259955829344159
Mn Co Si
8 16 8
direct
   0.0000000000000000    0.5000000000000000    0.5000000000000000 Mn
   0.0000000000000000    0.0000000000000000    0.0000000000000000 Mn
   0.5000000000000000    0.2500000000000000    0.2500000000000000 Mn
   0.5000000000000000    0.7500000000000000    0.7500000000000000 Mn
   0.5000000000000000    0.5000000000000000    0.0000000000000000 Mn
   0.5000000000000000    0.0000000000000000    0.5000000000000000 Mn
   0.0000000000000000    0.2500000000000000    0.7500000000000000 Mn
   0.0000000000000000    0.7500000000000000    0.2500000000000000 Mn
   0.2499999999999999    0.1250000000000000    0.8750000000000000 Co
   0.2500000000000000    0.6250000000000000    0.3750000000000000 Co
   0.2499999999999999    0.3750000000000001    0.1250000000000000 Co
   0.2499999999999999    0.8750000000000000    0.6250000000000000 Co
   0.7500000000000000    0.3750000000000001    0.1250000000000000 Co
   0.7500000000000000    0.8750000000000000    0.6250000000000000 Co
   0.7500000000000000    0.1250000000000000    0.8750000000000000 Co
   0.7500000000000000    0.6250000000000000    0.3750000000000000 Co
   0.7500000000000000    0.1250000000000000    0.3749999999999999 Co
   0.7500000000000000    0.6250000000000000    0.8749999999999998 Co
   0.7500000000000000    0.3750000000000001    0.6250000000000000 Co
   0.7500000000000000    0.8750000000000000    0.1249999999999999 Co
   0.2499999999999999    0.3750000000000001    0.6250000000000000 Co
   0.2500000000000000    0.8750000000000000    0.1249999999999999 Co
   0.2499999999999999    0.1250000000000000    0.3749999999999999 Co
   0.2500000000000000    0.6250000000000000    0.8749999999999998 Co
   0.0000000000000000    0.5000000000000000    0.0000000000000000 Si
   0.0000000000000000    0.0000000000000000    0.5000000000000000 Si
   0.5000000000000000    0.2500000000000000    0.7500000000000000 Si
   0.5000000000000000    0.7500000000000000    0.2500000000000000 Si
   0.5000000000000000    0.5000000000000000    0.5000000000000000 Si
   0.5000000000000000    0.0000000000000000    0.0000000000000000 Si
   0.0000000000000000    0.2500000000000000    0.2500000000000000 Si
   0.0000000000000000    0.7500000000000000    0.7500000000000000 Si
