Y3 In3 Cu3
1.0
   3.9754339012580093    0.0000000000000000    0.0000000000000002
   0.0000000000000010    6.4728195544556932  -11.2112523365426160
   0.0000000000000000    0.0000000000000000    7.4741682243617422
Y In Cu
3 3 3
direct
   0.5000000000000000    0.0000000000000000    0.5902503766964458 Y
   0.5000000000000000    0.5902503766964458    0.5902503766964458 Y
   0.5000000000000000    0.4097496233035542    0.8194992466071085 Y
   0.0000000000000000    0.0000000000000000    0.2547064876296118 In
   0.0000000000000000    0.2547064876296118    0.2547064876296118 In
   0.0000000000000000    0.7452935123703881    0.4905870247407761 In
   0.0000000000000000    0.3333333333333334    0.0000000000000000 Cu
   0.0000000000000000    0.6666666666666667    0.0000000000000000 Cu
   0.5000000000000000    0.0000000000000000    0.0000000000000000 Cu
