Cd4 In8 Te16
1.0
  12.6979346375979798    0.0000000000000000    0.0000000000000008
   0.0000000000000021   12.8312991262086395   -6.4156495631043198
   0.0000000000000000    0.0000000000000000    6.4156495631043207
Cd In Te
4 8 16
direct
   0.0000000000000000    0.5000000000000000    0.5000000000000001 Cd
   0.0000000000000000    0.0000000000000000    0.0000000000000000 Cd
   0.5000000000000000    0.2500000000000000    0.7500000000000000 Cd
   0.5000000000000000    0.7500000000000000    0.2499999999999999 Cd
   0.0000000000000000    0.2500000000000000    0.7500000000000000 In
   0.0000000000000000    0.7500000000000000    0.2499999999999999 In
   0.7500000000000000    0.5000000000000000    0.0000000000000000 In
   0.7500000000000000    0.0000000000000000    0.5000000000000000 In
   0.5000000000000000    0.5000000000000000    0.5000000000000001 In
   0.5000000000000000    0.0000000000000000    0.0000000000000000 In
   0.2500000000000000    0.2500000000000000    0.2500000000000000 In
   0.2500000000000000    0.7500000000000000    0.7500000000000000 In
   0.8634385006071454    0.3630520759186062    0.5937435007172098 Te
   0.8634385006071454    0.8630520759186062    0.0937435007172098 Te
   0.6365614993928546    0.1346542876006982    0.3607584394379105 Te
   0.6365614993928546    0.6346542876006982    0.8607584394379104 Te
   0.6365614993928546    0.3653457123993018    0.1392415605620894 Te
   0.6365614993928546    0.8653457123993018    0.6392415605620894 Te
   0.8634385006071454    0.1369479240813938    0.9062564992827902 Te
   0.8634385006071454    0.6369479240813938    0.4062564992827902 Te
   0.3634385006071454    0.1130520759186062    0.8437435007172098 Te
   0.3634385006071456    0.6130520759186062    0.3437435007172097 Te
   0.1365614993928546    0.3846542876006982    0.1107584394379107 Te
   0.1365614993928547    0.8846542876006982    0.6107584394379106 Te
   0.1365614993928544    0.1153457123993018    0.3892415605620894 Te
   0.1365614993928546    0.6153457123993018    0.8892415605620894 Te
   0.3634385006071454    0.3869479240813938    0.6562564992827902 Te
   0.3634385006071454    0.8869479240813938    0.1562564992827902 Te
