Zr16 Al16 Ru32
1.0
  12.5761492454488764    0.0000000000000000   -6.2880746227244382
  -0.0000000000000036   12.5761492454488764   -6.2880746227244382
   0.0000000000000000    0.0000000000000000    6.2880746227244382
Zr Al Ru
16 16 32
direct
   0.4999999999999999    0.4999999999999999    0.0000000000000002 Zr
   0.0000000000000000    0.0000000000000000    0.0000000000000000 Zr
   0.0000000000000000    0.5000000000000000    0.5000000000000000 Zr
   0.4999999999999999    0.0000000000000000    0.5000000000000000 Zr
   0.7500000000000000    0.7500000000000000    0.5000000000000002 Zr
   0.2500000000000000    0.2500000000000000    0.5000000000000000 Zr
   0.2500000000000000    0.7500000000000001    0.0000000000000000 Zr
   0.7500000000000000    0.2500000000000001    0.0000000000000002 Zr
   0.4999999999999999    0.7500000000000001    0.7500000000000001 Zr
   0.0000000000000000    0.2500000000000001    0.7500000000000000 Zr
   0.0000000000000000    0.7500000000000001    0.2500000000000000 Zr
   0.4999999999999999    0.2500000000000001    0.2500000000000000 Zr
   0.7500000000000000    0.5000000000000000    0.7500000000000001 Zr
   0.2500000000000000    0.0000000000000001    0.7499999999999999 Zr
   0.2500000000000000    0.5000000000000001    0.2500000000000000 Zr
   0.7500000000000000    0.0000000000000001    0.2500000000000000 Zr
   0.4999999999999999    0.5000000000000000    0.5000000000000001 Al
   0.0000000000000000    0.0000000000000001    0.4999999999999999 Al
   0.0000000000000000    0.5000000000000001    0.0000000000000000 Al
   0.4999999999999999    0.0000000000000001    0.0000000000000000 Al
   0.7500000000000000    0.7500000000000001    0.0000000000000002 Al
   0.2500000000000000    0.2500000000000001    0.0000000000000000 Al
   0.2500000000000000    0.7500000000000001    0.5000000000000000 Al
   0.7500000000000000    0.2500000000000002    0.5000000000000000 Al
   0.4999999999999999    0.7500000000000000    0.2500000000000002 Al
   0.0000000000000000    0.2500000000000000    0.2500000000000000 Al
   0.0000000000000000    0.7500000000000001    0.7500000000000001 Al
   0.4999999999999999    0.2500000000000001    0.7500000000000001 Al
   0.7500000000000000    0.4999999999999999    0.2500000000000002 Al
   0.2500000000000000    0.0000000000000000    0.2500000000000000 Al
   0.2500000000000000    0.5000000000000000    0.7500000000000000 Al
   0.7500000000000000    0.0000000000000000    0.7500000000000001 Al
   0.8750000000000000    0.8750000000000000    0.0000000000000002 Ru
   0.3750000000000000    0.3750000000000001    0.0000000000000000 Ru
   0.3750000000000000    0.8750000000000001    0.5000000000000000 Ru
   0.8750000000000000    0.3750000000000001    0.5000000000000000 Ru
   0.6249999999999999    0.8750000000000000    0.7500000000000001 Ru
   0.1250000000000000    0.3750000000000001    0.7500000000000000 Ru
   0.1250000000000000    0.8750000000000001    0.2500000000000000 Ru
   0.6249999999999999    0.3750000000000001    0.2500000000000000 Ru
   0.6249999999999999    0.6250000000000000    0.5000000000000001 Ru
   0.1250000000000000    0.1250000000000001    0.5000000000000000 Ru
   0.1250000000000000    0.6250000000000001    0.0000000000000000 Ru
   0.6249999999999999    0.1250000000000001    0.0000000000000000 Ru
   0.8750000000000000    0.6250000000000000    0.7500000000000002 Ru
   0.3750000000000000    0.1250000000000001    0.7500000000000000 Ru
   0.3750000000000000    0.6250000000000001    0.2500000000000002 Ru
   0.8750000000000000    0.1250000000000001    0.2500000000000000 Ru
   0.8750000000000000    0.6250000000000001    0.2500000000000002 Ru
   0.3750000000000000    0.1250000000000001    0.2500000000000000 Ru
   0.3750000000000000    0.6250000000000002    0.7500000000000002 Ru
   0.8750000000000000    0.1250000000000002    0.7500000000000000 Ru
   0.6249999999999999    0.6250000000000001    0.0000000000000002 Ru
   0.1250000000000000    0.1250000000000001    0.0000000000000000 Ru
   0.1250000000000000    0.6250000000000002    0.5000000000000002 Ru
   0.6249999999999999    0.1250000000000002    0.5000000000000000 Ru
   0.6249999999999999    0.8750000000000001    0.2500000000000000 Ru
   0.1250000000000000    0.3750000000000001    0.2500000000000000 Ru
   0.1250000000000000    0.8750000000000002    0.7500000000000000 Ru
   0.6249999999999999    0.3750000000000001    0.7500000000000000 Ru
   0.8750000000000000    0.8750000000000001    0.5000000000000002 Ru
   0.3750000000000000    0.3750000000000001    0.5000000000000000 Ru
   0.3750000000000000    0.8750000000000002    0.0000000000000000 Ru
   0.8750000000000000    0.3750000000000001    0.0000000000000000 Ru
