Mn16 Al16 Ir32
1.0
  12.1092863434654134    0.0000000000000000   -6.0546431717327067
  -0.0000000000000034   12.1092863434654152   -6.0546431717327076
   0.0000000000000000    0.0000000000000000    6.0546431717327076
Mn Al Ir
16 16 32
direct
   0.5000000000000000    0.5000000000000000    0.0000000000000000 Mn
   0.0000000000000000    0.0000000000000000    0.0000000000000000 Mn
   0.0000000000000000    0.5000000000000000    0.5000000000000000 Mn
   0.5000000000000000    0.0000000000000000    0.5000000000000000 Mn
   0.7500000000000000    0.7500000000000000    0.5000000000000001 Mn
   0.2500000000000000    0.2500000000000000    0.5000000000000000 Mn
   0.2500000000000000    0.7500000000000000    0.0000000000000000 Mn
   0.7500000000000000    0.2500000000000000    0.0000000000000000 Mn
   0.5000000000000000    0.7500000000000000    0.7500000000000000 Mn
   0.0000000000000000    0.2500000000000000    0.7500000000000000 Mn
   0.0000000000000000    0.7500000000000000    0.2500000000000000 Mn
   0.5000000000000000    0.2500000000000000    0.2500000000000000 Mn
   0.7500000000000000    0.5000000000000000    0.7500000000000000 Mn
   0.2500000000000000    0.0000000000000000    0.7499999999999999 Mn
   0.2500000000000000    0.4999999999999999    0.2499999999999998 Mn
   0.7500000000000000    0.0000000000000000    0.2500000000000000 Mn
   0.5000000000000000    0.5000000000000000    0.4999999999999999 Al
   0.0000000000000000    0.0000000000000000    0.5000000000000000 Al
   0.0000000000000000    0.4999999999999999    0.0000000000000000 Al
   0.5000000000000000    0.0000000000000000    0.9999999999999999 Al
   0.7500000000000000    0.7500000000000000    0.0000000000000000 Al
   0.2500000000000000    0.2500000000000000    0.9999999999999999 Al
   0.2500000000000000    0.7500000000000000    0.5000000000000000 Al
   0.7500000000000000    0.2500000000000001    0.5000000000000000 Al
   0.5000000000000000    0.7500000000000000    0.2500000000000001 Al
   0.0000000000000000    0.2500000000000000    0.2500000000000000 Al
   0.0000000000000000    0.7500000000000000    0.7500000000000000 Al
   0.5000000000000000    0.2500000000000000    0.7500000000000000 Al
   0.7500000000000000    0.5000000000000000    0.2500000000000001 Al
   0.2500000000000000    0.0000000000000000    0.2500000000000000 Al
   0.2500000000000000    0.5000000000000000    0.7500000000000000 Al
   0.7500000000000000    0.0000000000000000    0.7500000000000000 Al
   0.8750000000000000    0.8750000000000000    0.0000000000000000 Ir
   0.3750000000000000    0.3750000000000000    0.0000000000000000 Ir
   0.3750000000000000    0.8750000000000000    0.5000000000000000 Ir
   0.8750000000000000    0.3750000000000000    0.5000000000000000 Ir
   0.6250000000000000    0.8750000000000000    0.7499999999999999 Ir
   0.1250000000000000    0.3750000000000000    0.7500000000000000 Ir
   0.1250000000000000    0.8750000000000000    0.2500000000000000 Ir
   0.6250000000000000    0.3750000000000000    0.2500000000000000 Ir
   0.6250000000000000    0.6250000000000001    0.4999999999999999 Ir
   0.1250000000000000    0.1250000000000000    0.4999999999999999 Ir
   0.1250000000000000    0.6250000000000000    0.0000000000000000 Ir
   0.6250000000000000    0.1250000000000000    0.9999999999999999 Ir
   0.8750000000000000    0.6250000000000001    0.7500000000000001 Ir
   0.3750000000000000    0.1250000000000000    0.7500000000000000 Ir
   0.3750000000000000    0.6250000000000000    0.2500000000000000 Ir
   0.8750000000000000    0.1250000000000001    0.2500000000000000 Ir
   0.8750000000000000    0.6250000000000000    0.2500000000000000 Ir
   0.3750000000000000    0.1250000000000000    0.2500000000000000 Ir
   0.3750000000000000    0.6250000000000000    0.7500000000000000 Ir
   0.8750000000000000    0.1250000000000001    0.7500000000000000 Ir
   0.6250000000000000    0.6250000000000000    0.0000000000000000 Ir
   0.1250000000000000    0.1250000000000000    0.0000000000000000 Ir
   0.1250000000000000    0.6250000000000000    0.5000000000000000 Ir
   0.6250000000000000    0.1250000000000000    0.4999999999999998 Ir
   0.6250000000000000    0.8750000000000000    0.2500000000000000 Ir
   0.1250000000000000    0.3750000000000000    0.2500000000000000 Ir
   0.1250000000000000    0.8750000000000000    0.7500000000000000 Ir
   0.6250000000000000    0.3750000000000000    0.7499999999999998 Ir
   0.8750000000000000    0.8750000000000000    0.5000000000000000 Ir
   0.3750000000000000    0.3750000000000000    0.5000000000000000 Ir
   0.3750000000000000    0.8750000000000000    0.0000000000000000 Ir
   0.8750000000000000    0.3750000000000000    0.0000000000000000 Ir
