Sr4 Cu4 Sb4
1.0
   3.9464321173882415    0.0000000000000000   -2.2784736453126850
   0.0000000000000029   17.8699412139144407   -4.5569472906253692
   0.0000000000000000    0.0000000000000000    4.5569472906253718
Sr Cu Sb
4 4 4
direct
   0.0000000000000000    0.2500000000000000    0.2500000000000000 Sr
   0.0000000000000000    0.7500000000000000    0.7500000000000000 Sr
   0.0000000000000000    0.0000000000000000    0.0000000000000000 Sr
   0.0000000000000000    0.5000000000000000    0.5000000000000000 Sr
   0.3333333333333334    0.1250000000000000    0.7916666666666666 Cu
   0.3333333333333334    0.6250000000000000    0.2916666666666667 Cu
   0.6666666666666667    0.3750000000000000    0.7083333333333333 Cu
   0.6666666666666667    0.8750000000000000    0.2083333333333333 Cu
   0.3333333333333334    0.3750000000000000    0.0416666666666665 Sb
   0.3333333333333334    0.8750000000000000    0.5416666666666665 Sb
   0.6666666666666667    0.1250000000000000    0.4583333333333333 Sb
   0.6666666666666667    0.6250000000000000    0.9583333333333334 Sb
