Hf4 Ga4 Ru8
1.0
   6.2742117556869799    0.0000000000000000    0.0000000000000004
   0.0000000000000010    6.2742117556869799    0.0000000000000004
   0.0000000000000000    0.0000000000000000    6.2742117556869799
Hf Ga Ru
4 4 8
direct
   0.0000000000000000    0.0000000000000000    0.0000000000000000 Hf
   0.5000000000000000    0.4999999999999999    0.0000000000000000 Hf
   0.0000000000000000    0.4999999999999999    0.5000000000000000 Hf
   0.5000000000000000    0.0000000000000000    0.4999999999999999 Hf
   0.0000000000000000    0.0000000000000000    0.5000000000000000 Ga
   0.5000000000000000    0.5000000000000000    0.4999999999999999 Ga
   0.0000000000000000    0.5000000000000000    0.0000000000000000 Ga
   0.5000000000000000    0.0000000000000000    0.0000000000000000 Ga
   0.7499999999999999    0.7500000000000000    0.2500000000000000 Ru
   0.2500000000000000    0.7499999999999999    0.2500000000000000 Ru
   0.2500000000000000    0.2500000000000000    0.2500000000000000 Ru
   0.7499999999999999    0.2500000000000000    0.2500000000000000 Ru
   0.7499999999999999    0.2500000000000000    0.7500000000000000 Ru
   0.2500000000000000    0.2500000000000000    0.7499999999999999 Ru
   0.2500000000000000    0.7500000000000000    0.7499999999999999 Ru
   0.7499999999999999    0.7500000000000000    0.7500000000000000 Ru
