Y2 Si4 Au4
1.0
   4.2634960035345753    0.0000000000000000    0.0000000000000003
  -0.0000000000000006   10.2718250014890771   -8.5269920070691487
   0.0000000000000000    0.0000000000000000    4.2634960035345753
Y Si Au
2 4 4
direct
   0.0000000000000000    0.0000000000000000    0.0000000000000000 Y
   0.5000000000000000    0.5000000000000000    0.5000000000000000 Y
   0.0000000000000000    0.3880694730402326    0.7761389460804652 Si
   0.5000000000000000    0.1119305269597674    0.7238610539195349 Si
   0.5000000000000000    0.8880694730402324    0.2761389460804651 Si
   0.0000000000000000    0.6119305269597675    0.2238610539195349 Si
   0.0000000000000000    0.2500000000000000    0.0000000000000000 Au
   0.5000000000000000    0.2500000000000000    0.5000000000000000 Au
   0.5000000000000000    0.7500000000000000    0.5000000000000000 Au
   0.0000000000000000    0.7500000000000000    0.0000000000000000 Au
