Sr2 Zn2 Ge2
1.0
   4.6778214258735202    0.0000000000000000    0.0000000000000003
   0.0000000000000012    7.4962697095959472   -8.6559466695065108
   0.0000000000000000    0.0000000000000000    4.3279733347532563
Sr Zn Ge
2 2 2
direct
   0.0000000000000000    0.3333333333333333    0.6666666666666667 Sr
   0.0000000000000000    0.8333333333333333    0.1666666666666666 Sr
   0.5000000000000000    0.5000000000000000    0.5000000000000000 Zn
   0.5000000000000000    0.0000000000000000    0.0000000000000000 Zn
   0.5000000000000000    0.1666666666666667    0.8333333333333333 Ge
   0.5000000000000000    0.6666666666666667    0.3333333333333334 Ge
