Li4 Co8 Si4
1.0
   5.4783638314261500    0.0000000000000000   -5.4783638314261491
  -0.0000000000000003    5.4783638314261500   -5.4783638314261491
   0.0000000000000000    0.0000000000000000    5.4783638314261500
Li Co Si
4 8 4
direct
   0.0000000000000000    0.0000000000000000    0.5000000000000000 Li
   0.5000000000000000    0.5000000000000000    0.5000000000000000 Li
   0.0000000000000000    0.5000000000000000    0.5000000000000000 Li
   0.5000000000000000    0.0000000000000000    0.5000000000000000 Li
   0.7499999999999999    0.7500000000000001    0.7500000000000000 Co
   0.2500000000000000    0.7499999999999999    0.2500000000000000 Co
   0.2500000000000000    0.2500000000000000    0.7500000000000000 Co
   0.7499999999999999    0.2500000000000001    0.2500000000000000 Co
   0.7499999999999999    0.2500000000000001    0.7500000000000000 Co
   0.2500000000000000    0.2500000000000001    0.2500000000000000 Co
   0.2500000000000000    0.7500000000000000    0.7500000000000000 Co
   0.7499999999999999    0.7500000000000001    0.2500000000000000 Co
   0.0000000000000000    0.0000000000000000    0.0000000000000000 Si
   0.5000000000000000    0.5000000000000000    0.0000000000000000 Si
   0.0000000000000000    0.4999999999999999    0.0000000000000000 Si
   0.5000000000000000    0.0000000000000000    0.0000000000000000 Si
