K16 Ag8 As8
1.0
  10.1376774854046907    0.0000000000000000   -7.9695884194821156
  -0.0000000000000007   12.2359333140645870   -7.9695884194821094
   0.0000000000000000    0.0000000000000000    7.9695884194821121
K Ag As
16 8 8
direct
   0.6718990969182101    0.1250000000000001    0.1533476226680364 K
   0.6718990969182101    0.6250000000000001    0.6533476226680364 K
   0.3281009030817899    0.3750000000000001    0.3466523773319639 K
   0.3281009030817899    0.8750000000000001    0.8466523773319639 K
   0.3281009030817899    0.1250000000000001    0.8095494288316161 K
   0.3281009030817899    0.6250000000000001    0.3095494288316161 K
   0.6718990969182101    0.3750000000000001    0.6904505711683839 K
   0.6718990969182101    0.8750000000000001    0.1904505711683839 K
   0.1718990969182101    0.1250000000000001    0.1533476226680364 K
   0.1718990969182101    0.6250000000000001    0.6533476226680364 K
   0.8281009030817897    0.3750000000000001    0.3466523773319636 K
   0.8281009030817897    0.8750000000000001    0.8466523773319636 K
   0.8281009030817897    0.1250000000000001    0.8095494288316163 K
   0.8281009030817897    0.6250000000000002    0.3095494288316165 K
   0.1718990969182101    0.3750000000000001    0.6904505711683839 K
   0.1718990969182101    0.8750000000000001    0.1904505711683839 K
   0.0000000000000000    0.2500000000000001    0.7500000000000000 Ag
   0.0000000000000000    0.7500000000000001    0.2500000000000000 Ag
   0.0000000000000000    0.0000000000000000    0.5000000000000000 Ag
   0.0000000000000000    0.5000000000000000    0.0000000000000000 Ag
   0.5000000000000000    0.2500000000000001    0.7500000000000000 Ag
   0.5000000000000000    0.7500000000000001    0.2500000000000000 Ag
   0.5000000000000000    0.0000000000000000    0.5000000000000000 Ag
   0.5000000000000000    0.5000000000000000    0.0000000000000000 Ag
   0.0000000000000000    0.3750000000000001    0.1328475147706529 As
   0.0000000000000000    0.8750000000000001    0.6328475147706529 As
   0.0000000000000000    0.1250000000000000    0.3671524852293472 As
   0.0000000000000000    0.6250000000000001    0.8671524852293473 As
   0.5000000000000000    0.3750000000000001    0.1328475147706527 As
   0.5000000000000000    0.8750000000000001    0.6328475147706527 As
   0.5000000000000000    0.1250000000000001    0.3671524852293473 As
   0.5000000000000000    0.6250000000000001    0.8671524852293473 As
