Hf2 Ga10 Co2
1.0
   8.2820622254762597    0.0000000000000000   -4.1410311127381298
  -0.0000000000000019    6.6245556541207247   -4.1410311127381325
   0.0000000000000000    0.0000000000000000    4.1410311127381298
Hf Ga Co
2 10 2
direct
   0.0000000000000000    0.0000000000000000    0.0000000000000000 Hf
   0.5000000000000000    0.0000000000000000    0.4999999999999999 Hf
   0.2500000000000000    0.3031312163026381    0.5531312163026382 Ga
   0.7500000000000000    0.3031312163026382    0.0531312163026381 Ga
   0.2500000000000000    0.6968687836973618    0.9468687836973618 Ga
   0.7500000000000000    0.6968687836973618    0.4468687836973617 Ga
   0.0000000000000000    0.3031312163026381    0.8031312163026382 Ga
   0.5000000000000000    0.3031312163026382    0.3031312163026381 Ga
   0.0000000000000000    0.6968687836973618    0.1968687836973619 Ga
   0.5000000000000000    0.6968687836973618    0.6968687836973617 Ga
   0.2500000000000000    0.0000000000000000    0.7500000000000000 Ga
   0.7500000000000000    0.0000000000000000    0.2500000000000000 Ga
   0.0000000000000000    0.5000000000000000    0.5000000000000000 Co
   0.5000000000000000    0.5000000000000000    0.9999999999999999 Co
