Hf6 Mn6 Ge6
1.0
   6.6980187181931017    0.0000000000000000    0.0000000000000004
   6.6980187181930990   11.6013087299578181    3.7760746446835354
   0.0000000000000000    0.0000000000000000    3.7760746446835354
Hf Mn Ge
6 6 6
direct
   0.4130709213042608    0.5000000000000000    0.9999999999999998 Hf
   0.4130709213042607    0.0000000000000000    0.5000000000000000 Hf
   0.5869290786957393    0.2065354606521303    0.2934645393478694 Hf
   0.5869290786957393    0.7065354606521304    0.7934645393478696 Hf
   0.0000000000000000    0.2934645393478696    0.2065354606521301 Hf
   0.0000000000000000    0.7934645393478696    0.7065354606521304 Hf
   0.7557994170059955    0.4999999999999999    0.5000000000000000 Mn
   0.7557994170059956    0.0000000000000000    0.0000000000000000 Mn
   0.2442005829940044    0.3778997085029978    0.6221002914970022 Mn
   0.2442005829940044    0.8778997085029978    0.1221002914970022 Mn
   0.0000000000000000    0.1221002914970022    0.8778997085029978 Mn
   0.0000000000000000    0.6221002914970022    0.3778997085029979 Mn
   0.6666666666666665    0.3333333333333333    0.6666666666666667 Ge
   0.6666666666666666    0.8333333333333333    0.1666666666666667 Ge
   0.3333333333333333    0.1666666666666667    0.8333333333333333 Ge
   0.3333333333333333    0.6666666666666667    0.3333333333333333 Ge
   0.0000000000000000    0.5000000000000000    0.9999999999999998 Ge
   0.0000000000000000    0.0000000000000000    0.5000000000000000 Ge
