Zr6 Al2 Co1
1.0
   6.8699538315606041    0.0000000000000000   -3.9663696939718176
   0.0000000000000005    3.3339429467049064    0.0000000000000002
   0.0000000000000000    0.0000000000000000    7.9327393879436316
Zr Al Co
6 2 1
direct
   0.0000000000000000    0.0000000000000000    0.5986419055478932 Zr
   0.4013580944521067    0.0000000000000000    0.4013580944521067 Zr
   0.5986419055478932    0.0000000000000000    0.0000000000000000 Zr
   0.0000000000000000    0.5000000000000000    0.2500243104379364 Zr
   0.7499756895620635    0.5000000000000000    0.7499756895620635 Zr
   0.2500243104379364    0.5000000000000000    0.0000000000000000 Zr
   0.3333333333333333    0.5000000000000000    0.6666666666666666 Al
   0.6666666666666666    0.5000000000000000    0.3333333333333333 Al
   0.0000000000000000    0.0000000000000000    0.0000000000000000 Co
