Ta16 Mo8 Ru8
1.0
   6.3926492777954316    0.0000000000000000    0.0000000000000004
   0.0000000000000021   12.7852985555908614   -6.3926492777954307
   0.0000000000000000    0.0000000000000000    6.3926492777954316
Ta Mo Ru
16 8 8
direct
   0.2500000000000001    0.1250000000000000    0.8750000000000000 Ta
   0.2500000000000001    0.6250000000000000    0.3750000000000000 Ta
   0.2500000000000000    0.3749999999999999    0.1250000000000000 Ta
   0.2500000000000001    0.8750000000000000    0.6250000000000000 Ta
   0.7500000000000000    0.3749999999999999    0.1250000000000000 Ta
   0.7500000000000000    0.8750000000000000    0.6250000000000000 Ta
   0.7500000000000000    0.1250000000000000    0.8750000000000000 Ta
   0.7500000000000000    0.6250000000000000    0.3750000000000000 Ta
   0.7500000000000000    0.1250000000000000    0.3750000000000001 Ta
   0.7500000000000000    0.6250000000000000    0.8750000000000000 Ta
   0.7500000000000000    0.3749999999999999    0.6250000000000001 Ta
   0.7500000000000000    0.8750000000000000    0.1250000000000001 Ta
   0.2500000000000001    0.3749999999999999    0.6250000000000001 Ta
   0.2500000000000001    0.8750000000000000    0.1250000000000001 Ta
   0.2500000000000000    0.1250000000000000    0.3750000000000001 Ta
   0.2500000000000000    0.6250000000000000    0.8750000000000000 Ta
   0.0000000000000000    0.4999999999999999    0.0000000000000000 Mo
   0.0000000000000000    0.0000000000000000    0.5000000000000000 Mo
   0.5000000000000000    0.2500000000000000    0.7500000000000000 Mo
   0.5000000000000000    0.7500000000000000    0.2500000000000001 Mo
   0.5000000000000000    0.4999999999999999    0.5000000000000000 Mo
   0.5000000000000000    0.0000000000000000    0.0000000000000000 Mo
   0.0000000000000000    0.2500000000000000    0.2500000000000000 Mo
   0.0000000000000000    0.7500000000000000    0.7500000000000000 Mo
   0.0000000000000000    0.4999999999999999    0.5000000000000000 Ru
   0.0000000000000000    0.0000000000000000    0.0000000000000000 Ru
   0.5000000000000000    0.2500000000000000    0.2500000000000000 Ru
   0.5000000000000000    0.7500000000000000    0.7500000000000000 Ru
   0.5000000000000000    0.4999999999999999    0.0000000000000000 Ru
   0.5000000000000000    0.0000000000000000    0.5000000000000000 Ru
   0.0000000000000000    0.2500000000000000    0.7500000000000000 Ru
   0.0000000000000000    0.7500000000000000    0.2500000000000001 Ru
