Zr8 Zn12 Ga12
1.0
   8.1526250679677705    0.0000000000000000   -4.0194281319671745
  -0.0000000000000047   16.4941277712453349   -4.0194281319671736
   0.0000000000000000    0.0000000000000000    4.0194281319671736
Zr Zn Ga
8 12 12
direct
   0.5000000000000000    0.8772626948724387    0.3772626948724388 Zr
   0.0000000000000000    0.3772626948724387    0.3772626948724387 Zr
   0.0000000000000000    0.8772626948724387    0.8772626948724387 Zr
   0.5000000000000000    0.3772626948724387    0.8772626948724387 Zr
   0.5000000000000000    0.6227373051275613    0.1227373051275614 Zr
   0.0000000000000000    0.1227373051275613    0.1227373051275613 Zr
   0.0000000000000000    0.6227373051275613    0.6227373051275613 Zr
   0.5000000000000000    0.1227373051275614    0.6227373051275613 Zr
   0.5000000000000000    0.7500000000000001    0.7500000000000002 Zn
   0.0000000000000000    0.2500000000000000    0.7500000000000000 Zn
   0.0000000000000000    0.7500000000000001    0.2500000000000000 Zn
   0.5000000000000000    0.2500000000000001    0.2500000000000000 Zn
   0.7500000000000000    0.5000000000000000    0.2500000000000001 Zn
   0.2500000000000000    0.0000000000000000    0.2500000000000001 Zn
   0.2500000000000000    0.5000000000000000    0.7500000000000001 Zn
   0.7500000000000000    0.0000000000000000    0.7500000000000001 Zn
   0.7500000000000000    0.7500000000000001    0.5000000000000001 Zn
   0.2500000000000000    0.2500000000000000    0.5000000000000001 Zn
   0.2500000000000000    0.7500000000000001    0.0000000000000002 Zn
   0.7500000000000000    0.2500000000000001    0.0000000000000002 Zn
   0.7500000000000000    0.8709177623566227    0.1209177623566229 Ga
   0.2500000000000000    0.3709177623566227    0.1209177623566227 Ga
   0.2500000000000000    0.8709177623566227    0.6209177623566229 Ga
   0.7500000000000000    0.3709177623566227    0.6209177623566227 Ga
   0.7500000000000000    0.6290822376433773    0.8790822376433776 Ga
   0.2500000000000000    0.1290822376433774    0.8790822376433775 Ga
   0.2500000000000000    0.6290822376433773    0.3790822376433776 Ga
   0.7500000000000000    0.1290822376433774    0.3790822376433773 Ga
   0.5000000000000000    0.5000000000000000    0.5000000000000001 Ga
   0.0000000000000000    0.0000000000000000    0.5000000000000000 Ga
   0.0000000000000000    0.5000000000000000    0.0000000000000000 Ga
   0.5000000000000000    0.0000000000000001    0.0000000000000000 Ga
