Li4 Al4 Pd8
1.0
   6.0256696103700804    0.0000000000000000   -6.0256696103700849
  -0.0000000000000004    6.0256696103700849   -6.0256696103700831
   0.0000000000000000    0.0000000000000000    6.0256696103700840
Li Al Pd
4 4 8
direct
   0.0000000000000000    0.0000000000000000    0.0000000000000000 Li
   0.5000000000000000    0.5000000000000000    0.0000000000000000 Li
   0.0000000000000000    0.5000000000000000    0.0000000000000000 Li
   0.5000000000000000    0.0000000000000000    0.0000000000000000 Li
   0.0000000000000000    0.0000000000000000    0.5000000000000000 Al
   0.5000000000000000    0.5000000000000001    0.5000000000000000 Al
   0.0000000000000000    0.5000000000000000    0.5000000000000000 Al
   0.5000000000000000    0.0000000000000000    0.5000000000000000 Al
   0.7500000000000000    0.7500000000000000    0.7500000000000000 Pd
   0.2500000000000000    0.7500000000000000    0.2500000000000000 Pd
   0.2500000000000000    0.2500000000000001    0.7500000000000000 Pd
   0.7500000000000000    0.2500000000000001    0.2500000000000000 Pd
   0.7500000000000000    0.2500000000000001    0.7500000000000000 Pd
   0.2500000000000000    0.2500000000000001    0.2500000000000000 Pd
   0.2500000000000000    0.7500000000000000    0.7500000000000000 Pd
   0.7500000000000000    0.7500000000000001    0.2500000000000000 Pd
