Li16 Ag8 Sn16
1.0
   9.2298737284115351    0.0000000000000000   -4.6149368642057675
  -0.0000000000000012   20.2544578978976730   -4.6149368642057711
   0.0000000000000000    0.0000000000000000    4.6149368642057684
Li Ag Sn
16 8 16
direct
   0.0000000000000000    0.3255203951506758    0.3255203951506758 Li
   0.5000000000000000    0.3255203951506758    0.8255203951506758 Li
   0.0000000000000000    0.0755203951506758    0.5755203951506758 Li
   0.5000000000000000    0.0755203951506758    0.0755203951506758 Li
   0.0000000000000000    0.4244796048493242    0.9244796048493242 Li
   0.5000000000000000    0.4244796048493242    0.4244796048493242 Li
   0.2500000000000000    0.1744796048493242    0.9244796048493242 Li
   0.7500000000000000    0.1744796048493242    0.4244796048493242 Li
   0.2500000000000000    0.8255203951506758    0.5755203951506758 Li
   0.7500000000000000    0.8255203951506757    0.0755203951506758 Li
   0.2500000000000000    0.5755203951506758    0.8255203951506758 Li
   0.7500000000000000    0.5755203951506758    0.3255203951506758 Li
   0.2500000000000000    0.9244796048493242    0.1744796048493242 Li
   0.7500000000000000    0.9244796048493242    0.6744796048493242 Li
   0.0000000000000000    0.6744796048493242    0.6744796048493242 Li
   0.5000000000000000    0.6744796048493242    0.1744796048493242 Li
   0.0000000000000000    0.2500000000000000    0.7500000000000000 Ag
   0.5000000000000000    0.2500000000000000    0.2500000000000000 Ag
   0.2500000000000000    0.0000000000000000    0.7500000000000000 Ag
   0.7500000000000000    0.0000000000000000    0.2500000000000000 Ag
   0.2500000000000000    0.7500000000000000    0.0000000000000000 Ag
   0.7500000000000000    0.7500000000000000    0.5000000000000000 Ag
   0.0000000000000000    0.5000000000000000    0.5000000000000000 Ag
   0.5000000000000000    0.5000000000000000    0.0000000000000000 Ag
   0.2500000000000000    0.3284339194781580    0.0784339194781580 Sn
   0.7500000000000000    0.3284339194781580    0.5784339194781580 Sn
   0.2500000000000000    0.0784339194781580    0.3284339194781580 Sn
   0.7500000000000000    0.0784339194781580    0.8284339194781580 Sn
   0.2500000000000000    0.4215660805218419    0.6715660805218420 Sn
   0.7500000000000000    0.4215660805218419    0.1715660805218420 Sn
   0.0000000000000000    0.1715660805218420    0.1715660805218420 Sn
   0.5000000000000000    0.1715660805218420    0.6715660805218420 Sn
   0.0000000000000000    0.8284339194781581    0.8284339194781581 Sn
   0.5000000000000000    0.8284339194781580    0.3284339194781580 Sn
   0.0000000000000000    0.5784339194781580    0.0784339194781580 Sn
   0.5000000000000000    0.5784339194781580    0.5784339194781580 Sn
   0.0000000000000000    0.9215660805218421    0.4215660805218420 Sn
   0.5000000000000000    0.9215660805218420    0.9215660805218420 Sn
   0.2500000000000000    0.6715660805218420    0.4215660805218420 Sn
   0.7500000000000000    0.6715660805218420    0.9215660805218420 Sn
