Sn8 Rh8
1.0
   5.2044325493454888    0.0000000000000000    0.0000000000000003
   0.0000000000000017   10.4088650986909776   -5.2044325493454888
   0.0000000000000000    0.0000000000000000    5.2044325493454888
Sn Rh
8 8
direct
   0.1602303032753803    0.0801151516376902    0.2403454549130705 Sn
   0.1602303032753805    0.5801151516376901    0.7403454549130706 Sn
   0.6602303032753805    0.4198848483623098    0.7596545450869293 Sn
   0.6602303032753805    0.9198848483623098    0.2596545450869293 Sn
   0.8397696967246195    0.1698848483623098    0.8301151516376902 Sn
   0.8397696967246195    0.6698848483623098    0.3301151516376903 Sn
   0.3397696967246195    0.3301151516376902    0.1698848483623098 Sn
   0.3397696967246195    0.8301151516376902    0.6698848483623098 Sn
   0.8555673251167382    0.4277836625583691    0.2833509876751073 Rh
   0.8555673251167382    0.9277836625583691    0.7833509876751074 Rh
   0.3555673251167382    0.0722163374416310    0.7166490123248928 Rh
   0.3555673251167382    0.5722163374416309    0.2166490123248928 Rh
   0.1444326748832617    0.3222163374416309    0.6777836625583691 Rh
   0.1444326748832617    0.8222163374416309    0.1777836625583690 Rh
   0.6444326748832617    0.1777836625583691    0.3222163374416308 Rh
   0.6444326748832618    0.6777836625583691    0.8222163374416309 Rh
