Ba8 Zn16
1.0
   7.7469748000034926    0.0000000000000000    0.0000000000000005
   0.0000000000000026   16.3491106894710150   -5.0053734593821124
   0.0000000000000000    0.0000000000000000    5.0911236732379139
Ba Zn
8 16
direct
   0.6901500794275464    0.5000000000000000    0.2500000000000000 Ba
   0.6901500794275464    0.0000000000000000    0.7500000000000000 Ba
   0.3098499205724536    0.5000000000000000    0.7500000000000000 Ba
   0.3098499205724536    0.0000000000000000    0.2499999999999999 Ba
   0.1901500794275465    0.2500000000000000    0.5000000000000000 Ba
   0.1901500794275465    0.7500000000000000    0.0000000000000000 Ba
   0.8098499205724536    0.2500000000000000    0.0000000000000000 Ba
   0.8098499205724536    0.7500000000000000    0.5000000000000000 Ba
   0.5934124405636680    0.3347533348745753    0.5833623562921935 Zn
   0.5934124405636680    0.8347533348745753    0.0833623562921935 Zn
   0.4065875594363320    0.1652466651254247    0.9166376437078065 Zn
   0.4065875594363320    0.6652466651254247    0.4166376437078065 Zn
   0.4065875594363320    0.3347533348745753    0.0833623562921934 Zn
   0.4065875594363320    0.8347533348745753    0.5833623562921935 Zn
   0.5934124405636680    0.1652466651254247    0.4166376437078066 Zn
   0.5934124405636680    0.6652466651254247    0.9166376437078065 Zn
   0.0934124405636682    0.0847533348745752    0.8333623562921936 Zn
   0.0934124405636682    0.5847533348745753    0.3333623562921936 Zn
   0.9065875594363320    0.4152466651254247    0.6666376437078065 Zn
   0.9065875594363320    0.9152466651254247    0.1666376437078065 Zn
   0.9065875594363320    0.0847533348745753    0.3333623562921935 Zn
   0.9065875594363320    0.5847533348745753    0.8333623562921935 Zn
   0.0934124405636682    0.4152466651254247    0.1666376437078065 Zn
   0.0934124405636682    0.9152466651254247    0.6666376437078065 Zn
