Ge4 Pt12
1.0
   4.0290258413314479    0.0000000000000000   -3.9259550092573763
   0.0000000000000030    7.8800978502942618   -7.8762244520297475
   0.0000000000000000    0.0000000000000000    7.8762244520297484
Ge Pt
4 12
direct
   0.5000344769114484    0.0000000000000000    0.7481609583429290 Ge
   0.4999655230885516    0.0000000000000000    0.2518390416570710 Ge
   0.5000344769114484    0.5000000000000000    0.7481609583429290 Ge
   0.4999655230885516    0.5000000000000000    0.2518390416570710 Ge
   0.5000000000000000    0.7513968999094800    0.2513968999094800 Pt
   0.5000000000000000    0.2486031000905200    0.7486031000905200 Pt
   0.9965134771846671    0.0000000000000000    0.3038912172403806 Pt
   0.0034865228153330    0.0000000000000000    0.6961087827596195 Pt
   0.0000000000000000    0.3056634696881489    0.8056634696881491 Pt
   0.0000000000000000    0.6943365303118512    0.1943365303118512 Pt
   0.5000000000000000    0.2513968999094800    0.2513968999094800 Pt
   0.5000000000000000    0.7486031000905200    0.7486031000905200 Pt
   0.9965134771846671    0.5000000000000000    0.3038912172403806 Pt
   0.0034865228153330    0.5000000000000000    0.6961087827596197 Pt
   0.0000000000000000    0.8056634696881488    0.8056634696881488 Pt
   0.0000000000000000    0.1943365303118513    0.1943365303118513 Pt
