Ga8 Ge8 Ru16
1.0
   6.0571549845753081    0.0000000000000000   -6.0571549845753072
   0.0000000000000019   12.1143099691506162   -6.0571549845753081
   0.0000000000000000    0.0000000000000000    6.0571549845753081
Ga Ge Ru
8 8 16
direct
   0.0000000000000000    0.0000000000000000    0.5000000000000000 Ga
   0.0000000000000000    0.5000000000000000    0.0000000000000000 Ga
   0.5000000000000000    0.2500000000000000    0.2500000000000000 Ga
   0.5000000000000000    0.7499999999999999    0.7499999999999998 Ga
   0.0000000000000000    0.2500000000000000    0.2500000000000000 Ga
   0.0000000000000000    0.7499999999999999    0.7499999999999999 Ga
   0.5000000000000000    0.0000000000000000    0.4999999999999999 Ga
   0.5000000000000000    0.4999999999999999    0.9999999999999999 Ga
   0.0000000000000000    0.0000000000000000    0.0000000000000000 Ge
   0.0000000000000000    0.5000000000000000    0.5000000000000000 Ge
   0.5000000000000000    0.2499999999999999    0.7499999999999999 Ge
   0.5000000000000000    0.7499999999999999    0.2499999999999998 Ge
   0.0000000000000000    0.2500000000000000    0.7500000000000000 Ge
   0.0000000000000000    0.7499999999999999    0.2500000000000000 Ge
   0.5000000000000000    0.0000000000000000    0.9999999999999999 Ge
   0.5000000000000000    0.4999999999999999    0.4999999999999998 Ge
   0.7499999999999999    0.3749999999999999    0.3749999999999998 Ru
   0.7499999999999999    0.8750000000000000    0.8749999999999998 Ru
   0.2500000000000000    0.3749999999999999    0.8749999999999999 Ru
   0.2500000000000000    0.8749999999999999    0.3749999999999998 Ru
   0.2500000000000000    0.1250000000000000    0.6250000000000000 Ru
   0.2500000000000000    0.6250000000000000    0.1250000000000000 Ru
   0.7499999999999999    0.1250000000000000    0.1249999999999998 Ru
   0.7499999999999999    0.6249999999999999    0.6249999999999998 Ru
   0.7499999999999999    0.1250000000000000    0.6249999999999998 Ru
   0.7499999999999999    0.6249999999999999    0.1250000000000000 Ru
   0.2500000000000000    0.1250000000000000    0.1249999999999998 Ru
   0.2500000000000000    0.6250000000000000    0.6249999999999998 Ru
   0.2500000000000000    0.3750000000000000    0.3749999999999998 Ru
   0.2500000000000000    0.8750000000000000    0.8749999999999998 Ru
   0.7499999999999999    0.3749999999999999    0.8749999999999998 Ru
   0.7499999999999999    0.8749999999999999    0.3750000000000000 Ru
