Ca4 In8 Ni4
1.0
   4.3378941034627401    0.0000000000000000    0.0000000000000003
  -0.0000000000000030   10.6022467181578399    7.6482657149625579
   0.0000000000000000    0.0000000000000000    7.6482657149625588
Ca In Ni
4 8 4
direct
   0.0000000000000000    0.4399891101817417    0.8100108898182583 Ca
   0.5000000000000000    0.0600108898182583    0.6899891101817417 Ca
   0.4999999999999999    0.9399891101817418    0.3100108898182583 Ca
   0.0000000000000000    0.5600108898182583    0.1899891101817416 Ca
   0.0000000000000000    0.1505451145325978    0.9015984673239432 In
   0.5000000000000000    0.3494548854674022    0.5984015326760569 In
   0.0000000000000000    0.1505451145325978    0.2973113036108613 In
   0.5000000000000000    0.3494548854674022    0.2026886963891386 In
   0.5000000000000000    0.6505451145325978    0.4015984673239430 In
   0.0000000000000000    0.8494548854674022    0.0984015326760569 In
   0.5000000000000000    0.6505451145325978    0.7973113036108612 In
   0.0000000000000000    0.8494548854674022    0.7026886963891386 In
   0.5000000000000000    0.2185271326061695    0.0314728673938305 Ni
   0.0000000000000000    0.2814728673938305    0.4685271326061695 Ni
   0.0000000000000000    0.7185271326061695    0.5314728673938305 Ni
   0.5000000000000000    0.7814728673938306    0.9685271326061695 Ni
