Ge8 As8 Au8
1.0
   7.6329928559717111    0.0000000000000000    6.3286450702119135
  13.7873075226065218   11.2326346033375462    0.0000000000000011
   0.0000000000000000    0.0000000000000000    6.3286450702119135
Ge As Au
8 8 8
direct
   0.2756438455323967    0.5391513520683481    0.3450212190912012 Ge
   0.7756438455323966    0.0391513520683482    0.8450212190912012 Ge
   0.2243561544676030    0.9608486479316517    0.3963089101559949 Ge
   0.7243561544676032    0.4608486479316518    0.8963089101559947 Ge
   0.7756438455323965    0.5391513520683481    0.3450212190912012 Ge
   0.2756438455323966    0.0391513520683482    0.8450212190912012 Ge
   0.7243561544676030    0.9608486479316518    0.3963089101559947 Ge
   0.2243561544676033    0.4608486479316518    0.8963089101559946 Ge
   0.4769930133844686    0.7078324964112247    0.9007383960647564 As
   0.9769930133844689    0.2078324964112247    0.4007383960647566 As
   0.0230069866155308    0.7921675035887752    0.3547244228336943 As
   0.5230069866155310    0.2921675035887752    0.8547244228336944 As
   0.9769930133844689    0.7078324964112247    0.9007383960647564 As
   0.4769930133844689    0.2078324964112247    0.4007383960647564 As
   0.5230069866155309    0.7921675035887751    0.3547244228336943 As
   0.0230069866155310    0.2921675035887751    0.8547244228336943 As
   0.1271073412607178    0.6238121276906482    0.1244966846664470 Au
   0.6271073412607180    0.1238121276906483    0.6244966846664468 Au
   0.3728926587392818    0.8761878723093516    0.8787113671878830 Au
   0.8728926587392818    0.3761878723093516    0.3787113671878830 Au
   0.6271073412607178    0.6238121276906482    0.1244966846664468 Au
   0.1271073412607179    0.1238121276906482    0.6244966846664468 Au
   0.8728926587392819    0.8761878723093516    0.8787113671878828 Au
   0.3728926587392819    0.3761878723093516    0.3787113671878828 Au
