Ba1 Cd2 Sb2
1.0
   4.2211586630995450    0.0000000000000000   -2.4370870904326440
  -0.0000000000000005    8.1597854445633313   -4.8741741808652863
   0.0000000000000000    0.0000000000000000    4.8741741808652863
Ba Cd Sb
1 2 2
direct
   0.0000000000000000    0.0000000000000000    0.0000000000000000 Ba
   0.3333333333333333    0.6329422825580052    0.2996089492246718 Cd
   0.6666666666666667    0.3670577174419948    0.7003910507753282 Cd
   0.3333333333333333    0.2636539911698320    0.9303206578364986 Sb
   0.6666666666666667    0.7363460088301680    0.0696793421635014 Sb
