Na8 Cd4 Sn4
1.0
   8.7904578956083945    0.0000000000000000  -10.1503464646591564
  -0.0000000000000006   10.1368239180224649   -5.0751732323295773
   0.0000000000000000    0.0000000000000000    5.0751732323295773
Na Cd Sn
8 4 4
direct
   0.3333333333333334    0.0822046242430475    0.7488712909097140 Na
   0.8333333333333334    0.0822046242430475    0.2488712909097142 Na
   0.1666666666666668    0.5822046242430475    0.4155379575763809 Na
   0.6666666666666669    0.5822046242430475    0.9155379575763809 Na
   0.3333333333333334    0.4177953757569526    0.0844620424236193 Na
   0.8333333333333334    0.4177953757569527    0.5844620424236193 Na
   0.1666666666666668    0.9177953757569526    0.7511287090902861 Na
   0.6666666666666669    0.9177953757569527    0.2511287090902861 Na
   0.0000000000000000    0.2500000000000000    0.2500000000000000 Cd
   0.5000000000000000    0.2500000000000001    0.7500000000000000 Cd
   0.0000000000000000    0.7500000000000000    0.7500000000000000 Cd
   0.5000000000000000    0.7500000000000001    0.2500000000000000 Cd
   0.1666666666666667    0.2500000000000001    0.0833333333333335 Sn
   0.6666666666666667    0.2500000000000001    0.5833333333333333 Sn
   0.3333333333333334    0.7500000000000001    0.4166666666666667 Sn
   0.8333333333333335    0.7500000000000001    0.9166666666666670 Sn
