Y8 Ga16 Pd8
1.0
  11.0975018534473389    0.0000000000000000    0.0000000000000007
   3.5581683889257967    8.1432793331687190    6.6383581918162520
   0.0000000000000000    0.0000000000000000    6.6383581918162538
Y Ga Pd
8 16 8
direct
   0.4114499909325104    0.2942750045337448    0.4557249954662554 Y
   0.4114499909325104    0.7942750045337448    0.9557249954662552 Y
   0.0885500090674896    0.2057249954662552    0.0442750045337448 Y
   0.0885500090674896    0.7057249954662552    0.5442750045337448 Y
   0.9114499909325104    0.7942750045337448    0.9557249954662552 Y
   0.9114499909325104    0.2942750045337448    0.4557249954662550 Y
   0.5885500090674896    0.2057249954662552    0.0442750045337450 Y
   0.5885500090674896    0.7057249954662552    0.5442750045337448 Y
   0.1276072961443191    0.4361963519278405    0.5099162004278384 Ga
   0.1276072961443191    0.9361963519278405    0.0099162004278381 Ga
   0.3723927038556809    0.0638036480721596    0.9900837995721617 Ga
   0.3723927038556809    0.5638036480721595    0.4900837995721616 Ga
   0.1276072961443191    0.4361963519278405    0.1176910957164807 Ga
   0.1276072961443191    0.9361963519278405    0.6176910957164808 Ga
   0.3723927038556809    0.0638036480721596    0.3823089042835193 Ga
   0.3723927038556809    0.5638036480721595    0.8823089042835192 Ga
   0.6276072961443191    0.9361963519278405    0.0099162004278384 Ga
   0.6276072961443191    0.4361963519278405    0.5099162004278381 Ga
   0.8723927038556808    0.0638036480721595    0.9900837995721617 Ga
   0.8723927038556808    0.5638036480721595    0.4900837995721617 Ga
   0.6276072961443191    0.9361963519278405    0.6176910957164810 Ga
   0.6276072961443191    0.4361963519278405    0.1176910957164807 Ga
   0.8723927038556808    0.0638036480721595    0.3823089042835193 Ga
   0.8723927038556808    0.5638036480721595    0.8823089042835192 Ga
   0.2008912127152414    0.1495543936423793    0.6004456063576209 Pd
   0.2008912127152414    0.6495543936423793    0.1004456063576207 Pd
   0.2991087872847586    0.3504456063576206    0.8995543936423793 Pd
   0.2991087872847586    0.8504456063576207    0.3995543936423793 Pd
   0.7008912127152414    0.1495543936423794    0.6004456063576207 Pd
   0.7008912127152414    0.6495543936423793    0.1004456063576207 Pd
   0.7991087872847586    0.8504456063576207    0.3995543936423795 Pd
   0.7991087872847586    0.3504456063576207    0.8995543936423792 Pd
