Co6 Si24 Ni6
1.0
   3.2941568884751833    0.0000000000000000   -1.9018823663140081
  -0.0000000000000023   37.2962231343496171   -3.8037647326280166
   0.0000000000000000    0.0000000000000000    3.8037647326280144
Co Si Ni
6 24 6
direct
   0.0000000000000000    0.0000000000000000    0.0000000000000000 Co
   0.0000000000000000    0.4999999999999999    0.4999999999999999 Co
   0.3333333333333334    0.1666666666666666    0.8333333333333331 Co
   0.3333333333333334    0.6666666666666666    0.3333333333333330 Co
   0.6666666666666666    0.3333333333333333    0.6666666666666665 Co
   0.6666666666666666    0.8333333333333333    0.1666666666666665 Co
   0.6666666666666666    0.0198463213063284    0.3531796546396617 Si
   0.6666666666666666    0.5198463213063284    0.8531796546396616 Si
   0.3333333333333334    0.1050960828278798    0.7717627494945464 Si
   0.3333333333333334    0.6050960828278799    0.2717627494945463 Si
   0.0000000000000000    0.0615705838387868    0.0615705838387868 Si
   0.0000000000000000    0.5615705838387868    0.5615705838387868 Si
   0.6666666666666667    0.1468203453603382    0.4801536786936714 Si
   0.6666666666666667    0.6468203453603382    0.9801536786936714 Si
   0.0000000000000000    0.1865129879729951    0.1865129879729951 Si
   0.0000000000000000    0.6865129879729951    0.6865129879729951 Si
   0.6666666666666666    0.2717627494945465    0.6050960828278797 Si
   0.6666666666666666    0.7717627494945465    0.1050960828278797 Si
   0.3333333333333334    0.2282372505054534    0.8949039171721199 Si
   0.3333333333333334    0.7282372505054534    0.3949039171721200 Si
   0.0000000000000000    0.3134870120270049    0.3134870120270049 Si
   0.0000000000000000    0.8134870120270049    0.8134870120270049 Si
   0.3333333333333334    0.3531796546396617    0.0198463213063282 Si
   0.3333333333333334    0.8531796546396617    0.5198463213063282 Si
   0.0000000000000000    0.4384294161612132    0.4384294161612132 Si
   0.0000000000000000    0.9384294161612132    0.9384294161612132 Si
   0.6666666666666666    0.3949039171721200    0.7282372505054533 Si
   0.6666666666666666    0.8949039171721199    0.2282372505054533 Si
   0.3333333333333336    0.4801536786936715    0.1468203453603381 Si
   0.3333333333333336    0.9801536786936715    0.6468203453603381 Si
   0.6666666666666665    0.0833333333333333    0.4166666666666666 Ni
   0.6666666666666665    0.5833333333333333    0.9166666666666665 Ni
   0.0000000000000000    0.2499999999999999    0.2499999999999998 Ni
   0.0000000000000000    0.7499999999999999    0.7499999999999998 Ni
   0.3333333333333330    0.4166666666666666    0.0833333333333330 Ni
   0.3333333333333330    0.9166666666666666    0.5833333333333330 Ni
