Co3 Si12 Ni3
1.0
   3.2941568884751833    0.0000000000000000   -1.9018823663140081
  -0.0000000000000011   18.6481115671748050    3.8037647326280197
   0.0000000000000000    0.0000000000000000    3.8037647326280144
Co Si Ni
3 12 3
direct
   0.0000000000000000    0.0000000000000000    0.0000000000000000 Co
   0.3333333333333334    0.3333333333333334    0.3333333333333332 Co
   0.6666666666666666    0.6666666666666666    0.6666666666666666 Co
   0.6666666666666666    0.0396926426126569    0.2936406907206763 Si
   0.3333333333333334    0.2101921656557598    0.4564745010109068 Si
   0.0000000000000000    0.1231411676775735    0.8768588323224265 Si
   0.6666666666666667    0.2936406907206764    0.0396926426126569 Si
   0.0000000000000000    0.3730259759459902    0.6269740240540098 Si
   0.6666666666666666    0.5435254989890931    0.7898078343442402 Si
   0.3333333333333334    0.4564745010109069    0.2101921656557596 Si
   0.0000000000000000    0.6269740240540097    0.3730259759459903 Si
   0.3333333333333334    0.7063593092793236    0.9603073573873430 Si
   0.0000000000000000    0.8768588323224263    0.1231411676775737 Si
   0.6666666666666666    0.7898078343442401    0.5435254989890932 Si
   0.3333333333333336    0.9603073573873432    0.7063593092793234 Si
   0.6666666666666665    0.1666666666666667    0.1666666666666666 Ni
   0.0000000000000000    0.5000000000000000    0.4999999999999998 Ni
   0.3333333333333330    0.8333333333333333    0.8333333333333333 Ni
