Hf8 Zn8 Pd16
1.0
   6.3932964936650256    0.0000000000000000   -6.3932964936650247
   0.0000000000000021   12.7865929873300512   -6.3932964936650256
   0.0000000000000000    0.0000000000000000    6.3932964936650256
Hf Zn Pd
8 8 16
direct
   0.0000000000000000    0.0000000000000000    0.5000000000000001 Hf
   0.0000000000000000    0.4999999999999999    0.0000000000000002 Hf
   0.4999999999999999    0.2499999999999999    0.2500000000000002 Hf
   0.4999999999999999    0.7500000000000000    0.7500000000000004 Hf
   0.0000000000000000    0.2500000000000000    0.2500000000000001 Hf
   0.0000000000000000    0.7499999999999999    0.7500000000000000 Hf
   0.4999999999999999    0.0000000000000000    0.5000000000000000 Hf
   0.4999999999999999    0.4999999999999999    0.0000000000000000 Hf
   0.0000000000000000    0.0000000000000000    0.0000000000000000 Zn
   0.0000000000000000    0.4999999999999999    0.5000000000000001 Zn
   0.4999999999999999    0.2499999999999999    0.7500000000000000 Zn
   0.4999999999999999    0.7499999999999999    0.2500000000000000 Zn
   0.0000000000000000    0.2499999999999999    0.7500000000000001 Zn
   0.0000000000000000    0.7499999999999999    0.2500000000000002 Zn
   0.4999999999999999    0.9999999999999999    0.0000000000000002 Zn
   0.4999999999999999    0.4999999999999999    0.5000000000000002 Zn
   0.7499999999999999    0.3749999999999999    0.3750000000000000 Pd
   0.7499999999999999    0.8749999999999998    0.8750000000000000 Pd
   0.2500000000000000    0.3749999999999999    0.8750000000000001 Pd
   0.2500000000000000    0.8749999999999999    0.3750000000000002 Pd
   0.2500000000000000    0.1250000000000000    0.6250000000000001 Pd
   0.2500000000000000    0.6249999999999999    0.1250000000000002 Pd
   0.7499999999999999    0.1249999999999999    0.1250000000000000 Pd
   0.7499999999999999    0.6249999999999999    0.6250000000000000 Pd
   0.7499999999999999    0.1249999999999999    0.6250000000000002 Pd
   0.7499999999999999    0.6249999999999999    0.1250000000000004 Pd
   0.2500000000000000    0.1250000000000000    0.1250000000000002 Pd
   0.2500000000000000    0.6249999999999999    0.6250000000000002 Pd
   0.2500000000000000    0.3749999999999999    0.3750000000000002 Pd
   0.2500000000000000    0.8749999999999999    0.8750000000000002 Pd
   0.7499999999999999    0.3749999999999999    0.8750000000000002 Pd
   0.7499999999999999    0.8749999999999998    0.3750000000000004 Pd
