Li8 As8 Rh16
1.0
   5.9263039962761708    0.0000000000000000   -5.9263039962761699
   0.0000000000000019   11.8526079925523398   -5.9263039962761699
   0.0000000000000000    0.0000000000000000    5.9263039962761708
Li As Rh
8 8 16
direct
   0.0000000000000000    0.0000000000000000    0.0000000000000000 Li
   0.0000000000000000    0.5000000000000000    0.5000000000000000 Li
   0.5000000000000000    0.2500000000000000    0.7500000000000000 Li
   0.5000000000000000    0.7500000000000000    0.2500000000000000 Li
   0.0000000000000000    0.2500000000000001    0.7500000000000000 Li
   0.0000000000000000    0.7500000000000000    0.2500000000000000 Li
   0.5000000000000000    0.0000000000000001    0.0000000000000000 Li
   0.5000000000000000    0.5000000000000000    0.5000000000000000 Li
   0.0000000000000000    0.0000000000000000    0.5000000000000000 As
   0.0000000000000000    0.5000000000000000    0.0000000000000000 As
   0.5000000000000000    0.2500000000000001    0.2500000000000000 As
   0.5000000000000000    0.7500000000000000    0.7500000000000000 As
   0.0000000000000000    0.2500000000000000    0.2500000000000000 As
   0.0000000000000000    0.7500000000000000    0.7500000000000000 As
   0.5000000000000000    0.0000000000000000    0.5000000000000000 As
   0.5000000000000000    0.5000000000000000    0.0000000000000000 As
   0.7500000000000000    0.3750000000000001    0.3750000000000000 Rh
   0.7500000000000000    0.8750000000000001    0.8750000000000000 Rh
   0.2500000000000000    0.3750000000000000    0.8750000000000000 Rh
   0.2500000000000000    0.8750000000000001    0.3750000000000000 Rh
   0.2500000000000000    0.1250000000000000    0.6250000000000000 Rh
   0.2500000000000000    0.6250000000000001    0.1250000000000000 Rh
   0.7500000000000000    0.1250000000000001    0.1250000000000000 Rh
   0.7500000000000000    0.6250000000000001    0.6250000000000000 Rh
   0.7500000000000000    0.1250000000000001    0.6250000000000000 Rh
   0.7500000000000000    0.6250000000000001    0.1250000000000000 Rh
   0.2500000000000000    0.1250000000000001    0.1250000000000000 Rh
   0.2500000000000000    0.6250000000000001    0.6250000000000000 Rh
   0.2500000000000000    0.3750000000000001    0.3750000000000000 Rh
   0.2500000000000000    0.8750000000000001    0.8750000000000000 Rh
   0.7500000000000000    0.3750000000000001    0.8750000000000000 Rh
   0.7500000000000000    0.8750000000000001    0.3750000000000000 Rh
