Sc8 Ga8 Ru16
1.0
   6.2394375255209313    0.0000000000000000   -6.2394375255209304
   0.0000000000000020   12.4788750510418645   -6.2394375255209322
   0.0000000000000000    0.0000000000000000    6.2394375255209313
Sc Ga Ru
8 8 16
direct
   0.0000000000000000    0.0000000000000000    0.5000000000000000 Sc
   0.0000000000000000    0.5000000000000000    0.0000000000000000 Sc
   0.5000000000000000    0.2500000000000000    0.2500000000000000 Sc
   0.5000000000000000    0.7500000000000000    0.7500000000000000 Sc
   0.0000000000000000    0.2500000000000000    0.2500000000000000 Sc
   0.0000000000000000    0.7500000000000000    0.7500000000000000 Sc
   0.5000000000000000    0.0000000000000000    0.5000000000000000 Sc
   0.5000000000000000    0.5000000000000000    0.0000000000000000 Sc
   0.0000000000000000    0.0000000000000000    0.0000000000000000 Ga
   0.0000000000000000    0.5000000000000000    0.5000000000000000 Ga
   0.5000000000000000    0.2500000000000000    0.7500000000000000 Ga
   0.5000000000000000    0.7500000000000000    0.2500000000000000 Ga
   0.0000000000000000    0.2500000000000000    0.7500000000000000 Ga
   0.0000000000000000    0.7500000000000000    0.2500000000000000 Ga
   0.5000000000000000    0.0000000000000000    0.0000000000000000 Ga
   0.5000000000000000    0.5000000000000000    0.5000000000000000 Ga
   0.2500000000000000    0.3750000000000000    0.8750000000000000 Ru
   0.2500000000000000    0.8749999999999999    0.3750000000000000 Ru
   0.7500000000000000    0.3750000000000000    0.3750000000000000 Ru
   0.7500000000000000    0.8749999999999999    0.8750000000000000 Ru
   0.7500000000000000    0.1250000000000000    0.1250000000000000 Ru
   0.7500000000000000    0.6250000000000000    0.6250000000000000 Ru
   0.2500000000000000    0.1250000000000000    0.6250000000000000 Ru
   0.2500000000000000    0.6250000000000000    0.1250000000000000 Ru
   0.2500000000000000    0.1250000000000000    0.1250000000000000 Ru
   0.2500000000000000    0.6250000000000000    0.6250000000000000 Ru
   0.7500000000000000    0.1250000000000000    0.6250000000000002 Ru
   0.7500000000000000    0.6250000000000000    0.1250000000000004 Ru
   0.7500000000000000    0.3750000000000000    0.8750000000000002 Ru
   0.7500000000000000    0.8749999999999999    0.3750000000000000 Ru
   0.2500000000000000    0.3750000000000000    0.3750000000000000 Ru
   0.2500000000000000    0.8749999999999999    0.8750000000000000 Ru
