Sn6 Au30
1.0
   4.4834000956687063    0.0000000000000000   -2.5884922521191229
   0.0000000000000047   29.2734939617556051    5.1769845042382450
   0.0000000000000000    0.0000000000000000    5.1769845042382432
Sn Au
6 30
direct
   0.0000000000000000    0.0000000000000000    0.0000000000000000 Sn
   0.0000000000000000    0.4999999999999999    0.4999999999999999 Sn
   0.3333333333333333    0.1666666666666666    0.4999999999999999 Sn
   0.3333333333333333    0.6666666666666665    0.0000000000000000 Sn
   0.6666666666666666    0.3333333333333333    0.0000000000000000 Sn
   0.6666666666666666    0.8333333333333333    0.5000000000000001 Sn
   0.3333333333333333    0.0014989723959768    0.6651676942706898 Au
   0.3333333333333333    0.5014989723959767    0.1651676942706899 Au
   0.3387989466103307    0.0833333333333333    0.2500000000000000 Au
   0.3387989466103307    0.5833333333333333    0.7499999999999999 Au
   0.9945343867230025    0.0833333333333333    0.5778677200563359 Au
   0.9945343867230024    0.5833333333333333    0.0778677200563360 Au
   0.6666666666666667    0.0833333333333333    0.9221322799436641 Au
   0.6666666666666666    0.5833333333333333    0.4221322799436639 Au
   0.0000000000000000    0.1651676942706899    0.8348323057293101 Au
   0.0000000000000000    0.6651676942706898    0.3348323057293101 Au
   0.6666666666666666    0.1681656390626435    0.1651676942706897 Au
   0.6666666666666666    0.6681656390626435    0.6651676942706898 Au
   0.6721322799436640    0.2500000000000000    0.7500000000000000 Au
   0.6721322799436640    0.7500000000000000    0.2499999999999999 Au
   0.3278677200563358    0.2500000000000000    0.0778677200563358 Au
   0.3278677200563358    0.7500000000000000    0.5778677200563357 Au
   0.0000000000000000    0.2500000000000000    0.4221322799436640 Au
   0.0000000000000000    0.7499999999999999    0.9221322799436639 Au
   0.3333333333333333    0.3318343609373565    0.3348323057293101 Au
   0.3333333333333333    0.8318343609373564    0.8348323057293101 Au
   0.0000000000000000    0.3348323057293102    0.6651676942706899 Au
   0.0000000000000000    0.8348323057293100    0.1651676942706899 Au
   0.0054656132769972    0.4166666666666666    0.2499999999999999 Au
   0.0054656132769972    0.9166666666666665    0.7499999999999999 Au
   0.6612010533896693    0.4166666666666666    0.5778677200563359 Au
   0.6612010533896692    0.9166666666666665    0.0778677200563358 Au
   0.3333333333333335    0.4166666666666666    0.9221322799436640 Au
   0.3333333333333336    0.9166666666666665    0.4221322799436643 Au
   0.6666666666666666    0.4985010276040232    0.8348323057293101 Au
   0.6666666666666666    0.9985010276040230    0.3348323057293103 Au
