Ti20 Al20
1.0
   5.6452459801542165    0.0000000000000000   -2.8226229900771083
  -0.0000000000000005    8.1454153428691463   -2.8226229900771092
   0.0000000000000000    0.0000000000000000   33.8714758809253027
Ti Al Ti Al Ti Al Ti Al Ti Al
4 4 4 4 4 4 4 4 4 4
Selective dynamics
direct
   0.7500000000000000    0.7499999999999999    0.3541666666666666 T T T Ti
   0.2500000000000000    0.2500000000000000    0.3541666666666666 T T T Ti
   0.2500000000000000    0.7500000000000000    0.3124999999999999 T T T Ti
   0.7500000000000000    0.2499999999999999    0.3124999999999999 T T T Ti
   0.5000000000000000    0.4999999999999999    0.3541666666666666 T T T Al
   0.0000000000000000    0.0000000000000000    0.3541666666666666 T T T Al
   0.0000000000000000    0.5000000000000000    0.3124999999999999 T T T Al
   0.5000000000000000    0.0000000000000000    0.3124999999999999 T T T Al
   0.7500000000000000    0.7499999999999999    0.4374999999999999 F F F Ti
   0.2500000000000000    0.2500000000000000    0.4374999999999999 F F F Ti
   0.2500000000000000    0.7500000000000000    0.3958333333333333 T T T Ti
   0.7500000000000000    0.2499999999999999    0.3958333333333333 T T T Ti
   0.5000000000000000    0.4999999999999999    0.4374999999999999 F F F Al
   0.0000000000000000    0.0000000000000000    0.4374999999999999 F F F Al
   0.0000000000000000    0.5000000000000000    0.3958333333333333 T T T Al
   0.5000000000000000    0.0000000000000000    0.3958333333333333 T T T Al
   0.7500000000000000    0.7499999999999999    0.5208333333333333 F F F Ti
   0.2500000000000000    0.2500000000000000    0.5208333333333333 F F F Ti
   0.2500000000000000    0.7500000000000000    0.4791666666666666 F F F Ti
   0.7500000000000000    0.2499999999999999    0.4791666666666666 F F F Ti
   0.5000000000000000    0.4999999999999999    0.5208333333333333 F F F Al
   0.0000000000000000    0.0000000000000000    0.5208333333333333 F F F Al
   0.0000000000000000    0.5000000000000000    0.4791666666666666 F F F Al
   0.5000000000000000    0.0000000000000000    0.4791666666666666 F F F Al
   0.7500000000000000    0.7499999999999999    0.6041666666666666 T T T Ti
   0.2500000000000000    0.2500000000000000    0.6041666666666666 T T T Ti
   0.2500000000000000    0.7500000000000000    0.5625000000000000 F F F Ti
   0.7500000000000000    0.2499999999999999    0.5625000000000000 F F F Ti
   0.5000000000000000    0.4999999999999999    0.6041666666666666 T T T Al
   0.0000000000000000    0.0000000000000000    0.6041666666666666 T T T Al
   0.0000000000000000    0.5000000000000000    0.5625000000000000 F F F Al
   0.5000000000000000    0.0000000000000000    0.5625000000000000 F F F Al
   0.7500000000000000    0.7499999999999999    0.6875000000000000 T T T Ti
   0.2500000000000000    0.2500000000000000    0.6875000000000000 T T T Ti
   0.2500000000000000    0.7500000000000000    0.6458333333333333 T T T Ti
   0.7500000000000000    0.2499999999999999    0.6458333333333333 T T T Ti
   0.5000000000000000    0.4999999999999999    0.6875000000000000 T T T Al
   0.0000000000000000    0.0000000000000000    0.6875000000000000 T T T Al
   0.0000000000000000    0.5000000000000000    0.6458333333333333 T T T Al
   0.5000000000000000    0.0000000000000000    0.6458333333333333 T T T Al
