Bi18 Te9 Se18
1.0
   3.7037562058513025    0.0000000000000000   -2.1383646424609974
   0.0000000000000051   31.6924652475217883    8.5534585698439827
   0.0000000000000000    0.0000000000000000   34.2138342793759449
Bi Te Se Bi Te Se Bi Te Se
6 3 6 6 3 6 6 3 6
Selective dynamics
direct
   0.6666666666666666    0.0672996621134804    0.3998417511382966 T T T Bi
   0.6666666666666667    0.2660336712198529    0.3501582488617034 T T T Bi
   0.0000000000000000    0.4006329954468137    0.3998417511382966 T T T Bi
   0.0000000000000000    0.5993670045531863    0.3501582488617034 T T T Bi
   0.3333333333333332    0.7339663287801470    0.3998417511382966 T T T Bi
   0.3333333333333334    0.9327003378865195    0.3501582488617034 T T T Bi
   0.0000000000000000    0.0000000000000000    0.3750000000000000 T T T Te
   0.3333333333333334    0.3333333333333333    0.3750000000000000 T T T Te
   0.6666666666666666    0.6666666666666666    0.3750000000000000 T T T Te
   0.3333333333333334    0.1151291373717369    0.4295510489903991 F F F Se
   0.0000000000000000    0.2182041959615964    0.3204489510096009 T T T Se
   0.6666666666666665    0.4484624707050702    0.4295510489903991 F F F Se
   0.3333333333333334    0.5515375292949297    0.3204489510096009 T T T Se
   0.0000000000000000    0.7817958040384035    0.4295510489903991 F F F Se
   0.6666666666666666    0.8848708626282631    0.3204489510096009 T T T Se
   0.6666666666666666    0.0672996621134804    0.5248417511382966 F F F Bi
   0.6666666666666667    0.2660336712198529    0.4751582488617034 F F F Bi
   0.0000000000000000    0.4006329954468137    0.5248417511382966 F F F Bi
   0.0000000000000000    0.5993670045531863    0.4751582488617034 F F F Bi
   0.3333333333333332    0.7339663287801470    0.5248417511382966 F F F Bi
   0.3333333333333334    0.9327003378865195    0.4751582488617034 F F F Bi
   0.0000000000000000    0.0000000000000000    0.5000000000000000 F F F Te
   0.3333333333333334    0.3333333333333333    0.5000000000000000 F F F Te
   0.6666666666666666    0.6666666666666666    0.5000000000000000 F F F Te
   0.3333333333333334    0.1151291373717369    0.5545510489903991 F F F Se
   0.0000000000000000    0.2182041959615964    0.4454489510096009 F F F Se
   0.6666666666666665    0.4484624707050702    0.5545510489903991 F F F Se
   0.3333333333333334    0.5515375292949297    0.4454489510096009 F F F Se
   0.0000000000000000    0.7817958040384035    0.5545510489903991 F F F Se
   0.6666666666666666    0.8848708626282631    0.4454489510096009 F F F Se
   0.6666666666666666    0.0672996621134804    0.6498417511382966 T T T Bi
   0.6666666666666667    0.2660336712198529    0.6001582488617034 T T T Bi
   0.0000000000000000    0.4006329954468137    0.6498417511382966 T T T Bi
   0.0000000000000000    0.5993670045531863    0.6001582488617034 T T T Bi
   0.3333333333333332    0.7339663287801470    0.6498417511382966 T T T Bi
   0.3333333333333334    0.9327003378865195    0.6001582488617034 T T T Bi
   0.0000000000000000    0.0000000000000000    0.6250000000000000 T T T Te
   0.3333333333333334    0.3333333333333333    0.6250000000000000 T T T Te
   0.6666666666666666    0.6666666666666666    0.6250000000000000 T T T Te
   0.3333333333333334    0.1151291373717369    0.6795510489903991 T T T Se
   0.0000000000000000    0.2182041959615964    0.5704489510096009 F F F Se
   0.6666666666666665    0.4484624707050702    0.6795510489903991 T T T Se
   0.3333333333333334    0.5515375292949297    0.5704489510096009 F F F Se
   0.0000000000000000    0.7817958040384035    0.6795510489903991 T T T Se
   0.6666666666666666    0.8848708626282631    0.5704489510096009 F F F Se
