Cr12 Rh24 Se48
1.0
  13.2867708182906465    0.0000000000000000    6.3159483045738982
   9.1207897055491731    6.1641737196971214   12.8968644122101228
   0.0000000000000000    0.0000000000000000   52.6473288610897754
Cr Rh Se Cr Rh Se Cr Rh Se
4 8 16 4 8 16 4 8 16
Selective dynamics
direct
   0.5000000000000000    0.5000000000000002    0.3727678571428572 T T T Cr
   0.0000000000000000    0.0000000000000000    0.4352678571428572 F F F Cr
   0.7500000000000000    0.7500000000000002    0.3415178571428572 T T T Cr
   0.2500000000000000    0.2500000000000001    0.4040178571428572 T T T Cr
   0.7500000000000000    0.0090735328376796    0.3998259929179755 T T T Rh
   0.2500000000000000    0.5090735328376796    0.3373259929179755 T T T Rh
   0.5000000000000000    0.2409264671623205    0.3144597213677388 T T T Rh
   0.0000000000000000    0.7409264671623205    0.3769597213677388 T T T Rh
   0.5000000000000000    0.7590735328376796    0.4310759929179755 F F F Rh
   0.0000000000000000    0.2590735328376796    0.3685759929179755 T T T Rh
   0.7500000000000000    0.4909264671623206    0.4082097213677388 T T T Rh
   0.2500000000000000    0.9909264671623206    0.3457097213677387 T T T Rh
   0.7500000000000000    0.1178013192591800    0.4167580997203406 F F F Se
   0.2500000000000000    0.6178013192591801    0.3542580997203406 T T T Se
   0.5000000000000000    0.1321986807408200    0.4225276145653737 F F F Se
   0.0000000000000000    0.6321986807408200    0.3600276145653737 T T T Se
   0.7500000000000000    0.8781592864674714    0.3933026448166436 T T T Se
   0.2500000000000000    0.3781592864674714    0.3308026448166436 T T T Se
   0.5000000000000000    0.3718407135325288    0.3209830694690707 T T T Se
   0.0000000000000000    0.8718407135325287    0.3834830694690707 T T T Se
   0.5000000000000000    0.8678013192591801    0.3230080997203406 T T T Se
   0.0000000000000000    0.3678013192591800    0.3855080997203406 T T T Se
   0.7500000000000000    0.3821986807408200    0.3912776145653737 T T T Se
   0.2500000000000000    0.8821986807408200    0.3287776145653737 T T T Se
   0.5000000000000000    0.6281592864674714    0.4245526448166436 F F F Se
   0.0000000000000000    0.1281592864674713    0.3620526448166436 T T T Se
   0.7500000000000000    0.6218407135325290    0.4147330694690706 T T T Se
   0.2500000000000000    0.1218407135325289    0.3522330694690707 T T T Se
   0.5000000000000000    0.5000000000000002    0.4977678571428572 F F F Cr
   0.0000000000000000    0.0000000000000000    0.5602678571428572 F F F Cr
   0.7500000000000000    0.7500000000000002    0.4665178571428572 F F F Cr
   0.2500000000000000    0.2500000000000001    0.5290178571428572 F F F Cr
   0.7500000000000000    0.0090735328376796    0.5248259929179755 F F F Rh
   0.2500000000000000    0.5090735328376796    0.4623259929179755 F F F Rh
   0.5000000000000000    0.2409264671623205    0.4394597213677388 F F F Rh
   0.0000000000000000    0.7409264671623205    0.5019597213677387 F F F Rh
   0.5000000000000000    0.7590735328376796    0.5560759929179755 F F F Rh
   0.0000000000000000    0.2590735328376796    0.4935759929179755 F F F Rh
   0.7500000000000000    0.4909264671623206    0.5332097213677387 F F F Rh
   0.2500000000000000    0.9909264671623206    0.4707097213677387 F F F Rh
   0.7500000000000000    0.1178013192591800    0.5417580997203406 F F F Se
   0.2500000000000000    0.6178013192591801    0.4792580997203406 F F F Se
   0.5000000000000000    0.1321986807408200    0.5475276145653737 F F F Se
   0.0000000000000000    0.6321986807408200    0.4850276145653737 F F F Se
   0.7500000000000000    0.8781592864674714    0.5183026448166436 F F F Se
   0.2500000000000000    0.3781592864674714    0.4558026448166436 F F F Se
   0.5000000000000000    0.3718407135325288    0.4459830694690707 F F F Se
   0.0000000000000000    0.8718407135325287    0.5084830694690707 F F F Se
   0.5000000000000000    0.8678013192591801    0.4480080997203406 F F F Se
   0.0000000000000000    0.3678013192591800    0.5105080997203406 F F F Se
   0.7500000000000000    0.3821986807408200    0.5162776145653737 F F F Se
   0.2500000000000000    0.8821986807408200    0.4537776145653737 F F F Se
   0.5000000000000000    0.6281592864674714    0.5495526448166436 F F F Se
   0.0000000000000000    0.1281592864674713    0.4870526448166436 F F F Se
   0.7500000000000000    0.6218407135325290    0.5397330694690706 F F F Se
   0.2500000000000000    0.1218407135325289    0.4772330694690707 F F F Se
   0.5000000000000000    0.5000000000000002    0.6227678571428572 T T T Cr
   0.0000000000000000    0.0000000000000000    0.6852678571428572 T T T Cr
   0.7500000000000000    0.7500000000000002    0.5915178571428572 T T T Cr
   0.2500000000000000    0.2500000000000001    0.6540178571428572 T T T Cr
   0.7500000000000000    0.0090735328376796    0.6498259929179755 T T T Rh
   0.2500000000000000    0.5090735328376796    0.5873259929179755 T T T Rh
   0.5000000000000000    0.2409264671623205    0.5644597213677387 F F F Rh
   0.0000000000000000    0.7409264671623205    0.6269597213677387 T T T Rh
   0.5000000000000000    0.7590735328376796    0.6810759929179755 T T T Rh
   0.0000000000000000    0.2590735328376796    0.6185759929179755 T T T Rh
   0.7500000000000000    0.4909264671623206    0.6582097213677387 T T T Rh
   0.2500000000000000    0.9909264671623206    0.5957097213677387 T T T Rh
   0.7500000000000000    0.1178013192591800    0.6667580997203406 T T T Se
   0.2500000000000000    0.6178013192591801    0.6042580997203406 T T T Se
   0.5000000000000000    0.1321986807408200    0.6725276145653737 T T T Se
   0.0000000000000000    0.6321986807408200    0.6100276145653737 T T T Se
   0.7500000000000000    0.8781592864674714    0.6433026448166436 T T T Se
   0.2500000000000000    0.3781592864674714    0.5808026448166436 F F F Se
   0.5000000000000000    0.3718407135325288    0.5709830694690707 F F F Se
   0.0000000000000000    0.8718407135325287    0.6334830694690707 T T T Se
   0.5000000000000000    0.8678013192591801    0.5730080997203406 F F F Se
   0.0000000000000000    0.3678013192591800    0.6355080997203406 T T T Se
   0.7500000000000000    0.3821986807408200    0.6412776145653737 T T T Se
   0.2500000000000000    0.8821986807408200    0.5787776145653737 F F F Se
   0.5000000000000000    0.6281592864674714    0.6745526448166436 T T T Se
   0.0000000000000000    0.1281592864674713    0.6120526448166437 T T T Se
   0.7500000000000000    0.6218407135325290    0.6647330694690706 T T T Se
   0.2500000000000000    0.1218407135325289    0.6022330694690707 T T T Se
