Mg12 Cu12 As12
1.0
   4.0129159267749577    0.0000000000000000    0.0000000000000002
  -0.0000000000000023    8.0258318535499154    6.3066539576043166
   0.0000000000000000    0.0000000000000000   44.1465777032302213
Mg Cu As Mg Cu As Mg Cu As
4 4 4 4 4 4 4 4 4
Selective dynamics
direct
   0.5000000000000000    0.5000000000000000    0.3848347619229372 T T T Mg
   0.5000000000000000    0.0000000000000000    0.3134061904943658 T T T Mg
   0.0000000000000000    0.2500000000000000    0.3294509523627770 T T T Mg
   0.0000000000000000    0.7500000000000000    0.4008795237913485 F F F Mg
   0.5000000000000000    0.2500000000000000    0.3750000000000000 T T T Cu
   0.5000000000000000    0.7500000000000000    0.3035714285714286 T T T Cu
   0.0000000000000000    0.5000000000000000    0.3392857142857143 T T T Cu
   0.0000000000000000    0.0000000000000000    0.4107142857142857 F F F Cu
   0.5000000000000000    0.5000000000000000    0.3029082565902331 T T T As
   0.5000000000000000    0.0000000000000000    0.3743368280188045 T T T As
   0.0000000000000000    0.2500000000000000    0.4113774576954812 F F F As
   0.0000000000000000    0.7500000000000000    0.3399488862669098 T T T As
   0.5000000000000000    0.5000000000000000    0.5276919047800801 F F F Mg
   0.5000000000000000    0.0000000000000000    0.4562633333515087 F F F Mg
   0.0000000000000000    0.2500000000000000    0.4723080952199198 F F F Mg
   0.0000000000000000    0.7500000000000000    0.5437366666484913 F F F Mg
   0.5000000000000000    0.2500000000000000    0.5178571428571428 F F F Cu
   0.5000000000000000    0.7500000000000000    0.4464285714285714 F F F Cu
   0.0000000000000000    0.5000000000000000    0.4821428571428571 F F F Cu
   0.0000000000000000    0.0000000000000000    0.5535714285714286 F F F Cu
   0.5000000000000000    0.5000000000000000    0.4457653994473759 F F F As
   0.5000000000000000    0.0000000000000000    0.5171939708759474 F F F As
   0.0000000000000000    0.2500000000000000    0.5542346005526240 F F F As
   0.0000000000000000    0.7500000000000000    0.4828060291240526 F F F As
   0.5000000000000000    0.5000000000000000    0.6705490476372229 T T T Mg
   0.5000000000000000    0.0000000000000000    0.5991204762086515 F F F Mg
   0.0000000000000000    0.2500000000000000    0.6151652380770627 T T T Mg
   0.0000000000000000    0.7500000000000000    0.6865938095056342 T T T Mg
   0.5000000000000000    0.2500000000000000    0.6607142857142857 T T T Cu
   0.5000000000000000    0.7500000000000000    0.5892857142857143 F F F Cu
   0.0000000000000000    0.5000000000000000    0.6250000000000000 T T T Cu
   0.0000000000000000    0.0000000000000000    0.6964285714285714 T T T Cu
   0.5000000000000000    0.5000000000000000    0.5886225423045188 F F F As
   0.5000000000000000    0.0000000000000000    0.6600511137330902 T T T As
   0.0000000000000000    0.2500000000000000    0.6970917434097669 T T T As
   0.0000000000000000    0.7500000000000000    0.6256631719811955 T T T As
