Pd36 Pb24 Se24
1.0
  14.7550090507253682    0.0000000000000000    0.0000000000000009
   0.0000000000000008    5.2418022709561463   -9.0790678565259793
   0.0000000000000000    0.0000000000000000   54.4744071391558577
Pd Pb Se Pd Pb Se Pd Pb Se Pd Pb Se
9 6 6 9 6 6 9 6 6 9 6 6
Selective dynamics
direct
   0.0000000000000000    0.0000000000000000    0.2936507936507936 T T T Pd
   0.6666666666666667    0.1666666666666669    0.2936507936507936 T T T Pd
   0.0000000000000000    0.5000000000000000    0.3492063492063492 T T T Pd
   0.6666666666666667    0.6666666666666667    0.2936507936507936 T T T Pd
   0.3333333333333334    0.8333333333333335    0.2936507936507936 T T T Pd
   0.6666666666666667    0.1666666666666667    0.3492063492063492 T T T Pd
   0.3333333333333334    0.3333333333333334    0.2936507936507936 T T T Pd
   0.0000000000000000    0.5000000000000000    0.2936507936507936 T T T Pd
   0.3333333333333334    0.8333333333333335    0.3492063492063492 T T T Pd
   0.0000000000000000    0.0000000000000000    0.3492063492063491 T T T Pb
   0.8333333333333334    0.3333333333333335    0.3492063492063492 T T T Pb
   0.6666666666666667    0.6666666666666667    0.3492063492063492 T T T Pb
   0.5000000000000000    0.0000000000000002    0.3492063492063492 T T T Pb
   0.3333333333333334    0.3333333333333334    0.3492063492063492 T T T Pb
   0.1666666666666667    0.6666666666666670    0.3492063492063492 T T T Pb
   0.5476616948999913    0.3333333333333334    0.3492063492063492 T T T Se
   0.1190049717666755    0.3333333333333333    0.3492063492063491 T T T Se
   0.2143283615666580    0.0000000000000000    0.3492063492063491 T T T Se
   0.7856716384333422    0.0000000000000000    0.3492063492063491 T T T Se
   0.8809950282333245    0.6666666666666669    0.3492063492063492 T T T Se
   0.4523383051000089    0.6666666666666666    0.3492063492063491 T T T Se
   0.0000000000000000    0.0000000000000000    0.4047619047619047 F F F Pd
   0.6666666666666667    0.1666666666666669    0.4047619047619047 F F F Pd
   0.0000000000000000    0.5000000000000000    0.4603174603174602 F F F Pd
   0.6666666666666667    0.6666666666666667    0.4047619047619047 F F F Pd
   0.3333333333333334    0.8333333333333335    0.4047619047619047 F F F Pd
   0.6666666666666667    0.1666666666666667    0.4603174603174603 F F F Pd
   0.3333333333333334    0.3333333333333334    0.4047619047619047 F F F Pd
   0.0000000000000000    0.5000000000000000    0.4047619047619047 F F F Pd
   0.3333333333333334    0.8333333333333335    0.4603174603174603 F F F Pd
   0.0000000000000000    0.0000000000000000    0.4603174603174602 F F F Pb
   0.8333333333333334    0.3333333333333335    0.4603174603174603 F F F Pb
   0.6666666666666667    0.6666666666666667    0.4603174603174602 F F F Pb
   0.5000000000000000    0.0000000000000002    0.4603174603174603 F F F Pb
   0.3333333333333334    0.3333333333333334    0.4603174603174602 F F F Pb
   0.1666666666666667    0.6666666666666670    0.4603174603174603 F F F Pb
   0.5476616948999913    0.3333333333333334    0.4603174603174602 F F F Se
   0.1190049717666755    0.3333333333333333    0.4603174603174602 F F F Se
   0.2143283615666580    0.0000000000000000    0.4603174603174602 F F F Se
   0.7856716384333422    0.0000000000000000    0.4603174603174602 F F F Se
   0.8809950282333245    0.6666666666666669    0.4603174603174603 F F F Se
   0.4523383051000089    0.6666666666666666    0.4603174603174602 F F F Se
   0.0000000000000000    0.0000000000000000    0.5158730158730158 F F F Pd
   0.6666666666666667    0.1666666666666669    0.5158730158730158 F F F Pd
   0.0000000000000000    0.5000000000000000    0.5714285714285714 F F F Pd
   0.6666666666666667    0.6666666666666667    0.5158730158730158 F F F Pd
   0.3333333333333334    0.8333333333333335    0.5158730158730158 F F F Pd
   0.6666666666666667    0.1666666666666667    0.5714285714285714 F F F Pd
   0.3333333333333334    0.3333333333333334    0.5158730158730158 F F F Pd
   0.0000000000000000    0.5000000000000000    0.5158730158730158 F F F Pd
   0.3333333333333334    0.8333333333333335    0.5714285714285714 F F F Pd
   0.0000000000000000    0.0000000000000000    0.5714285714285714 F F F Pb
   0.8333333333333334    0.3333333333333335    0.5714285714285714 F F F Pb
   0.6666666666666667    0.6666666666666667    0.5714285714285714 F F F Pb
   0.5000000000000000    0.0000000000000002    0.5714285714285714 F F F Pb
   0.3333333333333334    0.3333333333333334    0.5714285714285714 F F F Pb
   0.1666666666666667    0.6666666666666670    0.5714285714285714 F F F Pb
   0.5476616948999913    0.3333333333333334    0.5714285714285714 F F F Se
   0.1190049717666755    0.3333333333333333    0.5714285714285714 F F F Se
   0.2143283615666580    0.0000000000000000    0.5714285714285714 F F F Se
   0.7856716384333422    0.0000000000000000    0.5714285714285714 F F F Se
   0.8809950282333245    0.6666666666666669    0.5714285714285714 F F F Se
   0.4523383051000089    0.6666666666666666    0.5714285714285714 F F F Se
   0.0000000000000000    0.0000000000000000    0.6269841269841270 T T T Pd
   0.6666666666666667    0.1666666666666669    0.6269841269841270 T T T Pd
   0.0000000000000000    0.5000000000000000    0.6825396825396824 T T T Pd
   0.6666666666666667    0.6666666666666667    0.6269841269841270 T T T Pd
   0.3333333333333334    0.8333333333333335    0.6269841269841270 T T T Pd
   0.6666666666666667    0.1666666666666667    0.6825396825396826 T T T Pd
   0.3333333333333334    0.3333333333333334    0.6269841269841270 T T T Pd
   0.0000000000000000    0.5000000000000000    0.6269841269841270 T T T Pd
   0.3333333333333334    0.8333333333333335    0.6825396825396826 T T T Pd
   0.0000000000000000    0.0000000000000000    0.6825396825396824 T T T Pb
   0.8333333333333334    0.3333333333333335    0.6825396825396826 T T T Pb
   0.6666666666666667    0.6666666666666667    0.6825396825396824 T T T Pb
   0.5000000000000000    0.0000000000000002    0.6825396825396826 T T T Pb
   0.3333333333333334    0.3333333333333334    0.6825396825396824 T T T Pb
   0.1666666666666667    0.6666666666666670    0.6825396825396826 T T T Pb
   0.5476616948999913    0.3333333333333334    0.6825396825396824 T T T Se
   0.1190049717666755    0.3333333333333333    0.6825396825396824 T T T Se
   0.2143283615666580    0.0000000000000000    0.6825396825396824 T T T Se
   0.7856716384333422    0.0000000000000000    0.6825396825396824 T T T Se
   0.8809950282333245    0.6666666666666669    0.6825396825396826 T T T Se
   0.4523383051000089    0.6666666666666666    0.6825396825396824 T T T Se
