Tl8 Ga8 Se16
1.0
   6.5331034491039244    0.0000000000000000    0.0000000000000004
   0.0000000000000013    8.2296689416592734   -8.2296689416592734
   0.0000000000000000    0.0000000000000000   41.1483447082963636
Tl Ga Se Tl Ga Se
4 4 8 4 4 8
Selective dynamics
direct
   0.2500000000000000    0.0000000000000000    0.4500000000000001 T T T Tl
   0.7500000000000000    0.0000000000000000    0.4500000000000001 T T T Tl
   0.7500000000000000    0.5000000000000000    0.4500000000000001 T T T Tl
   0.2500000000000000    0.5000000000000000    0.4500000000000001 T T T Tl
   0.7500000000000000    0.5000000000000000    0.3500000000000000 T T T Ga
   0.2500000000000000    0.5000000000000000    0.3500000000000000 T T T Ga
   0.2500000000000000    0.0000000000000000    0.3500000000000000 T T T Ga
   0.7500000000000000    0.0000000000000000    0.3500000000000000 T T T Ga
   0.0000000000000000    0.6592106174433181    0.3500000000000000 T T T Se
   0.5000000000000000    0.6592106174433181    0.4136842469773273 T T T Se
   0.0000000000000000    0.3407893825566820    0.3500000000000000 T T T Se
   0.5000000000000000    0.3407893825566820    0.4863157530226728 F F F Se
   0.5000000000000000    0.1592106174433181    0.3500000000000000 T T T Se
   0.0000000000000000    0.1592106174433181    0.4136842469773273 T T T Se
   0.4999999999999999    0.8407893825566819    0.3500000000000000 T T T Se
   0.0000000000000000    0.8407893825566819    0.4863157530226728 F F F Se
   0.2500000000000000    0.0000000000000000    0.6500000000000000 T T T Tl
   0.7500000000000000    0.0000000000000000    0.6500000000000000 T T T Tl
   0.7500000000000000    0.5000000000000000    0.6500000000000000 T T T Tl
   0.2500000000000000    0.5000000000000000    0.6500000000000000 T T T Tl
   0.7500000000000000    0.5000000000000000    0.5500000000000000 F F F Ga
   0.2500000000000000    0.5000000000000000    0.5500000000000000 F F F Ga
   0.2500000000000000    0.0000000000000000    0.5500000000000000 F F F Ga
   0.7500000000000000    0.0000000000000000    0.5500000000000000 F F F Ga
   0.0000000000000000    0.6592106174433181    0.5500000000000000 F F F Se
   0.5000000000000000    0.6592106174433181    0.6136842469773273 T T T Se
   0.0000000000000000    0.3407893825566820    0.5500000000000000 F F F Se
   0.5000000000000000    0.3407893825566820    0.6863157530226728 T T T Se
   0.5000000000000000    0.1592106174433181    0.5500000000000000 F F F Se
   0.0000000000000000    0.1592106174433181    0.6136842469773273 T T T Se
   0.4999999999999999    0.8407893825566819    0.5500000000000000 F F F Se
   0.0000000000000000    0.8407893825566819    0.6863157530226728 T T T Se
