Mn8 Te8
1.0
   3.6570187193358685    0.0000000000000000   -2.1113807420400632
   0.0000000000000010    5.9127364381465668   -4.2227614840801282
   0.0000000000000000    0.0000000000000000   38.0048533567211493
Mn Te Mn Te Mn Te Mn Te
2 2 2 2 2 2 2 2
Selective dynamics
direct
   0.0000000000000000    0.5000000000000000    0.2916666666666666 T T T Mn
   0.0000000000000000    0.0000000000000000    0.3472222222222222 T T T Mn
   0.3333333333333333    0.2500000000000001    0.3379629629629629 T T T Te
   0.6666666666666666    0.7500000000000001    0.3564814814814815 T T T Te
   0.0000000000000000    0.5000000000000000    0.4027777777777777 F F F Mn
   0.0000000000000000    0.0000000000000000    0.4583333333333333 F F F Mn
   0.3333333333333333    0.2500000000000001    0.4490740740740741 F F F Te
   0.6666666666666666    0.7500000000000001    0.4675925925925926 F F F Te
   0.0000000000000000    0.5000000000000000    0.5138888888888888 F F F Mn
   0.0000000000000000    0.0000000000000000    0.5694444444444444 F F F Mn
   0.3333333333333333    0.2500000000000001    0.5601851851851851 F F F Te
   0.6666666666666666    0.7500000000000001    0.5787037037037037 F F F Te
   0.0000000000000000    0.5000000000000000    0.6250000000000000 T T T Mn
   0.0000000000000000    0.0000000000000000    0.6805555555555556 T T T Mn
   0.3333333333333333    0.2500000000000001    0.6712962962962963 T T T Te
   0.6666666666666666    0.7500000000000001    0.6898148148148148 T T T Te
