Sn18 Au90
1.0
  14.6367469808778026    0.0000000000000000    0.0000000000000009
   0.0000000000000014    8.9668001913374109  -10.3539690084764864
   0.0000000000000000    0.0000000000000000   41.4158760339059455
Sn Au Sn Au Sn Au
6 30 6 30 6 30
Selective dynamics
direct
   0.0000000000000000    0.4999999999999999    0.3645833333333333 T T T Sn
   0.0000000000000000    0.0000000000000000    0.4270833333333333 T T T Sn
   0.6666666666666667    0.3333333333333333    0.3854166666666666 T T T Sn
   0.6666666666666667    0.8333333333333334    0.3229166666666666 T T T Sn
   0.3333333333333334    0.1666666666666667    0.4062500000000000 T T T Sn
   0.3333333333333334    0.6666666666666667    0.3437500000000000 T T T Sn
   0.9970020552080464    0.3333333333333333    0.3854166666666666 T T T Au
   0.9970020552080464    0.8333333333333334    0.3229166666666666 T T T Au
   0.8333333333333334    0.3306005266948346    0.4267417325035210 T T T Au
   0.8333333333333334    0.8306005266948346    0.3642417325035210 T T T Au
   0.8333333333333334    0.0027328066384987    0.3447748024894370 T T T Au
   0.8333333333333334    0.5027328066384988    0.4072748024894370 T T T Au
   0.8333333333333334    0.1666666666666666    0.3222334650070420 T T T Au
   0.8333333333333334    0.6666666666666667    0.3847334650070420 T T T Au
   0.6696646114586202    0.4999999999999999    0.3645833333333333 T T T Au
   0.6696646114586202    0.0000000000000000    0.4270833333333333 T T T Au
   0.6636687218747130    0.1666666666666667    0.4062500000000000 T T T Au
   0.6636687218747130    0.6666666666666667    0.3437500000000000 T T T Au
   0.5000000000000000    0.1639338600281680    0.3225750658368543 T T T Au
   0.5000000000000000    0.6639338600281680    0.3850750658368544 T T T Au
   0.5000000000000000    0.3360661399718321    0.4281081358227704 T T T Au
   0.5000000000000000    0.8360661399718321    0.3656081358227704 T T T Au
   0.5000000000000000    0.5000000000000000    0.4055667983403753 T T T Au
   0.5000000000000000    0.0000000000000000    0.3430667983403753 T T T Au
   0.3363312781252868    0.3333333333333333    0.3854166666666666 T T T Au
   0.3363312781252868    0.8333333333333334    0.3229166666666666 T T T Au
   0.3303353885413797    0.4999999999999999    0.3645833333333333 T T T Au
   0.3303353885413797    0.0000000000000000    0.4270833333333333 T T T Au
   0.1666666666666666    0.4972671933615014    0.4059083991701877 T T T Au
   0.1666666666666666    0.9972671933615014    0.3434083991701877 T T T Au
   0.1666666666666666    0.1693994733051654    0.3239414691561037 T T T Au
   0.1666666666666666    0.6693994733051654    0.3864414691561037 T T T Au
   0.1666666666666666    0.3333333333333333    0.4264001316737086 T T T Au
   0.1666666666666666    0.8333333333333333    0.3639001316737086 T T T Au
   0.0029979447919536    0.1666666666666667    0.4062500000000000 T T T Au
   0.0029979447919536    0.6666666666666667    0.3437500000000000 T T T Au
   0.0000000000000000    0.4999999999999999    0.4895833333333333 F F F Sn
   0.0000000000000000    0.0000000000000000    0.5520833333333333 F F F Sn
   0.6666666666666667    0.3333333333333333    0.5104166666666666 F F F Sn
   0.6666666666666667    0.8333333333333334    0.4479166666666666 F F F Sn
   0.3333333333333334    0.1666666666666667    0.5312500000000000 F F F Sn
   0.3333333333333334    0.6666666666666667    0.4687500000000000 F F F Sn
   0.9970020552080464    0.3333333333333333    0.5104166666666666 F F F Au
   0.9970020552080464    0.8333333333333334    0.4479166666666666 F F F Au
   0.8333333333333334    0.3306005266948346    0.5517417325035210 F F F Au
   0.8333333333333334    0.8306005266948346    0.4892417325035210 F F F Au
   0.8333333333333334    0.0027328066384987    0.4697748024894370 F F F Au
   0.8333333333333334    0.5027328066384988    0.5322748024894370 F F F Au
   0.8333333333333334    0.1666666666666666    0.4472334650070420 F F F Au
   0.8333333333333334    0.6666666666666667    0.5097334650070420 F F F Au
   0.6696646114586202    0.4999999999999999    0.4895833333333333 F F F Au
   0.6696646114586202    0.0000000000000000    0.5520833333333333 F F F Au
   0.6636687218747130    0.1666666666666667    0.5312500000000000 F F F Au
   0.6636687218747130    0.6666666666666667    0.4687500000000000 F F F Au
   0.5000000000000000    0.1639338600281680    0.4475750658368543 F F F Au
   0.5000000000000000    0.6639338600281680    0.5100750658368544 F F F Au
   0.5000000000000000    0.3360661399718321    0.5531081358227703 F F F Au
   0.5000000000000000    0.8360661399718321    0.4906081358227704 F F F Au
   0.5000000000000000    0.5000000000000000    0.5305667983403753 F F F Au
   0.5000000000000000    0.0000000000000000    0.4680667983403753 F F F Au
   0.3363312781252868    0.3333333333333333    0.5104166666666666 F F F Au
   0.3363312781252868    0.8333333333333334    0.4479166666666666 F F F Au
   0.3303353885413797    0.4999999999999999    0.4895833333333333 F F F Au
   0.3303353885413797    0.0000000000000000    0.5520833333333333 F F F Au
   0.1666666666666666    0.4972671933615014    0.5309083991701877 F F F Au
   0.1666666666666666    0.9972671933615014    0.4684083991701877 F F F Au
   0.1666666666666666    0.1693994733051654    0.4489414691561037 F F F Au
   0.1666666666666666    0.6693994733051654    0.5114414691561037 F F F Au
   0.1666666666666666    0.3333333333333333    0.5514001316737086 F F F Au
   0.1666666666666666    0.8333333333333333    0.4889001316737086 F F F Au
   0.0029979447919536    0.1666666666666667    0.5312500000000000 F F F Au
   0.0029979447919536    0.6666666666666667    0.4687500000000000 F F F Au
   0.0000000000000000    0.4999999999999999    0.6145833333333333 T T T Sn
   0.0000000000000000    0.0000000000000000    0.6770833333333333 T T T Sn
   0.6666666666666667    0.3333333333333333    0.6354166666666666 T T T Sn
   0.6666666666666667    0.8333333333333334    0.5729166666666666 T T T Sn
   0.3333333333333334    0.1666666666666667    0.6562500000000000 T T T Sn
   0.3333333333333334    0.6666666666666667    0.5937500000000000 T T T Sn
   0.9970020552080464    0.3333333333333333    0.6354166666666666 T T T Au
   0.9970020552080464    0.8333333333333334    0.5729166666666666 T T T Au
   0.8333333333333334    0.3306005266948346    0.6767417325035210 T T T Au
   0.8333333333333334    0.8306005266948346    0.6142417325035210 T T T Au
   0.8333333333333334    0.0027328066384987    0.5947748024894370 T T T Au
   0.8333333333333334    0.5027328066384988    0.6572748024894370 T T T Au
   0.8333333333333334    0.1666666666666666    0.5722334650070420 T T T Au
   0.8333333333333334    0.6666666666666667    0.6347334650070420 T T T Au
   0.6696646114586202    0.4999999999999999    0.6145833333333333 T T T Au
   0.6696646114586202    0.0000000000000000    0.6770833333333333 T T T Au
   0.6636687218747130    0.1666666666666667    0.6562500000000000 T T T Au
   0.6636687218747130    0.6666666666666667    0.5937500000000000 T T T Au
   0.5000000000000000    0.1639338600281680    0.5725750658368542 T T T Au
   0.5000000000000000    0.6639338600281680    0.6350750658368544 T T T Au
   0.5000000000000000    0.3360661399718321    0.6781081358227703 T T T Au
   0.5000000000000000    0.8360661399718321    0.6156081358227703 T T T Au
   0.5000000000000000    0.5000000000000000    0.6555667983403753 T T T Au
   0.5000000000000000    0.0000000000000000    0.5930667983403753 T T T Au
   0.3363312781252868    0.3333333333333333    0.6354166666666666 T T T Au
   0.3363312781252868    0.8333333333333334    0.5729166666666666 T T T Au
   0.3303353885413797    0.4999999999999999    0.6145833333333333 T T T Au
   0.3303353885413797    0.0000000000000000    0.6770833333333333 T T T Au
   0.1666666666666666    0.4972671933615014    0.6559083991701877 T T T Au
   0.1666666666666666    0.9972671933615014    0.5934083991701877 T T T Au
   0.1666666666666666    0.1693994733051654    0.5739414691561037 T T T Au
   0.1666666666666666    0.6693994733051654    0.6364414691561037 T T T Au
   0.1666666666666666    0.3333333333333333    0.6764001316737086 T T T Au
   0.1666666666666666    0.8333333333333333    0.6139001316737086 T T T Au
   0.0029979447919536    0.1666666666666667    0.6562500000000000 T T T Au
   0.0029979447919536    0.6666666666666667    0.5937500000000000 T T T Au
