Cd4 Te4
1.0
   4.6773624048496218    0.0000000000000000    0.0000000000000003
  -2.3386812024248127    4.0507146653060460    0.0000000000000003
   0.0000000000000000    0.0000000000000000   30.7099598203515569
Cd Te Cd Te
2 2 2 2
Selective dynamics
direct
   0.6666666666666666    0.3333333333333334    0.3282216509130195 T T T Cd
   0.3333333333333333    0.6666666666666666    0.4532216509130195 F F F Cd
   0.6666666666666666    0.3333333333333334    0.4217783490869805 F F F Te
   0.3333333333333333    0.6666666666666666    0.2967783490869805 T T T Te
   0.6666666666666666    0.3333333333333334    0.5782216509130195 F F F Cd
   0.3333333333333333    0.6666666666666666    0.7032216509130195 T T T Cd
   0.6666666666666666    0.3333333333333334    0.6717783490869805 T T T Te
   0.3333333333333333    0.6666666666666666    0.5467783490869805 F F F Te
