Bi4 Pd2
1.0
   3.4261099500972394    0.0000000000000000    0.0000000000000002
   0.0000000000000005    3.4261099500972394    0.0000000000000007
   0.0000000000000036   -0.0000000000000014   13.0255453099382379
Bi Pd
4 2
direct
   0.5000000000000000    0.5000000000000000    0.1352236504189968 Bi
  -0.0000000000000000    0.0000000000000000    0.3647763495808867 Bi
   0.0000000000000000   -0.0000000000000000    0.6352236504190364 Bi
   0.5000000000000000    0.5000000000000000    0.8647763495809636 Bi
  -0.0000000000000000   -0.0000000000000000    0.0000000000000000 Pd
   0.5000000000000000    0.5000000000000000    0.5000000000000000 Pd
