Mn4 Sn8
1.0
   6.6223979999999996    0.0000000000000000    0.0000000000000004
   0.0000000000000011    6.6223979999999996    0.0000000000000004
   0.0000000000000000    0.0000000000000000    5.4225279999999998
Mn Sn
4 8
direct
   0.0000000000000000    0.0000000000000000    0.7500000000000000 Mn
   0.0000000000000000    0.0000000000000000    0.2500000000000000 Mn
   0.5000000000000000    0.5000000000000000    0.2500000000000000 Mn
   0.5000000000000000    0.5000000000000000    0.7500000000000000 Mn
   0.6637380000000001    0.1637380000000001    0.0000000000000000 Sn
   0.8362619999999999    0.3362619999999999    0.5000000000000000 Sn
   0.8362619999999999    0.6637380000000001    0.0000000000000000 Sn
   0.6637380000000001    0.8362619999999999    0.5000000000000000 Sn
   0.1637379999999999    0.6637380000000001    0.5000000000000000 Sn
   0.3362620000000001    0.8362619999999999    0.0000000000000000 Sn
   0.3362620000000001    0.1637379999999999    0.5000000000000000 Sn
   0.1637379999999999    0.3362620000000001    0.0000000000000000 Sn
