Hf20 Cu10
1.0
   3.1754486653010305    0.0000000000000000   -3.1754486653010301
  -0.0000000000000032   11.1914722497109604   -3.1754486653010323
   0.0000000000000000    0.0000000000000000   38.1053839836123700
Hf Cu Hf Cu Hf Cu Hf Cu Hf Cu
4 2 4 2 4 2 4 2 4 2
Selective dynamics
direct
   0.0000000000000000    0.3433889384077559    0.2994490782006463 T T T Hf
   0.5000000000000000    0.1566110615922440    0.3672175884660203 T T T Hf
   0.5000000000000000    0.8433889384077560    0.3411157448673129 T T T Hf
   0.0000000000000000    0.6566110615922440    0.3255509217993536 T T T Hf
   0.0000000000000000    0.0000000000000000    0.3541666666666666 T T T Cu
   0.5000000000000000    0.4999999999999999    0.3124999999999999 T T T Cu
   0.0000000000000000    0.3433889384077559    0.3827824115339796 T T T Hf
   0.5000000000000000    0.1566110615922440    0.4505509217993536 F F F Hf
   0.5000000000000000    0.8433889384077560    0.4244490782006463 F F F Hf
   0.0000000000000000    0.6566110615922440    0.4088842551326870 T T T Hf
   0.0000000000000000    0.0000000000000000    0.4374999999999999 F F F Cu
   0.5000000000000000    0.4999999999999999    0.3958333333333333 T T T Cu
   0.0000000000000000    0.3433889384077559    0.4661157448673129 F F F Hf
   0.5000000000000000    0.1566110615922440    0.5338842551326870 F F F Hf
   0.5000000000000000    0.8433889384077560    0.5077824115339796 F F F Hf
   0.0000000000000000    0.6566110615922440    0.4922175884660203 F F F Hf
   0.0000000000000000    0.0000000000000000    0.5208333333333333 F F F Cu
   0.5000000000000000    0.4999999999999999    0.4791666666666666 F F F Cu
   0.0000000000000000    0.3433889384077559    0.5494490782006463 F F F Hf
   0.5000000000000000    0.1566110615922440    0.6172175884660203 T T T Hf
   0.5000000000000000    0.8433889384077560    0.5911157448673130 T T T Hf
   0.0000000000000000    0.6566110615922440    0.5755509217993536 F F F Hf
   0.0000000000000000    0.0000000000000000    0.6041666666666666 T T T Cu
   0.5000000000000000    0.4999999999999999    0.5625000000000000 F F F Cu
   0.0000000000000000    0.3433889384077559    0.6327824115339796 T T T Hf
   0.5000000000000000    0.1566110615922440    0.7005509217993536 T T T Hf
   0.5000000000000000    0.8433889384077560    0.6744490782006463 T T T Hf
   0.0000000000000000    0.6566110615922440    0.6588842551326870 T T T Hf
   0.0000000000000000    0.0000000000000000    0.6875000000000000 T T T Cu
   0.5000000000000000    0.4999999999999999    0.6458333333333333 T T T Cu
