Ti16 Si32
1.0
   3.5805460007384791    0.0000000000000000    0.0000000000000002
   0.0000000000000022   13.5700055877604342   -7.0938884010126317
   0.0000000000000000    0.0000000000000000   31.9224978045568513
Ti Si Ti Si Ti Si Ti Si
4 8 4 8 4 8 4 8
Selective dynamics
direct
   0.2500000000000000    0.3968370014504289    0.3011489632852805 T T T Ti
   0.7500000000000000    0.1031629985495713    0.2914436293073121 T T T Ti
   0.2500000000000000    0.8968370014504288    0.3567045188408360 T T T Ti
   0.7500000000000000    0.6031629985495712    0.3469991848628677 T T T Ti
   0.2500000000000000    0.0587700678191895    0.3371340891450050 T T T Si
   0.7500000000000000    0.4412299321808107    0.3665696145586986 T T T Si
   0.2500000000000000    0.2498329191825945    0.3240369450035395 T T T Si
   0.7500000000000000    0.2501670808174056    0.3796667587001642 T T T Si
   0.2500000000000000    0.5587700678191894    0.2815785335894495 T T T Si
   0.7500000000000000    0.9412299321808106    0.3110140590031431 T T T Si
   0.2500000000000000    0.7498329191825945    0.3795925005590951 T T T Si
   0.7500000000000000    0.7501670808174055    0.3241112031446086 T T T Si
   0.2500000000000000    0.3968370014504289    0.4122600743963916 F F F Ti
   0.7500000000000000    0.1031629985495713    0.4025547404184232 F F F Ti
   0.2500000000000000    0.8968370014504288    0.4678156299519471 F F F Ti
   0.7500000000000000    0.6031629985495712    0.4581102959739788 F F F Ti
   0.2500000000000000    0.0587700678191895    0.4482452002561161 F F F Si
   0.7500000000000000    0.4412299321808107    0.4776807256698098 F F F Si
   0.2500000000000000    0.2498329191825945    0.4351480561146506 F F F Si
   0.7500000000000000    0.2501670808174056    0.4907778698112753 F F F Si
   0.2500000000000000    0.5587700678191894    0.3926896447005606 F F F Si
   0.7500000000000000    0.9412299321808106    0.4221251701142542 F F F Si
   0.2500000000000000    0.7498329191825945    0.4907036116702062 F F F Si
   0.7500000000000000    0.7501670808174055    0.4352223142557197 F F F Si
   0.2500000000000000    0.3968370014504289    0.5233711855075027 F F F Ti
   0.7500000000000000    0.1031629985495713    0.5136658515295344 F F F Ti
   0.2500000000000000    0.8968370014504288    0.5789267410630583 F F F Ti
   0.7500000000000000    0.6031629985495712    0.5692214070850898 F F F Ti
   0.2500000000000000    0.0587700678191895    0.5593563113672273 F F F Si
   0.7500000000000000    0.4412299321808107    0.5887918367809208 F F F Si
   0.2500000000000000    0.2498329191825945    0.5462591672257617 F F F Si
   0.7500000000000000    0.2501670808174056    0.6018889809223864 F F F Si
   0.2500000000000000    0.5587700678191894    0.5038007558116717 F F F Si
   0.7500000000000000    0.9412299321808106    0.5332362812253653 F F F Si
   0.2500000000000000    0.7498329191825945    0.6018147227813173 F F F Si
   0.7500000000000000    0.7501670808174055    0.5463334253668308 F F F Si
   0.2500000000000000    0.3968370014504289    0.6344822966186138 T T T Ti
   0.7500000000000000    0.1031629985495713    0.6247769626406454 T T T Ti
   0.2500000000000000    0.8968370014504288    0.6900378521741694 T T T Ti
   0.7500000000000000    0.6031629985495712    0.6803325181962010 T T T Ti
   0.2500000000000000    0.0587700678191895    0.6704674224783383 T T T Si
   0.7500000000000000    0.4412299321808107    0.6999029478920320 T T T Si
   0.2500000000000000    0.2498329191825945    0.6573702783368729 T T T Si
   0.7500000000000000    0.2501670808174056    0.7130000920334976 T T T Si
   0.2500000000000000    0.5587700678191894    0.6149118669227828 T T T Si
   0.7500000000000000    0.9412299321808106    0.6443473923364764 T T T Si
   0.2500000000000000    0.7498329191825945    0.7129258338924285 T T T Si
   0.7500000000000000    0.7501670808174055    0.6574445364779420 T T T Si
