Nb72 Sb24
1.0
  10.5831117640418846    0.0000000000000000   -5.2915558820209423
  -0.0000000000000030   10.5831117640418864   -5.2915558820209432
   0.0000000000000000    0.0000000000000000   37.0408911741466014
Nb Sb Nb Sb Nb Sb
24 8 24 8 24 8
Selective dynamics
direct
   0.5000000000000000    0.7499999999999999    0.3392857142857143 T T T Nb
   0.0000000000000000    0.2500000000000000    0.3392857142857143 T T T Nb
   0.0000000000000000    0.7499999999999999    0.4107142857142857 F F F Nb
   0.5000000000000000    0.2500000000000000    0.4107142857142857 F F F Nb
   0.5000000000000000    0.7500000000000000    0.4107142857142857 F F F Nb
   0.0000000000000000    0.2500000000000000    0.4107142857142857 F F F Nb
   0.0000000000000000    0.7500000000000000    0.3392857142857143 T T T Nb
   0.5000000000000000    0.2500000000000001    0.3392857142857143 T T T Nb
   0.7499999999999999    0.6250000000000000    0.3214285714285715 T T T Nb
   0.2500000000000000    0.1250000000000000    0.3214285714285715 T T T Nb
   0.2500000000000000    0.6250000000000000    0.3928571428571429 F F F Nb
   0.7499999999999999    0.1250000000000000    0.3928571428571429 F F F Nb
   0.7499999999999999    0.8750000000000000    0.3571428571428572 T T T Nb
   0.2500000000000000    0.3750000000000000    0.3571428571428572 T T T Nb
   0.2500000000000000    0.8749999999999999    0.2857142857142858 T T T Nb
   0.7499999999999999    0.3750000000000000    0.2857142857142858 T T T Nb
   0.8750000000000000    0.4999999999999999    0.3928571428571428 F F F Nb
   0.3749999999999999    0.0000000000000000    0.3928571428571429 F F F Nb
   0.3749999999999999    0.4999999999999999    0.3214285714285715 T T T Nb
   0.8750000000000000    0.0000000000000000    0.3214285714285715 T T T Nb
   0.6250000000000000    0.5000000000000000    0.3571428571428572 T T T Nb
   0.1250000000000000    0.0000000000000000    0.3571428571428572 T T T Nb
   0.1250000000000000    0.4999999999999999    0.2857142857142858 T T T Nb
   0.6250000000000000    0.0000000000000000    0.2857142857142858 T T T Nb
   0.5000000000000000    0.5000000000000000    0.4107142857142857 F F F Sb
   0.0000000000000000    0.0000000000000000    0.4107142857142857 F F F Sb
   0.0000000000000000    0.5000000000000000    0.3392857142857143 T T T Sb
   0.5000000000000000    0.0000000000000000    0.3392857142857143 T T T Sb
   0.7499999999999999    0.7500000000000000    0.4107142857142857 F F F Sb
   0.2500000000000000    0.2500000000000000    0.4107142857142857 F F F Sb
   0.2500000000000000    0.7500000000000000    0.3392857142857143 T T T Sb
   0.7499999999999999    0.2500000000000001    0.3392857142857143 T T T Sb
   0.5000000000000000    0.7499999999999999    0.4821428571428572 F F F Nb
   0.0000000000000000    0.2500000000000000    0.4821428571428572 F F F Nb
   0.0000000000000000    0.7499999999999999    0.5535714285714286 F F F Nb
   0.5000000000000000    0.2500000000000000    0.5535714285714286 F F F Nb
   0.5000000000000000    0.7500000000000000    0.5535714285714286 F F F Nb
   0.0000000000000000    0.2500000000000000    0.5535714285714286 F F F Nb
   0.0000000000000000    0.7500000000000000    0.4821428571428572 F F F Nb
   0.5000000000000000    0.2500000000000001    0.4821428571428572 F F F Nb
   0.7499999999999999    0.6250000000000000    0.4642857142857143 F F F Nb
   0.2500000000000000    0.1250000000000000    0.4642857142857143 F F F Nb
   0.2500000000000000    0.6250000000000000    0.5357142857142857 F F F Nb
   0.7499999999999999    0.1250000000000000    0.5357142857142857 F F F Nb
   0.7499999999999999    0.8750000000000000    0.5000000000000000 F F F Nb
   0.2500000000000000    0.3750000000000000    0.5000000000000000 F F F Nb
   0.2500000000000000    0.8749999999999999    0.4285714285714286 F F F Nb
   0.7499999999999999    0.3750000000000000    0.4285714285714286 F F F Nb
   0.8750000000000000    0.4999999999999999    0.5357142857142857 F F F Nb
   0.3749999999999999    0.0000000000000000    0.5357142857142857 F F F Nb
   0.3749999999999999    0.4999999999999999    0.4642857142857143 F F F Nb
   0.8750000000000000    0.0000000000000000    0.4642857142857143 F F F Nb
   0.6250000000000000    0.5000000000000000    0.5000000000000000 F F F Nb
   0.1250000000000000    0.0000000000000000    0.5000000000000000 F F F Nb
   0.1250000000000000    0.4999999999999999    0.4285714285714286 F F F Nb
   0.6250000000000000    0.0000000000000000    0.4285714285714286 F F F Nb
   0.5000000000000000    0.5000000000000000    0.5535714285714286 F F F Sb
   0.0000000000000000    0.0000000000000000    0.5535714285714286 F F F Sb
   0.0000000000000000    0.5000000000000000    0.4821428571428572 F F F Sb
   0.5000000000000000    0.0000000000000000    0.4821428571428572 F F F Sb
   0.7499999999999999    0.7500000000000000    0.5535714285714286 F F F Sb
   0.2500000000000000    0.2500000000000000    0.5535714285714286 F F F Sb
   0.2500000000000000    0.7500000000000000    0.4821428571428572 F F F Sb
   0.7499999999999999    0.2500000000000001    0.4821428571428572 F F F Sb
   0.5000000000000000    0.7499999999999999    0.6250000000000000 T T T Nb
   0.0000000000000000    0.2500000000000000    0.6250000000000000 T T T Nb
   0.0000000000000000    0.7499999999999999    0.6964285714285714 T T T Nb
   0.5000000000000000    0.2500000000000000    0.6964285714285714 T T T Nb
   0.5000000000000000    0.7500000000000000    0.6964285714285714 T T T Nb
   0.0000000000000000    0.2500000000000000    0.6964285714285714 T T T Nb
   0.0000000000000000    0.7500000000000000    0.6250000000000000 T T T Nb
   0.5000000000000000    0.2500000000000001    0.6250000000000000 T T T Nb
   0.7499999999999999    0.6250000000000000    0.6071428571428572 T T T Nb
   0.2500000000000000    0.1250000000000000    0.6071428571428572 T T T Nb
   0.2500000000000000    0.6250000000000000    0.6785714285714286 T T T Nb
   0.7499999999999999    0.1250000000000000    0.6785714285714286 T T T Nb
   0.7499999999999999    0.8750000000000000    0.6428571428571428 T T T Nb
   0.2500000000000000    0.3750000000000000    0.6428571428571428 T T T Nb
   0.2500000000000000    0.8749999999999999    0.5714285714285714 F F F Nb
   0.7499999999999999    0.3750000000000000    0.5714285714285714 F F F Nb
   0.8750000000000000    0.4999999999999999    0.6785714285714286 T T T Nb
   0.3749999999999999    0.0000000000000000    0.6785714285714286 T T T Nb
   0.3749999999999999    0.4999999999999999    0.6071428571428572 T T T Nb
   0.8750000000000000    0.0000000000000000    0.6071428571428572 T T T Nb
   0.6250000000000000    0.5000000000000000    0.6428571428571428 T T T Nb
   0.1250000000000000    0.0000000000000000    0.6428571428571428 T T T Nb
   0.1250000000000000    0.4999999999999999    0.5714285714285714 F F F Nb
   0.6250000000000000    0.0000000000000000    0.5714285714285714 F F F Nb
   0.5000000000000000    0.5000000000000000    0.6964285714285714 T T T Sb
   0.0000000000000000    0.0000000000000000    0.6964285714285714 T T T Sb
   0.0000000000000000    0.5000000000000000    0.6250000000000000 T T T Sb
   0.5000000000000000    0.0000000000000000    0.6250000000000000 T T T Sb
   0.7499999999999999    0.7500000000000000    0.6964285714285714 T T T Sb
   0.2500000000000000    0.2500000000000000    0.6964285714285714 T T T Sb
   0.2500000000000000    0.7500000000000000    0.6250000000000000 T T T Sb
   0.7499999999999999    0.2500000000000001    0.6250000000000000 T T T Sb
