Ga48 Pd48
1.0
   9.9222822318415318    0.0000000000000000   -4.9611411159207659
  -0.0000000000000028    9.9222822318415318   -4.9611411159207659
   0.0000000000000000    0.0000000000000000   34.7279878114453595
Ga Pd Ga Pd Ga Pd
16 16 16 16 16 16
Selective dynamics
direct
   0.5785842088065536    0.6714157911934464    0.4063812025161582 F F F Ga
   0.0785842088065536    0.1714157911934464    0.4063812025161582 F F F Ga
   0.0785842088065536    0.6714157911934464    0.3349526310875867 T T T Ga
   0.5785842088065536    0.1714157911934464    0.3349526310875867 T T T Ga
   0.6714157911934464    0.8285842088065536    0.3706669168018725 T T T Ga
   0.1714157911934464    0.3285842088065536    0.3706669168018725 T T T Ga
   0.1714157911934464    0.8285842088065536    0.2992383453733010 T T T Ga
   0.6714157911934464    0.3285842088065536    0.2992383453733010 T T T Ga
   0.8285842088065536    0.5785842088065536    0.3839285714285715 T T T Ga
   0.3285842088065536    0.0785842088065536    0.3839285714285715 T T T Ga
   0.3285842088065536    0.5785842088065536    0.3125000000000000 T T T Ga
   0.8285842088065536    0.0785842088065536    0.3125000000000000 T T T Ga
   0.9214157911934465    0.9214157911934464    0.3747375949676837 T T T Ga
   0.4214157911934464    0.4214157911934464    0.3747375949676837 T T T Ga
   0.4214157911934464    0.9214157911934464    0.3033090235391122 T T T Ga
   0.9214157911934465    0.4214157911934464    0.3033090235391122 T T T Ga
   0.9288257571277326    0.8211742428722673    0.4350216448936379 F F F Pd
   0.4288257571277327    0.3211742428722673    0.4350216448936379 F F F Pd
   0.4288257571277327    0.8211742428722673    0.3635930734650665 T T T Pd
   0.9288257571277326    0.3211742428722673    0.3635930734650665 T T T Pd
   0.8211742428722673    0.6788257571277327    0.3278787877507808 T T T Pd
   0.3211742428722673    0.1788257571277327    0.3278787877507808 T T T Pd
   0.3211742428722673    0.6788257571277327    0.3993073591793522 T T T Pd
   0.8211742428722673    0.1788257571277327    0.3993073591793522 T T T Pd
   0.6788257571277327    0.9288257571277326    0.3125000000000000 T T T Pd
   0.1788257571277327    0.4288257571277327    0.3125000000000000 T T T Pd
   0.1788257571277327    0.9288257571277326    0.3839285714285714 T T T Pd
   0.6788257571277327    0.4288257571277327    0.3839285714285714 T T T Pd
   0.5711742428722673    0.5711742428722673    0.3174567102127241 T T T Pd
   0.0711742428722673    0.0711742428722673    0.3174567102127241 T T T Pd
   0.0711742428722673    0.5711742428722673    0.3888852816412955 T T T Pd
   0.5711742428722673    0.0711742428722673    0.3888852816412955 T T T Pd
   0.5785842088065536    0.6714157911934464    0.5492383453733010 F F F Ga
   0.0785842088065536    0.1714157911934464    0.5492383453733010 F F F Ga
   0.0785842088065536    0.6714157911934464    0.4778097739447296 F F F Ga
   0.5785842088065536    0.1714157911934464    0.4778097739447296 F F F Ga
   0.6714157911934464    0.8285842088065536    0.5135240596590154 F F F Ga
   0.1714157911934464    0.3285842088065536    0.5135240596590153 F F F Ga
   0.1714157911934464    0.8285842088065536    0.4420954882304439 F F F Ga
   0.6714157911934464    0.3285842088065536    0.4420954882304439 F F F Ga
   0.8285842088065536    0.5785842088065536    0.5267857142857143 F F F Ga
   0.3285842088065536    0.0785842088065536    0.5267857142857143 F F F Ga
   0.3285842088065536    0.5785842088065536    0.4553571428571428 F F F Ga
   0.8285842088065536    0.0785842088065536    0.4553571428571428 F F F Ga
   0.9214157911934465    0.9214157911934464    0.5175947378248266 F F F Ga
   0.4214157911934464    0.4214157911934464    0.5175947378248265 F F F Ga
   0.4214157911934464    0.9214157911934464    0.4461661663962551 F F F Ga
   0.9214157911934465    0.4214157911934464    0.4461661663962551 F F F Ga
   0.9288257571277326    0.8211742428722673    0.5778787877507807 F F F Pd
   0.4288257571277327    0.3211742428722673    0.5778787877507807 F F F Pd
   0.4288257571277327    0.8211742428722673    0.5064502163222093 F F F Pd
   0.9288257571277326    0.3211742428722673    0.5064502163222093 F F F Pd
   0.8211742428722673    0.6788257571277327    0.4707359306079236 F F F Pd
   0.3211742428722673    0.1788257571277327    0.4707359306079236 F F F Pd
   0.3211742428722673    0.6788257571277327    0.5421645020364951 F F F Pd
   0.8211742428722673    0.1788257571277327    0.5421645020364951 F F F Pd
   0.6788257571277327    0.9288257571277326    0.4553571428571428 F F F Pd
   0.1788257571277327    0.4288257571277327    0.4553571428571428 F F F Pd
   0.1788257571277327    0.9288257571277326    0.5267857142857143 F F F Pd
   0.6788257571277327    0.4288257571277327    0.5267857142857143 F F F Pd
   0.5711742428722673    0.5711742428722673    0.4603138530698670 F F F Pd
   0.0711742428722673    0.0711742428722673    0.4603138530698670 F F F Pd
   0.0711742428722673    0.5711742428722673    0.5317424244984384 F F F Pd
   0.5711742428722673    0.0711742428722673    0.5317424244984384 F F F Pd
   0.5785842088065536    0.6714157911934464    0.6920954882304439 T T T Ga
   0.0785842088065536    0.1714157911934464    0.6920954882304439 T T T Ga
   0.0785842088065536    0.6714157911934464    0.6206669168018724 T T T Ga
   0.5785842088065536    0.1714157911934464    0.6206669168018724 T T T Ga
   0.6714157911934464    0.8285842088065536    0.6563812025161582 T T T Ga
   0.1714157911934464    0.3285842088065536    0.6563812025161582 T T T Ga
   0.1714157911934464    0.8285842088065536    0.5849526310875868 F F F Ga
   0.6714157911934464    0.3285842088065536    0.5849526310875868 F F F Ga
   0.8285842088065536    0.5785842088065536    0.6696428571428572 T T T Ga
   0.3285842088065536    0.0785842088065536    0.6696428571428572 T T T Ga
   0.3285842088065536    0.5785842088065536    0.5982142857142857 F F F Ga
   0.8285842088065536    0.0785842088065536    0.5982142857142857 F F F Ga
   0.9214157911934465    0.9214157911934464    0.6604518806819694 T T T Ga
   0.4214157911934464    0.4214157911934464    0.6604518806819694 T T T Ga
   0.4214157911934464    0.9214157911934464    0.5890233092533979 F F F Ga
   0.9214157911934465    0.4214157911934464    0.5890233092533979 F F F Ga
   0.9288257571277326    0.8211742428722673    0.7207359306079236 T T T Pd
   0.4288257571277327    0.3211742428722673    0.7207359306079236 T T T Pd
   0.4288257571277327    0.8211742428722673    0.6493073591793522 T T T Pd
   0.9288257571277326    0.3211742428722673    0.6493073591793522 T T T Pd
   0.8211742428722673    0.6788257571277327    0.6135930734650665 F F F Pd
   0.3211742428722673    0.1788257571277327    0.6135930734650665 F F F Pd
   0.3211742428722673    0.6788257571277327    0.6850216448936379 T T T Pd
   0.8211742428722673    0.1788257571277327    0.6850216448936379 T T T Pd
   0.6788257571277327    0.9288257571277326    0.5982142857142857 F F F Pd
   0.1788257571277327    0.4288257571277327    0.5982142857142857 F F F Pd
   0.1788257571277327    0.9288257571277326    0.6696428571428571 T T T Pd
   0.6788257571277327    0.4288257571277327    0.6696428571428571 T T T Pd
   0.5711742428722673    0.5711742428722673    0.6031709959270098 F F F Pd
   0.0711742428722673    0.0711742428722673    0.6031709959270098 F F F Pd
   0.0711742428722673    0.5711742428722673    0.6745995673555812 T T T Pd
   0.5711742428722673    0.0711742428722673    0.6745995673555812 T T T Pd
