Zr12 Ni36
1.0
   9.2087208464256722    0.0000000000000000    0.0000000000000006
   0.0000000000000009    5.3166574595759801   -4.3110261416106797
   0.0000000000000000    0.0000000000000000   34.4882091328854301
Zr Ni Zr Ni Zr Ni
4 12 4 12 4 12
Selective dynamics
direct
   0.1666666666666667    0.5000000000000000    0.3437500000000000 T T T Zr
   0.6666666666666667    0.0000000000000000    0.4062500000000000 T T T Zr
   0.3333333333333333    0.0000000000000000    0.3437500000000000 T T T Zr
   0.8333333333333333    0.4999999999999999    0.4062500000000000 T T T Zr
   0.4219874641684723    0.2659623925054167    0.3144952990631771 T T T Ni
   0.9219874641684722    0.7659623925054166    0.3769952990631771 T T T Ni
   0.3439749283369445    0.5000000000000000    0.4062500000000000 T T T Ni
   0.8439749283369444    0.0000000000000000    0.3437500000000000 T T T Ni
   0.0780125358315278    0.2340376074945834    0.3730047009368229 T T T Ni
   0.5780125358315278    0.7340376074945834    0.4355047009368229 F F F Ni
   0.1560250716630556    0.0000000000000001    0.4062500000000000 T T T Ni
   0.6560250716630556    0.5000000000000000    0.3437500000000000 T T T Ni
   0.4219874641684722    0.7340376074945834    0.3730047009368229 T T T Ni
   0.9219874641684722    0.2340376074945834    0.4355047009368229 F F F Ni
   0.0780125358315278    0.7659623925054166    0.3144952990631771 T T T Ni
   0.5780125358315278    0.2659623925054166    0.3769952990631771 T T T Ni
   0.1666666666666667    0.5000000000000000    0.4687500000000000 F F F Zr
   0.6666666666666667    0.0000000000000000    0.5312500000000000 F F F Zr
   0.3333333333333333    0.0000000000000000    0.4687500000000000 F F F Zr
   0.8333333333333333    0.4999999999999999    0.5312500000000000 F F F Zr
   0.4219874641684723    0.2659623925054167    0.4394952990631771 F F F Ni
   0.9219874641684722    0.7659623925054166    0.5019952990631771 F F F Ni
   0.3439749283369445    0.5000000000000000    0.5312500000000000 F F F Ni
   0.8439749283369444    0.0000000000000000    0.4687500000000000 F F F Ni
   0.0780125358315278    0.2340376074945834    0.4980047009368229 F F F Ni
   0.5780125358315278    0.7340376074945834    0.5605047009368229 F F F Ni
   0.1560250716630556    0.0000000000000001    0.5312500000000000 F F F Ni
   0.6560250716630556    0.5000000000000000    0.4687500000000000 F F F Ni
   0.4219874641684722    0.7340376074945834    0.4980047009368229 F F F Ni
   0.9219874641684722    0.2340376074945834    0.5605047009368229 F F F Ni
   0.0780125358315278    0.7659623925054166    0.4394952990631771 F F F Ni
   0.5780125358315278    0.2659623925054166    0.5019952990631771 F F F Ni
   0.1666666666666667    0.5000000000000000    0.5937500000000000 T T T Zr
   0.6666666666666667    0.0000000000000000    0.6562500000000000 T T T Zr
   0.3333333333333333    0.0000000000000000    0.5937500000000000 T T T Zr
   0.8333333333333333    0.4999999999999999    0.6562500000000000 T T T Zr
   0.4219874641684723    0.2659623925054167    0.5644952990631771 F F F Ni
   0.9219874641684722    0.7659623925054166    0.6269952990631771 T T T Ni
   0.3439749283369445    0.5000000000000000    0.6562500000000000 T T T Ni
   0.8439749283369444    0.0000000000000000    0.5937500000000000 T T T Ni
   0.0780125358315278    0.2340376074945834    0.6230047009368229 T T T Ni
   0.5780125358315278    0.7340376074945834    0.6855047009368229 T T T Ni
   0.1560250716630556    0.0000000000000001    0.6562500000000000 T T T Ni
   0.6560250716630556    0.5000000000000000    0.5937500000000000 T T T Ni
   0.4219874641684722    0.7340376074945834    0.6230047009368229 T T T Ni
   0.9219874641684722    0.2340376074945834    0.6855047009368229 T T T Ni
   0.0780125358315278    0.7659623925054166    0.5644952990631771 F F F Ni
   0.5780125358315278    0.2659623925054166    0.6269952990631771 T T T Ni
