Ti6 Ni6
1.0
   2.9357752079495381    0.0000000000000000    0.0000000000000002
  -1.2885928541214824    4.6978936395992630    0.0000000000000003
   0.0000000000000000    0.0000000000000000   28.0885357155979136
Ti Ni Ti Ni Ti Ni
2 2 2 2 2 2
Selective dynamics
direct
   0.3685764680783379    0.2149768615706975    0.3214285714285714 T T T Ti
   0.6314235319216621    0.7850231384293025    0.3928571428571428 T T T Ti
   0.0770984261164714    0.6708550263600016    0.3214285714285714 T T T Ni
   0.9229015738835287    0.3291449736399984    0.3928571428571428 T T T Ni
   0.3685764680783379    0.2149768615706975    0.4642857142857142 F F F Ti
   0.6314235319216621    0.7850231384293025    0.5357142857142857 F F F Ti
   0.0770984261164714    0.6708550263600016    0.4642857142857142 F F F Ni
   0.9229015738835287    0.3291449736399984    0.5357142857142857 F F F Ni
   0.3685764680783379    0.2149768615706975    0.6071428571428571 T T T Ti
   0.6314235319216621    0.7850231384293025    0.6785714285714286 T T T Ti
   0.0770984261164714    0.6708550263600016    0.6071428571428571 T T T Ni
   0.9229015738835287    0.3291449736399984    0.6785714285714286 T T T Ni
