Re18 Pd6
1.0
   4.8160580766426966    0.0000000000000000   -2.7805524269825335
   0.0000000000000007    4.4274977186424964    0.0000000000000003
   0.0000000000000000    0.0000000000000000   38.9277339777554516
Re Pd Re Pd Re Pd
6 2 6 2 6 2
Selective dynamics
direct
   0.3186173513165769    0.2500000000000000    0.3084726679511841 T T T Re
   0.8406913243417116    0.2500000000000000    0.3084726679511841 T T T Re
   0.8406913243417117    0.2500000000000000    0.3830546640976319 T T T Re
   0.6813826486834232    0.7500000000000001    0.4058130463345302 F F F Re
   0.1593086756582884    0.7500000000000001    0.4058130463345302 F F F Re
   0.1593086756582884    0.7500000000000001    0.3312310501880824 T T T Re
   0.6666666666666666    0.7500000000000001    0.3333333333333333 T T T Pd
   0.3333333333333334    0.2500000000000000    0.3809523809523809 T T T Pd
   0.3186173513165769    0.2500000000000000    0.4513298108083269 F F F Re
   0.8406913243417116    0.2500000000000000    0.4513298108083269 F F F Re
   0.8406913243417117    0.2500000000000000    0.5259118069547748 F F F Re
   0.6813826486834232    0.7500000000000001    0.5486701891916731 F F F Re
   0.1593086756582884    0.7500000000000001    0.5486701891916730 F F F Re
   0.1593086756582884    0.7500000000000001    0.4740881930452253 F F F Re
   0.6666666666666666    0.7500000000000001    0.4761904761904762 F F F Pd
   0.3333333333333334    0.2500000000000000    0.5238095238095237 F F F Pd
   0.3186173513165769    0.2500000000000000    0.5941869536654698 F F F Re
   0.8406913243417116    0.2500000000000000    0.5941869536654698 F F F Re
   0.8406913243417117    0.2500000000000000    0.6687689498119176 T T T Re
   0.6813826486834232    0.7500000000000001    0.6915273320488159 T T T Re
   0.1593086756582884    0.7500000000000001    0.6915273320488159 T T T Re
   0.1593086756582884    0.7500000000000001    0.6169453359023681 T T T Re
   0.6666666666666666    0.7500000000000001    0.6190476190476191 T T T Pd
   0.3333333333333334    0.2500000000000000    0.6666666666666666 T T T Pd
