Ta5 Ir15
1.0
   3.9246132462986618    0.0000000000000000   -3.9246132462986614
   0.0000000000000015    3.9246132462986618   -3.9246132462986614
   0.0000000000000000    0.0000000000000000   47.0953589555839400
Ta Ir Ta Ir Ta Ir Ta Ir Ta Ir
1 3 1 3 1 3 1 3 1 3
Selective dynamics
direct
   0.0000000000000000    0.0000000000000000    0.3333333333333334 T T T Ta
   0.5000000000000000    0.9999999999999999    0.3333333333333334 T T T Ir
   0.0000000000000000    0.5000000000000000    0.3333333333333334 T T T Ir
   0.5000000000000000    0.5000000000000000    0.3333333333333334 T T T Ir
   0.0000000000000000    0.0000000000000000    0.4166666666666667 T T T Ta
   0.5000000000000000    0.9999999999999999    0.4166666666666667 T T T Ir
   0.0000000000000000    0.5000000000000000    0.4166666666666667 T T T Ir
   0.5000000000000000    0.5000000000000000    0.4166666666666667 T T T Ir
   0.0000000000000000    0.0000000000000000    0.5000000000000000 F F F Ta
   0.5000000000000000    0.9999999999999999    0.5000000000000000 F F F Ir
   0.0000000000000000    0.5000000000000000    0.5000000000000000 F F F Ir
   0.5000000000000000    0.5000000000000000    0.5000000000000000 F F F Ir
   0.0000000000000000    0.0000000000000000    0.5833333333333334 T T T Ta
   0.5000000000000000    0.9999999999999999    0.5833333333333334 T T T Ir
   0.0000000000000000    0.5000000000000000    0.5833333333333334 T T T Ir
   0.5000000000000000    0.5000000000000000    0.5833333333333334 T T T Ir
   0.0000000000000000    0.0000000000000000    0.6666666666666667 T T T Ta
   0.5000000000000000    0.9999999999999999    0.6666666666666667 T T T Ir
   0.0000000000000000    0.5000000000000000    0.6666666666666667 T T T Ir
   0.5000000000000000    0.5000000000000000    0.6666666666666667 T T T Ir
