Ni12 Te8
1.0
   6.1304264044507155    0.0000000000000000   -0.1436791308270878
   0.0000000000000006    3.8209525751347218    0.0000000000000002
   0.0000000000000000    0.0000000000000000   30.3183264375684907
Ni Te Ni Te
6 4 6 4
Selective dynamics
direct
   0.7109364558667437    0.2500000000000000    0.3416695990150131 T T T Ni
   0.2890635441332564    0.7500000000000000    0.4083304009849869 F F F Ni
   0.9919106819060631    0.2500000000000000    0.4069436984446160 F F F Ni
   0.0080893180939370    0.7500000000000000    0.3430563015553840 T T T Ni
   0.0067836919625606    0.2500000000000000    0.2810560958972843 T T T Ni
   0.9932163080374393    0.7500000000000000    0.4689439041027157 F F F Ni
   0.2764045402228419    0.2500000000000000    0.4697003571913978 F F F Te
   0.7235954597771582    0.7500000000000000    0.2802996428086022 T T T Te
   0.2874085106409652    0.2500000000000000    0.3455001248456746 T T T Te
   0.7125914893590348    0.7500000000000000    0.4044998751543254 F F F Te
   0.7109364558667437    0.2500000000000000    0.5916695990150131 F F F Ni
   0.2890635441332564    0.7500000000000000    0.6583304009849869 T T T Ni
   0.9919106819060631    0.2500000000000000    0.6569436984446160 T T T Ni
   0.0080893180939370    0.7500000000000000    0.5930563015553840 F F F Ni
   0.0067836919625606    0.2500000000000000    0.5310560958972843 F F F Ni
   0.9932163080374393    0.7500000000000000    0.7189439041027157 T T T Ni
   0.2764045402228419    0.2500000000000000    0.7197003571913978 T T T Te
   0.7235954597771582    0.7500000000000000    0.5302996428086022 F F F Te
   0.2874085106409652    0.2500000000000000    0.5955001248456746 F F F Te
   0.7125914893590348    0.7500000000000000    0.6544998751543254 T T T Te
