Te30 Au10
1.0
   3.1272924102737742    0.0000000000000000   -3.1272924102737738
  -0.0000000000000130   25.6977590448267676   -3.1272924102737791
   0.0000000000000000    0.0000000000000000   37.5275089232852963
Te Au Te Au Te Au Te Au Te Au
6 2 6 2 6 2 6 2 6 2
Selective dynamics
direct
   0.0000000000000000    0.1028727932415237    0.2950310661034603 T T T Te
   0.0000000000000000    0.6028727932415237    0.3366977327701270 T T T Te
   0.0000000000000000    0.2500000000000000    0.3072916666666667 T T T Te
   0.0000000000000000    0.7500000000000001    0.3489583333333334 T T T Te
   0.0000000000000000    0.3971272067584763    0.3195522672298731 T T T Te
   0.0000000000000000    0.8971272067584765    0.3612189338965397 T T T Te
   0.0000000000000000    0.0000000000000000    0.3697916666666667 T T T Au
   0.0000000000000000    0.5000000000000000    0.3281250000000000 T T T Au
   0.0000000000000000    0.1028727932415237    0.3783643994367937 T T T Te
   0.0000000000000000    0.6028727932415237    0.4200310661034603 F F F Te
   0.0000000000000000    0.2500000000000000    0.3906250000000000 T T T Te
   0.0000000000000000    0.7500000000000001    0.4322916666666667 F F F Te
   0.0000000000000000    0.3971272067584763    0.4028856005632064 T T T Te
   0.0000000000000000    0.8971272067584765    0.4445522672298731 F F F Te
   0.0000000000000000    0.0000000000000000    0.4531250000000000 F F F Au
   0.0000000000000000    0.5000000000000000    0.4114583333333334 F F F Au
   0.0000000000000000    0.1028727932415237    0.4616977327701270 F F F Te
   0.0000000000000000    0.6028727932415237    0.5033643994367937 F F F Te
   0.0000000000000000    0.2500000000000000    0.4739583333333334 F F F Te
   0.0000000000000000    0.7500000000000001    0.5156250000000000 F F F Te
   0.0000000000000000    0.3971272067584763    0.4862189338965397 F F F Te
   0.0000000000000000    0.8971272067584765    0.5278856005632064 F F F Te
   0.0000000000000000    0.0000000000000000    0.5364583333333334 F F F Au
   0.0000000000000000    0.5000000000000000    0.4947916666666667 F F F Au
   0.0000000000000000    0.1028727932415237    0.5450310661034603 F F F Te
   0.0000000000000000    0.6028727932415237    0.5866977327701270 F F F Te
   0.0000000000000000    0.2500000000000000    0.5572916666666667 F F F Te
   0.0000000000000000    0.7500000000000001    0.5989583333333334 T T T Te
   0.0000000000000000    0.3971272067584763    0.5695522672298731 F F F Te
   0.0000000000000000    0.8971272067584765    0.6112189338965397 T T T Te
   0.0000000000000000    0.0000000000000000    0.6197916666666667 T T T Au
   0.0000000000000000    0.5000000000000000    0.5781250000000000 F F F Au
   0.0000000000000000    0.1028727932415237    0.6283643994367936 T T T Te
   0.0000000000000000    0.6028727932415237    0.6700310661034603 T T T Te
   0.0000000000000000    0.2500000000000000    0.6406250000000000 T T T Te
   0.0000000000000000    0.7500000000000001    0.6822916666666667 T T T Te
   0.0000000000000000    0.3971272067584763    0.6528856005632064 T T T Te
   0.0000000000000000    0.8971272067584765    0.6945522672298730 T T T Te
   0.0000000000000000    0.0000000000000000    0.7031250000000000 T T T Au
   0.0000000000000000    0.5000000000000000    0.6614583333333333 T T T Au
