Hf5 Ir15
1.0
   3.9639769839295265    0.0000000000000000   -3.9639769839295256
   0.0000000000000015    3.9639769839295265   -3.9639769839295256
   0.0000000000000000    0.0000000000000000   47.5677238071543158
Hf Ir Hf Ir Hf Ir Hf Ir Hf Ir
1 3 1 3 1 3 1 3 1 3
Selective dynamics
direct
   0.0000000000000000    0.0000000000000000    0.3333333333333334 T T T Hf
   0.5000000000000000    0.4999999999999999    0.3333333333333334 T T T Ir
   0.5000000000000000    0.9999999999999999    0.3333333333333334 T T T Ir
   0.0000000000000000    0.4999999999999999    0.3333333333333334 T T T Ir
   0.0000000000000000    0.0000000000000000    0.4166666666666667 T T T Hf
   0.5000000000000000    0.4999999999999999    0.4166666666666667 T T T Ir
   0.5000000000000000    0.9999999999999999    0.4166666666666667 T T T Ir
   0.0000000000000000    0.4999999999999999    0.4166666666666667 T T T Ir
   0.0000000000000000    0.0000000000000000    0.5000000000000000 F F F Hf
   0.5000000000000000    0.4999999999999999    0.5000000000000000 F F F Ir
   0.5000000000000000    0.9999999999999999    0.5000000000000000 F F F Ir
   0.0000000000000000    0.4999999999999999    0.5000000000000000 F F F Ir
   0.0000000000000000    0.0000000000000000    0.5833333333333334 T T T Hf
   0.5000000000000000    0.4999999999999999    0.5833333333333334 T T T Ir
   0.5000000000000000    0.9999999999999999    0.5833333333333334 T T T Ir
   0.0000000000000000    0.4999999999999999    0.5833333333333334 T T T Ir
   0.0000000000000000    0.0000000000000000    0.6666666666666667 T T T Hf
   0.5000000000000000    0.4999999999999999    0.6666666666666667 T T T Ir
   0.5000000000000000    0.9999999999999999    0.6666666666666667 T T T Ir
   0.0000000000000000    0.4999999999999999    0.6666666666666667 T T T Ir
