Li24 Ir72
1.0
  12.8646175806738814    0.0000000000000000    5.3874586921077601
   6.9061182926785118    6.4148344428938096    8.0804518048093499
   0.0000000000000000    0.0000000000000000   37.7019035778222502
Li Ir Li Ir Li Ir Li Ir Li Ir Li Ir
4 12 4 12 4 12 4 12 4 12 4 12
Selective dynamics
direct
   0.0000000000000000    0.4911334945463394    0.3127366476481416 T T T Li
   0.0000000000000000    0.9911334945463395    0.3484509333624273 T T T Li
   0.5000000000000000    0.7411334945463394    0.2948795047909988 T T T Li
   0.5000000000000000    0.2411334945463395    0.3305937905052845 T T T Li
   0.2596213700961486    0.1442711515895104    0.3139688501730666 T T T Ir
   0.2596213700961486    0.6442711515895105    0.3496831358873523 T T T Ir
   0.2403786299038514    0.9135138917818075    0.3304515115879025 T T T Ir
   0.2403786299038514    0.4135138917818076    0.2947372258736168 T T T Ir
   0.0000000000000000    0.2492163595823447    0.3285572763051748 T T T Ir
   0.0000000000000000    0.7492163595823449    0.2928429905908891 T T T Ir
   0.7596213700961485    0.3942711515895104    0.2961117073159237 T T T Ir
   0.7596213700961485    0.8942711515895105    0.3318259930302094 T T T Ir
   0.7403786299038515    0.6635138917818074    0.3483086544450454 T T T Ir
   0.7403786299038515    0.1635138917818075    0.3125943687307596 T T T Ir
   0.5000000000000000    0.9992163595823448    0.3464144191623177 T T T Ir
   0.5000000000000000    0.4992163595823449    0.3107001334480319 T T T Ir
   0.0000000000000000    0.4911334945463394    0.3841652190767131 T T T Li
   0.0000000000000000    0.9911334945463395    0.4198795047909988 F F F Li
   0.5000000000000000    0.7411334945463394    0.3663080762195702 T T T Li
   0.5000000000000000    0.2411334945463395    0.4020223619338559 F F F Li
   0.2596213700961486    0.1442711515895104    0.3853974216016380 T T T Ir
   0.2596213700961486    0.6442711515895105    0.4211117073159237 F F F Ir
   0.2403786299038514    0.9135138917818075    0.4018800830164739 F F F Ir
   0.2403786299038514    0.4135138917818076    0.3661657973021882 T T T Ir
   0.0000000000000000    0.2492163595823447    0.3999858477337462 T T T Ir
   0.0000000000000000    0.7492163595823449    0.3642715620194605 T T T Ir
   0.7596213700961485    0.3942711515895104    0.3675402787444951 T T T Ir
   0.7596213700961485    0.8942711515895105    0.4032545644587808 F F F Ir
   0.7403786299038515    0.6635138917818074    0.4197372258736168 F F F Ir
   0.7403786299038515    0.1635138917818075    0.3840229401593311 T T T Ir
   0.5000000000000000    0.9992163595823448    0.4178429905908891 F F F Ir
   0.5000000000000000    0.4992163595823449    0.3821287048766034 T T T Ir
   0.0000000000000000    0.4911334945463394    0.4555937905052845 F F F Li
   0.0000000000000000    0.9911334945463395    0.4913080762195702 F F F Li
   0.5000000000000000    0.7411334945463394    0.4377366476481416 F F F Li
   0.5000000000000000    0.2411334945463395    0.4734509333624273 F F F Li
   0.2596213700961486    0.1442711515895104    0.4568259930302094 F F F Ir
   0.2596213700961486    0.6442711515895105    0.4925402787444951 F F F Ir
   0.2403786299038514    0.9135138917818075    0.4733086544450453 F F F Ir
   0.2403786299038514    0.4135138917818076    0.4375943687307596 F F F Ir
   0.0000000000000000    0.2492163595823447    0.4714144191623177 F F F Ir
   0.0000000000000000    0.7492163595823449    0.4357001334480319 F F F Ir
   0.7596213700961485    0.3942711515895104    0.4389688501730666 F F F Ir
   0.7596213700961485    0.8942711515895105    0.4746831358873523 F F F Ir
   0.7403786299038515    0.6635138917818074    0.4911657973021882 F F F Ir
   0.7403786299038515    0.1635138917818075    0.4554515115879025 F F F Ir
   0.5000000000000000    0.9992163595823448    0.4892715620194605 F F F Ir
   0.5000000000000000    0.4992163595823449    0.4535572763051748 F F F Ir
   0.0000000000000000    0.4911334945463394    0.5270223619338559 F F F Li
   0.0000000000000000    0.9911334945463395    0.5627366476481416 F F F Li
   0.5000000000000000    0.7411334945463394    0.5091652190767131 F F F Li
   0.5000000000000000    0.2411334945463395    0.5448795047909987 F F F Li
   0.2596213700961486    0.1442711515895104    0.5282545644587808 F F F Ir
   0.2596213700961486    0.6442711515895105    0.5639688501730666 F F F Ir
   0.2403786299038514    0.9135138917818075    0.5447372258736167 F F F Ir
   0.2403786299038514    0.4135138917818076    0.5090229401593310 F F F Ir
   0.0000000000000000    0.2492163595823447    0.5428429905908891 F F F Ir
   0.0000000000000000    0.7492163595823449    0.5071287048766033 F F F Ir
   0.7596213700961485    0.3942711515895104    0.5103974216016380 F F F Ir
   0.7596213700961485    0.8942711515895105    0.5461117073159237 F F F Ir
   0.7403786299038515    0.6635138917818074    0.5625943687307596 F F F Ir
   0.7403786299038515    0.1635138917818075    0.5268800830164739 F F F Ir
   0.5000000000000000    0.9992163595823448    0.5607001334480319 F F F Ir
   0.5000000000000000    0.4992163595823449    0.5249858477337462 F F F Ir
   0.0000000000000000    0.4911334945463394    0.5984509333624273 F F F Li
   0.0000000000000000    0.9911334945463395    0.6341652190767131 T T T Li
   0.5000000000000000    0.7411334945463394    0.5805937905052845 F F F Li
   0.5000000000000000    0.2411334945463395    0.6163080762195702 T T T Li
   0.2596213700961486    0.1442711515895104    0.5996831358873522 T T T Ir
   0.2596213700961486    0.6442711515895105    0.6353974216016380 T T T Ir
   0.2403786299038514    0.9135138917818075    0.6161657973021881 T T T Ir
   0.2403786299038514    0.4135138917818076    0.5804515115879025 F F F Ir
   0.0000000000000000    0.2492163595823447    0.6142715620194605 T T T Ir
   0.0000000000000000    0.7492163595823449    0.5785572763051747 F F F Ir
   0.7596213700961485    0.3942711515895104    0.5818259930302094 F F F Ir
   0.7596213700961485    0.8942711515895105    0.6175402787444951 T T T Ir
   0.7403786299038515    0.6635138917818074    0.6340229401593311 T T T Ir
   0.7403786299038515    0.1635138917818075    0.5983086544450453 F F F Ir
   0.5000000000000000    0.9992163595823448    0.6321287048766033 T T T Ir
   0.5000000000000000    0.4992163595823449    0.5964144191623176 F F F Ir
   0.0000000000000000    0.4911334945463394    0.6698795047909988 T T T Li
   0.0000000000000000    0.9911334945463395    0.7055937905052845 T T T Li
   0.5000000000000000    0.7411334945463394    0.6520223619338559 T T T Li
   0.5000000000000000    0.2411334945463395    0.6877366476481417 T T T Li
   0.2596213700961486    0.1442711515895104    0.6711117073159237 T T T Ir
   0.2596213700961486    0.6442711515895105    0.7068259930302094 T T T Ir
   0.2403786299038514    0.9135138917818075    0.6875943687307596 T T T Ir
   0.2403786299038514    0.4135138917818076    0.6518800830164739 T T T Ir
   0.0000000000000000    0.2492163595823447    0.6857001334480319 T T T Ir
   0.0000000000000000    0.7492163595823449    0.6499858477337462 T T T Ir
   0.7596213700961485    0.3942711515895104    0.6532545644587808 T T T Ir
   0.7596213700961485    0.8942711515895105    0.6889688501730666 T T T Ir
   0.7403786299038515    0.6635138917818074    0.7054515115879025 T T T Ir
   0.7403786299038515    0.1635138917818075    0.6697372258736167 T T T Ir
   0.5000000000000000    0.9992163595823448    0.7035572763051748 T T T Ir
   0.5000000000000000    0.4992163595823449    0.6678429905908891 T T T Ir
