Li16 Ir48
1.0
   9.9430859090792048    0.0000000000000000   -2.6937293460538809
   4.4676557969332222    8.2996760468306530   -2.6944655794061680
   0.0000000000000000    0.0000000000000000   26.9299311270158981
Li Ir Li Ir Li Ir Li Ir
4 12 4 12 4 12 4 12
Selective dynamics
direct
   0.0000000000000000    0.0088665054536605    0.3649012607416661 T T T Li
   0.0000000000000000    0.5088665054536605    0.3149012607416661 T T T Li
   0.5000000000000000    0.5088665054536604    0.3149012607416661 T T T Li
   0.5000000000000000    0.0088665054536605    0.3649012607416661 T T T Li
   0.7403786299038514    0.2259181633624152    0.3102349441900027 T T T Ir
   0.7403786299038514    0.7259181633624151    0.3602349441900027 T T T Ir
   0.7596213700961486    0.4662967932662666    0.3861970811996175 T T T Ir
   0.7596213700961486    0.9662967932662665    0.3361970811996176 T T T Ir
   0.0000000000000000    0.2507836404176551    0.3386667138687137 T T T Ir
   0.0000000000000000    0.7507836404176551    0.3886667138687137 T T T Ir
   0.2403786299038515    0.7259181633624151    0.3602349441900027 T T T Ir
   0.2403786299038515    0.2259181633624152    0.3102349441900026 T T T Ir
   0.2596213700961485    0.4662967932662666    0.3861970811996175 T T T Ir
   0.2596213700961485    0.9662967932662666    0.3361970811996175 T T T Ir
   0.5000000000000000    0.2507836404176551    0.3386667138687137 T T T Ir
   0.5000000000000000    0.7507836404176550    0.3886667138687137 T T T Ir
   0.0000000000000000    0.0088665054536605    0.4649012607416661 F F F Li
   0.0000000000000000    0.5088665054536605    0.4149012607416661 T T T Li
   0.5000000000000000    0.5088665054536604    0.4149012607416661 T T T Li
   0.5000000000000000    0.0088665054536605    0.4649012607416661 F F F Li
   0.7403786299038514    0.2259181633624152    0.4102349441900027 T T T Ir
   0.7403786299038514    0.7259181633624151    0.4602349441900027 F F F Ir
   0.7596213700961486    0.4662967932662666    0.4861970811996176 F F F Ir
   0.7596213700961486    0.9662967932662665    0.4361970811996175 F F F Ir
   0.0000000000000000    0.2507836404176551    0.4386667138687136 F F F Ir
   0.0000000000000000    0.7507836404176551    0.4886667138687136 F F F Ir
   0.2403786299038515    0.7259181633624151    0.4602349441900027 F F F Ir
   0.2403786299038515    0.2259181633624152    0.4102349441900027 T T T Ir
   0.2596213700961485    0.4662967932662666    0.4861970811996175 F F F Ir
   0.2596213700961485    0.9662967932662666    0.4361970811996175 F F F Ir
   0.5000000000000000    0.2507836404176551    0.4386667138687136 F F F Ir
   0.5000000000000000    0.7507836404176550    0.4886667138687136 F F F Ir
   0.0000000000000000    0.0088665054536605    0.5649012607416661 F F F Li
   0.0000000000000000    0.5088665054536605    0.5149012607416661 F F F Li
   0.5000000000000000    0.5088665054536604    0.5149012607416661 F F F Li
   0.5000000000000000    0.0088665054536605    0.5649012607416661 F F F Li
   0.7403786299038514    0.2259181633624152    0.5102349441900027 F F F Ir
   0.7403786299038514    0.7259181633624151    0.5602349441900027 F F F Ir
   0.7596213700961486    0.4662967932662666    0.5861970811996176 T T T Ir
   0.7596213700961486    0.9662967932662665    0.5361970811996175 F F F Ir
   0.0000000000000000    0.2507836404176551    0.5386667138687137 F F F Ir
   0.0000000000000000    0.7507836404176551    0.5886667138687136 T T T Ir
   0.2403786299038515    0.7259181633624151    0.5602349441900027 F F F Ir
   0.2403786299038515    0.2259181633624152    0.5102349441900027 F F F Ir
   0.2596213700961485    0.4662967932662666    0.5861970811996176 T T T Ir
   0.2596213700961485    0.9662967932662666    0.5361970811996175 F F F Ir
   0.5000000000000000    0.2507836404176551    0.5386667138687137 F F F Ir
   0.5000000000000000    0.7507836404176550    0.5886667138687136 T T T Ir
   0.0000000000000000    0.0088665054536605    0.6649012607416661 T T T Li
   0.0000000000000000    0.5088665054536605    0.6149012607416661 T T T Li
   0.5000000000000000    0.5088665054536604    0.6149012607416661 T T T Li
   0.5000000000000000    0.0088665054536605    0.6649012607416661 T T T Li
   0.7403786299038514    0.2259181633624152    0.6102349441900027 T T T Ir
   0.7403786299038514    0.7259181633624151    0.6602349441900026 T T T Ir
   0.7596213700961486    0.4662967932662666    0.6861970811996175 T T T Ir
   0.7596213700961486    0.9662967932662665    0.6361970811996175 T T T Ir
   0.0000000000000000    0.2507836404176551    0.6386667138687137 T T T Ir
   0.0000000000000000    0.7507836404176551    0.6886667138687136 T T T Ir
   0.2403786299038515    0.7259181633624151    0.6602349441900026 T T T Ir
   0.2403786299038515    0.2259181633624152    0.6102349441900027 T T T Ir
   0.2596213700961485    0.4662967932662666    0.6861970811996175 T T T Ir
   0.2596213700961485    0.9662967932662666    0.6361970811996175 T T T Ir
   0.5000000000000000    0.2507836404176551    0.6386667138687137 T T T Ir
   0.5000000000000000    0.7507836404176550    0.6886667138687137 T T T Ir
