As48 W32
1.0
   3.3126602638222780    0.0000000000000000    0.0000000000000002
   0.0000000000000036   22.1397104162601330   -5.6466733502815680
   0.0000000000000000    0.0000000000000000   38.7086055926662098
As W As W
24 16 24 16
Selective dynamics
direct
   0.0000000000000000    0.4469289093873572    0.4492360626713576 F F F As
   0.0000000000000000    0.9469289093873572    0.3242360626713576 T T T As
   0.0000000000000000    0.0530710906126428    0.3632639373286424 F F F As
   0.0000000000000000    0.5530710906126428    0.4882639373286424 F F F As
   0.5000000000000000    0.0418927614441218    0.2864496744521421 T T T As
   0.5000000000000000    0.5418927614441218    0.4114496744521421 F F F As
   0.5000000000000000    0.4581072385558782    0.2760503255478579 T T T As
   0.5000000000000000    0.9581072385558782    0.4010503255478579 F F F As
   0.5000000000000000    0.3121469568243080    0.4024169259755668 F F F As
   0.5000000000000000    0.8121469568243080    0.2774169259755668 T T T As
   0.5000000000000000    0.1878530431756920    0.4100830740244332 F F F As
   0.5000000000000000    0.6878530431756920    0.2850830740244332 T T T As
   0.5000000000000000    0.1969289093873572    0.2617360626713576 T T T As
   0.5000000000000000    0.6969289093873572    0.3867360626713576 F F F As
   0.5000000000000000    0.3030710906126428    0.3007639373286424 T T T As
   0.5000000000000000    0.8030710906126428    0.4257639373286424 F F F As
   0.0000000000000000    0.2918927614441219    0.4739496744521421 F F F As
   0.0000000000000000    0.7918927614441218    0.3489496744521421 F F F As
   0.0000000000000000    0.2081072385558782    0.3385503255478579 T T T As
   0.0000000000000000    0.7081072385558782    0.4635503255478579 F F F As
   0.0000000000000000    0.0621469568243081    0.4649169259755668 F F F As
   0.0000000000000000    0.5621469568243080    0.3399169259755668 T T T As
   0.0000000000000000    0.4378530431756920    0.3475830740244332 F F F As
   0.0000000000000000    0.9378530431756920    0.4725830740244332 F F F As
   0.5000000000000000    0.0765966846483855    0.4176610156086869 F F F W
   0.5000000000000000    0.5765966846483854    0.2926610156086869 T T T W
   0.5000000000000000    0.4234033153516145    0.3948389843913131 F F F W
   0.5000000000000000    0.9234033153516145    0.2698389843913131 T T T W
   0.5000000000000000    0.1263770573646560    0.3439820830483511 F F F W
   0.5000000000000000    0.6263770573646559    0.4689820830483511 F F F W
   0.5000000000000000    0.3736229426353441    0.4685179169516489 F F F W
   0.5000000000000000    0.8736229426353440    0.3435179169516489 F F F W
   0.0000000000000000    0.3265966846483855    0.3551610156086869 F F F W
   0.0000000000000000    0.8265966846483855    0.4801610156086868 F F F W
   0.0000000000000000    0.1734033153516144    0.4573389843913132 F F F W
   0.0000000000000000    0.6734033153516144    0.3323389843913132 T T T W
   0.0000000000000000    0.3763770573646560    0.2814820830483511 T T T W
   0.0000000000000000    0.8763770573646560    0.4064820830483511 F F F W
   0.0000000000000000    0.1236229426353440    0.2810179169516489 T T T W
   0.0000000000000000    0.6236229426353439    0.4060179169516489 F F F W
   0.0000000000000000    0.4469289093873572    0.6992360626713576 T T T As
   0.0000000000000000    0.9469289093873572    0.5742360626713576 F F F As
   0.0000000000000000    0.0530710906126428    0.6132639373286424 F F F As
   0.0000000000000000    0.5530710906126428    0.7382639373286424 T T T As
   0.5000000000000000    0.0418927614441218    0.5364496744521421 F F F As
   0.5000000000000000    0.5418927614441218    0.6614496744521421 T T T As
   0.5000000000000000    0.4581072385558782    0.5260503255478579 F F F As
   0.5000000000000000    0.9581072385558782    0.6510503255478579 F F F As
   0.5000000000000000    0.3121469568243080    0.6524169259755668 F F F As
   0.5000000000000000    0.8121469568243080    0.5274169259755668 F F F As
   0.5000000000000000    0.1878530431756920    0.6600830740244332 T T T As
   0.5000000000000000    0.6878530431756920    0.5350830740244332 F F F As
   0.5000000000000000    0.1969289093873572    0.5117360626713576 F F F As
   0.5000000000000000    0.6969289093873572    0.6367360626713576 F F F As
   0.5000000000000000    0.3030710906126428    0.5507639373286424 F F F As
   0.5000000000000000    0.8030710906126428    0.6757639373286424 T T T As
   0.0000000000000000    0.2918927614441219    0.7239496744521421 T T T As
   0.0000000000000000    0.7918927614441218    0.5989496744521421 F F F As
   0.0000000000000000    0.2081072385558782    0.5885503255478579 F F F As
   0.0000000000000000    0.7081072385558782    0.7135503255478579 T T T As
   0.0000000000000000    0.0621469568243081    0.7149169259755668 T T T As
   0.0000000000000000    0.5621469568243080    0.5899169259755668 F F F As
   0.0000000000000000    0.4378530431756920    0.5975830740244332 F F F As
   0.0000000000000000    0.9378530431756920    0.7225830740244332 T T T As
   0.5000000000000000    0.0765966846483855    0.6676610156086868 T T T W
   0.5000000000000000    0.5765966846483854    0.5426610156086868 F F F W
   0.5000000000000000    0.4234033153516145    0.6448389843913132 F F F W
   0.5000000000000000    0.9234033153516145    0.5198389843913132 F F F W
   0.5000000000000000    0.1263770573646560    0.5939820830483511 F F F W
   0.5000000000000000    0.6263770573646559    0.7189820830483511 T T T W
   0.5000000000000000    0.3736229426353441    0.7185179169516489 T T T W
   0.5000000000000000    0.8736229426353440    0.5935179169516489 F F F W
   0.0000000000000000    0.3265966846483855    0.6051610156086868 F F F W
   0.0000000000000000    0.8265966846483855    0.7301610156086868 T T T W
   0.0000000000000000    0.1734033153516144    0.7073389843913132 T T T W
   0.0000000000000000    0.6734033153516144    0.5823389843913132 F F F W
   0.0000000000000000    0.3763770573646560    0.5314820830483511 F F F W
   0.0000000000000000    0.8763770573646560    0.6564820830483511 F F F W
   0.0000000000000000    0.1236229426353440    0.5310179169516489 F F F W
   0.0000000000000000    0.6236229426353439    0.6560179169516489 F F F W
