Mn12 Ge12
1.0
   4.7584373411762009    0.0000000000000000    0.0000000000000003
  -0.0000000000000003    4.7584373411762009    4.7584373411762009
   0.0000000000000000    0.0000000000000000   38.0674987294096070
Mn Ge Mn Ge Mn Ge
4 4 4 4 4 4
Selective dynamics
direct
   0.6372750415961477    0.6372750415961478    0.3250562396009631 T T T Mn
   0.3627249584038523    0.1372750415961477    0.3593750000000000 T T T Mn
   0.8627249584038523    0.3627249584038523    0.4218750000000000 T T T Mn
   0.1372750415961477    0.8627249584038524    0.3311937603990369 T T T Mn
   0.3428756442232483    0.3428756442232484    0.3986560889441879 T T T Ge
   0.6571243557767517    0.8428756442232485    0.3593750000000000 T T T Ge
   0.1571243557767518    0.6571243557767519    0.4218750000000000 T T T Ge
   0.8428756442232483    0.1571243557767517    0.3825939110558121 T T T Ge
   0.6372750415961477    0.6372750415961478    0.4500562396009631 F F F Mn
   0.3627249584038523    0.1372750415961477    0.4843750000000000 F F F Mn
   0.8627249584038523    0.3627249584038523    0.5468750000000000 F F F Mn
   0.1372750415961477    0.8627249584038524    0.4561937603990369 F F F Mn
   0.3428756442232483    0.3428756442232484    0.5236560889441879 F F F Ge
   0.6571243557767517    0.8428756442232485    0.4843750000000000 F F F Ge
   0.1571243557767518    0.6571243557767519    0.5468750000000000 F F F Ge
   0.8428756442232483    0.1571243557767517    0.5075939110558121 F F F Ge
   0.6372750415961477    0.6372750415961478    0.5750562396009631 T T T Mn
   0.3627249584038523    0.1372750415961477    0.6093750000000000 T T T Mn
   0.8627249584038523    0.3627249584038523    0.6718750000000000 T T T Mn
   0.1372750415961477    0.8627249584038524    0.5811937603990369 T T T Mn
   0.3428756442232483    0.3428756442232484    0.6486560889441879 T T T Ge
   0.6571243557767517    0.8428756442232485    0.6093750000000000 T T T Ge
   0.1571243557767518    0.6571243557767519    0.6718750000000000 T T T Ge
   0.8428756442232483    0.1571243557767517    0.6325939110558121 T T T Ge
