Mo12 Rh36
1.0
   9.5236563115740243    0.0000000000000000    0.0000000000000006
   0.0000000000000009    5.4984855351567425   -4.3690022548038634
   0.0000000000000000    0.0000000000000000   34.9520180384309356
Mo Rh Mo Rh Mo Rh
4 12 4 12 4 12
Selective dynamics
direct
   0.3333333333333333    0.0000000000000000    0.3281250000000000 T T T Mo
   0.8333333333333334    0.5000000000000000    0.3906250000000000 T T T Mo
   0.1666666666666666    0.5000000000000000    0.3281250000000000 T T T Mo
   0.6666666666666667    0.0000000000000000    0.3906250000000000 T T T Mo
   0.0834252460064917    0.2502757380194753    0.3594094672524344 T T T Rh
   0.5834252460064917    0.7502757380194752    0.4219094672524344 T T T Rh
   0.1668504920129834    0.0000000000000000    0.3906250000000000 T T T Rh
   0.6668504920129834    0.5000000000000000    0.3281250000000000 T T T Rh
   0.4165747539935082    0.7502757380194752    0.3594094672524344 T T T Rh
   0.9165747539935083    0.2502757380194752    0.4219094672524344 T T T Rh
   0.0834252460064917    0.7497242619805249    0.4218405327475656 T T T Rh
   0.5834252460064918    0.2497242619805248    0.3593405327475656 T T T Rh
   0.3331495079870165    0.4999999999999999    0.3906250000000000 T T T Rh
   0.8331495079870166    0.0000000000000000    0.3281250000000000 T T T Rh
   0.4165747539935082    0.2497242619805248    0.4218405327475656 T T T Rh
   0.9165747539935083    0.7497242619805248    0.3593405327475656 T T T Rh
   0.3333333333333333    0.0000000000000000    0.4531250000000000 F F F Mo
   0.8333333333333334    0.5000000000000000    0.5156250000000000 F F F Mo
   0.1666666666666666    0.5000000000000000    0.4531250000000000 F F F Mo
   0.6666666666666667    0.0000000000000000    0.5156250000000000 F F F Mo
   0.0834252460064917    0.2502757380194753    0.4844094672524344 F F F Rh
   0.5834252460064917    0.7502757380194752    0.5469094672524344 F F F Rh
   0.1668504920129834    0.0000000000000000    0.5156250000000000 F F F Rh
   0.6668504920129834    0.5000000000000000    0.4531250000000000 F F F Rh
   0.4165747539935082    0.7502757380194752    0.4844094672524344 F F F Rh
   0.9165747539935083    0.2502757380194752    0.5469094672524344 F F F Rh
   0.0834252460064917    0.7497242619805249    0.5468405327475656 F F F Rh
   0.5834252460064918    0.2497242619805248    0.4843405327475656 F F F Rh
   0.3331495079870165    0.4999999999999999    0.5156250000000000 F F F Rh
   0.8331495079870166    0.0000000000000000    0.4531250000000000 F F F Rh
   0.4165747539935082    0.2497242619805248    0.5468405327475656 F F F Rh
   0.9165747539935083    0.7497242619805248    0.4843405327475656 F F F Rh
   0.3333333333333333    0.0000000000000000    0.5781250000000000 T T T Mo
   0.8333333333333334    0.5000000000000000    0.6406250000000000 T T T Mo
   0.1666666666666666    0.5000000000000000    0.5781250000000000 T T T Mo
   0.6666666666666667    0.0000000000000000    0.6406250000000000 T T T Mo
   0.0834252460064917    0.2502757380194753    0.6094094672524344 T T T Rh
   0.5834252460064917    0.7502757380194752    0.6719094672524344 T T T Rh
   0.1668504920129834    0.0000000000000000    0.6406250000000000 T T T Rh
   0.6668504920129834    0.5000000000000000    0.5781250000000000 T T T Rh
   0.4165747539935082    0.7502757380194752    0.6094094672524344 T T T Rh
   0.9165747539935083    0.2502757380194752    0.6719094672524344 T T T Rh
   0.0834252460064917    0.7497242619805249    0.6718405327475656 T T T Rh
   0.5834252460064918    0.2497242619805248    0.6093405327475656 T T T Rh
   0.3331495079870165    0.4999999999999999    0.6406250000000000 T T T Rh
   0.8331495079870166    0.0000000000000000    0.5781250000000000 T T T Rh
   0.4165747539935082    0.2497242619805248    0.6718405327475656 T T T Rh
   0.9165747539935083    0.7497242619805248    0.6093405327475656 T T T Rh
