Ca24 Zn24
1.0
   4.4988196293405869    0.0000000000000000    0.0000000000000003
   0.0000000000000036   22.6162389366678624   -4.1774674249083592
   0.0000000000000000    0.0000000000000000   29.2422719743585695
Ca Zn Ca Zn Ca Zn
8 8 8 8 8 8
Selective dynamics
direct
   0.2500000000000000    0.0729962563746920    0.2872137509106703 T T T Ca
   0.2500000000000000    0.5729962563746920    0.3586423223392418 T T T Ca
   0.7500000000000000    0.1770037436253080    0.3735005348036154 T T T Ca
   0.7500000000000000    0.6770037436253080    0.3020719633750440 T T T Ca
   0.2500000000000001    0.3229962563746920    0.3943566080535275 F F F Ca
   0.2500000000000001    0.8229962563746920    0.3229280366249560 T T T Ca
   0.7500000000000000    0.4270037436253080    0.3377862490893297 T T T Ca
   0.7500000000000000    0.9270037436253080    0.4092148205179011 F F F Ca
   0.2500000000000001    0.2182986115059862    0.3079712302151409 T T T Zn
   0.2500000000000001    0.7182986115059862    0.3793998016437123 T T T Zn
   0.7500000000000000    0.0317013884940138    0.3527430554991449 T T T Zn
   0.7500000000000000    0.5317013884940138    0.4241716269277163 F F F Zn
   0.2500000000000001    0.4682986115059862    0.4151140873579980 F F F Zn
   0.2500000000000000    0.9682986115059862    0.3436855159294266 T T T Zn
   0.7500000000000000    0.2817013884940138    0.3170287697848592 T T T Zn
   0.7500000000000000    0.7817013884940138    0.3884573412134306 T T T Zn
   0.2500000000000000    0.0729962563746920    0.4300708937678132 F F F Ca
   0.2500000000000000    0.5729962563746920    0.5014994651963847 F F F Ca
   0.7500000000000000    0.1770037436253080    0.5163576776607584 F F F Ca
   0.7500000000000000    0.6770037436253080    0.4449291062321868 F F F Ca
   0.2500000000000001    0.3229962563746920    0.5372137509106703 F F F Ca
   0.2500000000000001    0.8229962563746920    0.4657851794820989 F F F Ca
   0.7500000000000000    0.4270037436253080    0.4806433919464726 F F F Ca
   0.7500000000000000    0.9270037436253080    0.5520719633750441 F F F Ca
   0.2500000000000001    0.2182986115059862    0.4508283730722837 F F F Zn
   0.2500000000000001    0.7182986115059862    0.5222569445008551 F F F Zn
   0.7500000000000000    0.0317013884940138    0.4956001983562877 F F F Zn
   0.7500000000000000    0.5317013884940138    0.5670287697848592 F F F Zn
   0.2500000000000001    0.4682986115059862    0.5579712302151409 F F F Zn
   0.2500000000000000    0.9682986115059862    0.4865426587865694 F F F Zn
   0.7500000000000000    0.2817013884940138    0.4598859126420020 F F F Zn
   0.7500000000000000    0.7817013884940138    0.5313144840705735 F F F Zn
   0.2500000000000000    0.0729962563746920    0.5729280366249561 F F F Ca
   0.2500000000000000    0.5729962563746920    0.6443566080535275 T T T Ca
   0.7500000000000000    0.1770037436253080    0.6592148205179011 T T T Ca
   0.7500000000000000    0.6770037436253080    0.5877862490893297 F F F Ca
   0.2500000000000001    0.3229962563746920    0.6800708937678132 T T T Ca
   0.2500000000000001    0.8229962563746920    0.6086423223392416 T T T Ca
   0.7500000000000000    0.4270037436253080    0.6235005348036154 T T T Ca
   0.7500000000000000    0.9270037436253080    0.6949291062321868 T T T Ca
   0.2500000000000001    0.2182986115059862    0.5936855159294265 F F F Zn
   0.2500000000000001    0.7182986115059862    0.6651140873579980 T T T Zn
   0.7500000000000000    0.0317013884940138    0.6384573412134306 T T T Zn
   0.7500000000000000    0.5317013884940138    0.7098859126420020 T T T Zn
   0.2500000000000001    0.4682986115059862    0.7008283730722837 T T T Zn
   0.2500000000000000    0.9682986115059862    0.6293998016437123 T T T Zn
   0.7500000000000000    0.2817013884940138    0.6027430554991449 F F F Zn
   0.7500000000000000    0.7817013884940138    0.6741716269277163 T T T Zn
