Cd12 Au12
1.0
   4.8611924207132367    0.0000000000000000    0.0000000000000003
  -0.0000000000000018    6.2288611151645101    5.1362285379261863
   0.0000000000000000    0.0000000000000000   35.9535997654833039
Cd Au Cd Au Cd Au
4 4 4 4 4 4
Selective dynamics
direct
   0.7500000000000000    0.5000000000000000    0.3128143006328230 T T T Cd
   0.7500000000000000    0.0000000000000000    0.3842428720613945 T T T Cd
   0.2500000000000000    0.5000000000000000    0.4014714136528912 T T T Cd
   0.2500000000000000    0.0000000000000000    0.3300428422243198 T T T Cd
   0.7500000000000000    0.2500000000000000    0.4190763539082287 F F F Au
   0.7500000000000000    0.7500000000000000    0.3476477824796573 T T T Au
   0.2500000000000000    0.2500000000000000    0.3666379318060570 T T T Au
   0.2500000000000000    0.7500000000000000    0.2952093603774855 T T T Au
   0.7500000000000000    0.5000000000000000    0.4556714434899658 F F F Cd
   0.7500000000000000    0.0000000000000000    0.5271000149185373 F F F Cd
   0.2500000000000000    0.5000000000000000    0.5443285565100341 F F F Cd
   0.2500000000000000    0.0000000000000000    0.4728999850814626 F F F Cd
   0.7500000000000000    0.2500000000000000    0.5619334967653715 F F F Au
   0.7500000000000000    0.7500000000000000    0.4905049253368001 F F F Au
   0.2500000000000000    0.2500000000000000    0.5094950746631999 F F F Au
   0.2500000000000000    0.7500000000000000    0.4380665032346284 F F F Au
   0.7500000000000000    0.5000000000000000    0.5985285863471087 T T T Cd
   0.7500000000000000    0.0000000000000000    0.6699571577756802 T T T Cd
   0.2500000000000000    0.5000000000000000    0.6871856993671770 T T T Cd
   0.2500000000000000    0.0000000000000000    0.6157571279386055 T T T Cd
   0.7500000000000000    0.2500000000000000    0.7047906396225144 T T T Au
   0.7500000000000000    0.7500000000000000    0.6333620681939430 T T T Au
   0.2500000000000000    0.2500000000000000    0.6523522175203427 T T T Au
   0.2500000000000000    0.7500000000000000    0.5809236460917713 F F F Au
