Zr32 Ga16
1.0
   6.7264804391467994    0.0000000000000000    0.0000000000000004
   0.0000000000000017   10.8758746394961054   -6.7264804391467967
   0.0000000000000000    0.0000000000000000   33.6324021957339951
Zr Ga Zr Ga
16 8 16 8
Selective dynamics
direct
   0.6535713875940131    0.0000000000000000    0.3307142775188027 T T T Zr
   0.6535713875940131    0.4999999999999999    0.4307142775188026 F F F Zr
   0.3464286124059868    0.2500000000000000    0.3807142775188027 T T T Zr
   0.3464286124059868    0.7500000000000000    0.4807142775188027 F F F Zr
   0.3464286124059868    0.0000000000000000    0.4692857224811974 F F F Zr
   0.3464286124059868    0.5000000000000000    0.3692857224811974 T T T Zr
   0.6535713875940131    0.2500000000000000    0.3192857224811975 T T T Zr
   0.6535713875940131    0.7499999999999999    0.4192857224811974 T T T Zr
   0.1535713875940132    0.2500000000000000    0.4807142775188027 F F F Zr
   0.1535713875940132    0.7500000000000000    0.3807142775188027 T T T Zr
   0.8464286124059868    0.0000000000000000    0.4307142775188026 F F F Zr
   0.8464286124059868    0.5000000000000000    0.3307142775188027 T T T Zr
   0.8464286124059868    0.2500000000000000    0.4192857224811974 T T T Zr
   0.8464286124059868    0.7499999999999999    0.3192857224811974 T T T Zr
   0.1535713875940132    0.0000000000000000    0.3692857224811974 T T T Zr
   0.1535713875940132    0.5000000000000000    0.4692857224811974 F F F Zr
   0.0000000000000000    0.1250000000000000    0.3250000000000001 T T T Ga
   0.0000000000000000    0.6250000000000000    0.4250000000000000 F F F Ga
   0.0000000000000000    0.3750000000000000    0.3750000000000001 T T T Ga
   0.0000000000000000    0.8750000000000000    0.4750000000000000 F F F Ga
   0.5000000000000000    0.3749999999999999    0.4750000000000000 F F F Ga
   0.5000000000000000    0.8750000000000000    0.3750000000000000 T T T Ga
   0.5000000000000000    0.1250000000000000    0.4250000000000000 F F F Ga
   0.5000000000000000    0.6250000000000000    0.3250000000000000 T T T Ga
   0.6535713875940131    0.0000000000000000    0.5307142775188027 F F F Zr
   0.6535713875940131    0.4999999999999999    0.6307142775188027 T T T Zr
   0.3464286124059868    0.2500000000000000    0.5807142775188027 T T T Zr
   0.3464286124059868    0.7500000000000000    0.6807142775188026 T T T Zr
   0.3464286124059868    0.0000000000000000    0.6692857224811974 T T T Zr
   0.3464286124059868    0.5000000000000000    0.5692857224811974 F F F Zr
   0.6535713875940131    0.2500000000000000    0.5192857224811974 F F F Zr
   0.6535713875940131    0.7499999999999999    0.6192857224811974 T T T Zr
   0.1535713875940132    0.2500000000000000    0.6807142775188026 T T T Zr
   0.1535713875940132    0.7500000000000000    0.5807142775188027 T T T Zr
   0.8464286124059868    0.0000000000000000    0.6307142775188027 T T T Zr
   0.8464286124059868    0.5000000000000000    0.5307142775188026 F F F Zr
   0.8464286124059868    0.2500000000000000    0.6192857224811974 T T T Zr
   0.8464286124059868    0.7499999999999999    0.5192857224811974 F F F Zr
   0.1535713875940132    0.0000000000000000    0.5692857224811974 F F F Zr
   0.1535713875940132    0.5000000000000000    0.6692857224811974 T T T Zr
   0.0000000000000000    0.1250000000000000    0.5250000000000000 F F F Ga
   0.0000000000000000    0.6250000000000000    0.6250000000000000 T T T Ga
   0.0000000000000000    0.3750000000000000    0.5750000000000001 F F F Ga
   0.0000000000000000    0.8750000000000000    0.6750000000000000 T T T Ga
   0.5000000000000000    0.3749999999999999    0.6750000000000000 T T T Ga
   0.5000000000000000    0.8750000000000000    0.5750000000000000 F F F Ga
   0.5000000000000000    0.1250000000000000    0.6250000000000000 T T T Ga
   0.5000000000000000    0.6250000000000000    0.5250000000000000 F F F Ga
