Zr24 Ga12
1.0
   9.5126798640787360    0.0000000000000000    0.0000000000000006
   4.7563399320393671    4.7563399320393680    5.4379373197480509
   0.0000000000000000    0.0000000000000000   43.5034985579844147
Zr Ga Zr Ga Zr Ga
8 4 8 4 8 4
Selective dynamics
direct
   0.6535713875940131    0.1928572248119735    0.4029761802318367 T T T Zr
   0.3464286124059868    0.5000000000000000    0.4270833333333334 T T T Zr
   0.3464286124059868    0.8071427751880265    0.3261904864348301 T T T Zr
   0.6535713875940131    0.4999999999999998    0.4270833333333334 T T T Zr
   0.1535713875940132    0.1928572248119736    0.3404761802318367 T T T Zr
   0.8464286124059868    0.5000000000000000    0.3645833333333334 T T T Zr
   0.8464286124059868    0.8071427751880262    0.3886904864348301 T T T Zr
   0.1535713875940132    0.5000000000000000    0.3645833333333334 T T T Zr
   0.0000000000000000    0.0000000000000000    0.3333333333333334 T T T Ga
   0.0000000000000000    0.0000000000000000    0.3958333333333334 T T T Ga
   0.5000000000000000    0.0000000000000000    0.3958333333333334 T T T Ga
   0.5000000000000000    0.0000000000000000    0.3333333333333334 T T T Ga
   0.6535713875940131    0.1928572248119735    0.5279761802318367 F F F Zr
   0.3464286124059868    0.5000000000000000    0.5520833333333334 F F F Zr
   0.3464286124059868    0.8071427751880265    0.4511904864348301 F F F Zr
   0.6535713875940131    0.4999999999999998    0.5520833333333334 F F F Zr
   0.1535713875940132    0.1928572248119736    0.4654761802318367 F F F Zr
   0.8464286124059868    0.5000000000000000    0.4895833333333334 F F F Zr
   0.8464286124059868    0.8071427751880262    0.5136904864348301 F F F Zr
   0.1535713875940132    0.5000000000000000    0.4895833333333334 F F F Zr
   0.0000000000000000    0.0000000000000000    0.4583333333333334 F F F Ga
   0.0000000000000000    0.0000000000000000    0.5208333333333334 F F F Ga
   0.5000000000000000    0.0000000000000000    0.5208333333333334 F F F Ga
   0.5000000000000000    0.0000000000000000    0.4583333333333334 F F F Ga
   0.6535713875940131    0.1928572248119735    0.6529761802318367 T T T Zr
   0.3464286124059868    0.5000000000000000    0.6770833333333334 T T T Zr
   0.3464286124059868    0.8071427751880265    0.5761904864348301 T T T Zr
   0.6535713875940131    0.4999999999999998    0.6770833333333334 T T T Zr
   0.1535713875940132    0.1928572248119736    0.5904761802318367 T T T Zr
   0.8464286124059868    0.5000000000000000    0.6145833333333334 T T T Zr
   0.8464286124059868    0.8071427751880262    0.6386904864348301 T T T Zr
   0.1535713875940132    0.5000000000000000    0.6145833333333334 T T T Zr
   0.0000000000000000    0.0000000000000000    0.5833333333333334 T T T Ga
   0.0000000000000000    0.0000000000000000    0.6458333333333334 T T T Ga
   0.5000000000000000    0.0000000000000000    0.6458333333333334 T T T Ga
   0.5000000000000000    0.0000000000000000    0.5833333333333334 T T T Ga
