Y4 Pd4
1.0
   3.7392181055641625    0.0000000000000000    0.0000000000000002
   0.0000000000000007    4.5808413064243334    0.0000000000000003
   0.0000000000000000    0.0000000000000000   31.6597524370034371
Y Pd
4 4
Selective dynamics
direct
   0.5000000000000000    0.2499999999999999    0.4125477453140456 T T T Y
   0.0000000000000000    0.7500000000000000    0.3374522546859544 T T T Y
   0.0000000000000000    0.2499999999999999    0.5792144119807123 T T T Y
   0.4999999999999999    0.7500000000000000    0.5041189213526210 F F F Y
   0.5000000000000000    0.2500000000000000    0.6534344652231600 T T T Pd
   0.0000000000000000    0.7500000000000000    0.4298988681101734 T T T Pd
   0.0000000000000000    0.2500000000000000    0.4867677985564933 F F F Pd
   0.5000000000000000    0.7500000000000000    0.5965655347768399 T T T Pd
