Y24 Pd24
1.0
   4.5808413064243334    0.0000000000000000    0.0000000000000003
   0.0000000000000034   21.1065016246689545   -3.7392181055641567
   0.0000000000000000    0.0000000000000000   29.9137448445132996
Y Pd Y Pd Y Pd
8 8 8 8 8 8
Selective dynamics
direct
   0.2499999999999999    0.1813216179710684    0.3820402022463836 T T T Y
   0.2499999999999999    0.6813216179710684    0.3195402022463835 T T T Y
   0.7500000000000000    0.0686783820289316    0.4304597977536164 F F F Y
   0.7500000000000000    0.5686783820289316    0.3679597977536164 T T T Y
   0.2499999999999999    0.4313216179710684    0.3507902022463836 T T T Y
   0.2499999999999999    0.9313216179710684    0.4132902022463836 T T T Y
   0.7500000000000000    0.3186783820289316    0.3992097977536164 T T T Y
   0.7500000000000000    0.8186783820289316    0.3367097977536164 T T T Y
   0.2499999999999999    0.0426516978347400    0.3647064622293425 T T T Pd
   0.2500000000000000    0.5426516978347400    0.4272064622293425 F F F Pd
   0.7500000000000000    0.2073483021652601    0.3227935377706575 T T T Pd
   0.7500000000000000    0.7073483021652600    0.3852935377706575 T T T Pd
   0.2499999999999999    0.2926516978347400    0.3334564622293425 T T T Pd
   0.2500000000000000    0.7926516978347400    0.3959564622293425 T T T Pd
   0.7500000000000000    0.4573483021652601    0.4165435377706575 T T T Pd
   0.7500000000000000    0.9573483021652600    0.3540435377706575 T T T Pd
   0.2499999999999999    0.1813216179710684    0.5070402022463836 F F F Y
   0.2499999999999999    0.6813216179710684    0.4445402022463836 F F F Y
   0.7500000000000000    0.0686783820289316    0.5554597977536164 F F F Y
   0.7500000000000000    0.5686783820289316    0.4929597977536164 F F F Y
   0.2499999999999999    0.4313216179710684    0.4757902022463836 F F F Y
   0.2499999999999999    0.9313216179710684    0.5382902022463836 F F F Y
   0.7500000000000000    0.3186783820289316    0.5242097977536164 F F F Y
   0.7500000000000000    0.8186783820289316    0.4617097977536164 F F F Y
   0.2499999999999999    0.0426516978347400    0.4897064622293425 F F F Pd
   0.2500000000000000    0.5426516978347400    0.5522064622293426 F F F Pd
   0.7500000000000000    0.2073483021652601    0.4477935377706575 F F F Pd
   0.7500000000000000    0.7073483021652600    0.5102935377706574 F F F Pd
   0.2499999999999999    0.2926516978347400    0.4584564622293425 F F F Pd
   0.2500000000000000    0.7926516978347400    0.5209564622293426 F F F Pd
   0.7500000000000000    0.4573483021652601    0.5415435377706574 F F F Pd
   0.7500000000000000    0.9573483021652600    0.4790435377706575 F F F Pd
   0.2499999999999999    0.1813216179710684    0.6320402022463836 T T T Y
   0.2499999999999999    0.6813216179710684    0.5695402022463836 F F F Y
   0.7500000000000000    0.0686783820289316    0.6804597977536164 T T T Y
   0.7500000000000000    0.5686783820289316    0.6179597977536164 T T T Y
   0.2499999999999999    0.4313216179710684    0.6007902022463836 T T T Y
   0.2499999999999999    0.9313216179710684    0.6632902022463836 T T T Y
   0.7500000000000000    0.3186783820289316    0.6492097977536164 T T T Y
   0.7500000000000000    0.8186783820289316    0.5867097977536164 T T T Y
   0.2499999999999999    0.0426516978347400    0.6147064622293426 T T T Pd
   0.2500000000000000    0.5426516978347400    0.6772064622293426 T T T Pd
   0.7500000000000000    0.2073483021652601    0.5727935377706574 F F F Pd
   0.7500000000000000    0.7073483021652600    0.6352935377706574 T T T Pd
   0.2499999999999999    0.2926516978347400    0.5834564622293426 T T T Pd
   0.2500000000000000    0.7926516978347400    0.6459564622293426 T T T Pd
   0.7500000000000000    0.4573483021652601    0.6665435377706574 T T T Pd
   0.7500000000000000    0.9573483021652600    0.6040435377706574 T T T Pd
