Y24 Pd24
1.0
   4.5808413064243334    0.0000000000000000    0.0000000000000003
   0.0000000000000034   21.1065016246689545   -3.7392181055641567
   0.0000000000000000    0.0000000000000000   29.9137448445132996
Y Pd Y Pd Y Pd
8 8 8 8 8 8
Selective dynamics
direct
   0.2499999999999999    0.1813216179710684    0.3976652022463836 T T T Y
   0.2499999999999999    0.6813216179710684    0.3351652022463836 T T T Y
   0.7500000000000000    0.0686783820289316    0.3210847977536164 T T T Y
   0.7500000000000000    0.5686783820289316    0.3835847977536164 T T T Y
   0.2499999999999999    0.4313216179710684    0.3664152022463836 T T T Y
   0.2499999999999999    0.9313216179710684    0.4289152022463836 F F F Y
   0.7500000000000000    0.3186783820289316    0.4148347977536164 T T T Y
   0.7500000000000000    0.8186783820289316    0.3523347977536164 T T T Y
   0.2499999999999999    0.0426516978347400    0.3803314622293425 T T T Pd
   0.2500000000000000    0.5426516978347400    0.3178314622293425 T T T Pd
   0.7500000000000000    0.2073483021652601    0.3384185377706575 T T T Pd
   0.7500000000000000    0.7073483021652600    0.4009185377706575 T T T Pd
   0.2499999999999999    0.2926516978347400    0.3490814622293425 T T T Pd
   0.2500000000000000    0.7926516978347400    0.4115814622293425 T T T Pd
   0.7500000000000000    0.4573483021652601    0.4321685377706575 F F F Pd
   0.7500000000000000    0.9573483021652600    0.3696685377706575 T T T Pd
   0.2499999999999999    0.1813216179710684    0.5226652022463836 F F F Y
   0.2499999999999999    0.6813216179710684    0.4601652022463836 F F F Y
   0.7500000000000000    0.0686783820289316    0.4460847977536164 F F F Y
   0.7500000000000000    0.5686783820289316    0.5085847977536164 F F F Y
   0.2499999999999999    0.4313216179710684    0.4914152022463836 F F F Y
   0.2499999999999999    0.9313216179710684    0.5539152022463836 F F F Y
   0.7500000000000000    0.3186783820289316    0.5398347977536164 F F F Y
   0.7500000000000000    0.8186783820289316    0.4773347977536164 F F F Y
   0.2499999999999999    0.0426516978347400    0.5053314622293426 F F F Pd
   0.2500000000000000    0.5426516978347400    0.4428314622293425 F F F Pd
   0.7500000000000000    0.2073483021652601    0.4634185377706575 F F F Pd
   0.7500000000000000    0.7073483021652600    0.5259185377706574 F F F Pd
   0.2499999999999999    0.2926516978347400    0.4740814622293425 F F F Pd
   0.2500000000000000    0.7926516978347400    0.5365814622293426 F F F Pd
   0.7500000000000000    0.4573483021652601    0.5571685377706574 F F F Pd
   0.7500000000000000    0.9573483021652600    0.4946685377706575 F F F Pd
   0.2499999999999999    0.1813216179710684    0.6476652022463836 T T T Y
   0.2499999999999999    0.6813216179710684    0.5851652022463836 T T T Y
   0.7500000000000000    0.0686783820289316    0.5710847977536164 F F F Y
   0.7500000000000000    0.5686783820289316    0.6335847977536164 T T T Y
   0.2499999999999999    0.4313216179710684    0.6164152022463836 T T T Y
   0.2499999999999999    0.9313216179710684    0.6789152022463836 T T T Y
   0.7500000000000000    0.3186783820289316    0.6648347977536164 T T T Y
   0.7500000000000000    0.8186783820289316    0.6023347977536164 T T T Y
   0.2499999999999999    0.0426516978347400    0.6303314622293426 T T T Pd
   0.2500000000000000    0.5426516978347400    0.5678314622293426 F F F Pd
   0.7500000000000000    0.2073483021652601    0.5884185377706574 T T T Pd
   0.7500000000000000    0.7073483021652600    0.6509185377706574 T T T Pd
   0.2499999999999999    0.2926516978347400    0.5990814622293426 T T T Pd
   0.2500000000000000    0.7926516978347400    0.6615814622293426 T T T Pd
   0.7500000000000000    0.4573483021652601    0.6821685377706574 T T T Pd
   0.7500000000000000    0.9573483021652600    0.6196685377706574 T T T Pd
