Zr16 Ag16
1.0
   6.9905582503379895    0.0000000000000000   -3.4952791251689947
  -0.0000000000000004    6.6390471520716110   -3.4952791251689947
   0.0000000000000000    0.0000000000000000   34.9527912516899448
Zr Ag Zr Ag Zr Ag Zr Ag
4 4 4 4 4 4 4 4
Selective dynamics
direct
   0.0000000000000000    0.1430772065957910    0.3268077206595791 T T T Zr
   0.5000000000000000    0.1430772065957909    0.3768077206595791 T T T Zr
   0.2500000000000000    0.8569227934042090    0.3731922793404209 T T T Zr
   0.7499999999999999    0.8569227934042088    0.3231922793404209 T T T Zr
   0.0000000000000000    0.6138911522443280    0.3738891152244328 T T T Ag
   0.5000000000000000    0.6138911522443279    0.3238891152244328 T T T Ag
   0.2500000000000000    0.3861088477556719    0.3261108847755672 T T T Ag
   0.7499999999999999    0.3861088477556719    0.3761108847755672 T T T Ag
   0.0000000000000000    0.1430772065957910    0.4268077206595791 T T T Zr
   0.5000000000000000    0.1430772065957909    0.4768077206595791 F F F Zr
   0.2500000000000000    0.8569227934042090    0.4731922793404209 F F F Zr
   0.7499999999999999    0.8569227934042088    0.4231922793404209 T T T Zr
   0.0000000000000000    0.6138911522443280    0.4738891152244328 F F F Ag
   0.5000000000000000    0.6138911522443279    0.4238891152244328 T T T Ag
   0.2500000000000000    0.3861088477556719    0.4261108847755672 T T T Ag
   0.7499999999999999    0.3861088477556719    0.4761108847755672 F F F Ag
   0.0000000000000000    0.1430772065957910    0.5268077206595791 F F F Zr
   0.5000000000000000    0.1430772065957909    0.5768077206595792 T T T Zr
   0.2500000000000000    0.8569227934042090    0.5731922793404209 T T T Zr
   0.7499999999999999    0.8569227934042088    0.5231922793404209 F F F Zr
   0.0000000000000000    0.6138911522443280    0.5738891152244328 T T T Ag
   0.5000000000000000    0.6138911522443279    0.5238891152244328 F F F Ag
   0.2500000000000000    0.3861088477556719    0.5261108847755672 F F F Ag
   0.7499999999999999    0.3861088477556719    0.5761108847755672 T T T Ag
   0.0000000000000000    0.1430772065957910    0.6268077206595790 T T T Zr
   0.5000000000000000    0.1430772065957909    0.6768077206595791 T T T Zr
   0.2500000000000000    0.8569227934042090    0.6731922793404208 T T T Zr
   0.7499999999999999    0.8569227934042088    0.6231922793404209 T T T Zr
   0.0000000000000000    0.6138911522443280    0.6738891152244328 T T T Ag
   0.5000000000000000    0.6138911522443279    0.6238891152244328 T T T Ag
   0.2500000000000000    0.3861088477556719    0.6261108847755672 T T T Ag
   0.7499999999999999    0.3861088477556719    0.6761108847755672 T T T Ag
