Zr6 Ag6
1.0
   3.4952791251689947    0.0000000000000000    0.0000000000000002
   0.0000000000000011    6.6390471520716119    0.0000000000000004
   0.0000000000000000    0.0000000000000000   27.9622330013519580
Zr Ag Zr Ag Zr Ag
2 2 2 2 2 2
Selective dynamics
direct
   0.0000000000000000    0.1430772065957910    0.3437500000000000 T T T Zr
   0.5000000000000000    0.8569227934042090    0.4062500000000000 T T T Zr
   0.0000000000000000    0.6138911522443280    0.3437500000000000 T T T Ag
   0.5000000000000000    0.3861088477556720    0.4062500000000000 T T T Ag
   0.0000000000000000    0.1430772065957910    0.4687500000000000 F F F Zr
   0.5000000000000000    0.8569227934042090    0.5312500000000000 F F F Zr
   0.0000000000000000    0.6138911522443280    0.4687500000000000 F F F Ag
   0.5000000000000000    0.3861088477556720    0.5312500000000000 F F F Ag
   0.0000000000000000    0.1430772065957910    0.5937500000000000 T T T Zr
   0.5000000000000000    0.8569227934042090    0.6562500000000000 T T T Zr
   0.0000000000000000    0.6138911522443280    0.5937500000000000 T T T Ag
   0.5000000000000000    0.3861088477556720    0.6562500000000000 T T T Ag
