Sr16 Zn16
1.0
   4.6209651833859340    0.0000000000000000    0.0000000000000003
  -0.0000000000000036   12.6708306639768757    8.7553206914105104
   0.0000000000000000    0.0000000000000000   43.7766034570525520
Sr Zn Sr Zn
8 8 8 8
Selective dynamics
direct
   0.7500000000000000    0.1940978423427691    0.5003931551433343 F F F Sr
   0.7500000000000000    0.6940978423427691    0.4003931551433343 F F F Sr
   0.2500000000000000    0.3059021576572309    0.3496068448566657 T T T Sr
   0.2500000000000000    0.8059021576572309    0.4496068448566657 F F F Sr
   0.2500000000000000    0.4440978423427691    0.4219677079195581 F F F Sr
   0.2500000000000001    0.9440978423427691    0.3219677079195580 T T T Sr
   0.7500000000000000    0.0559021576572309    0.4280322920804419 F F F Sr
   0.7500000000000000    0.5559021576572309    0.3280322920804419 T T T Sr
   0.7500000000000000    0.4518507564872020    0.4793766521214042 F F F Zn
   0.7500000000000000    0.9518507564872021    0.3793766521214043 T T T Zn
   0.2500000000000000    0.0481492435127979    0.3706233478785957 T T T Zn
   0.2500000000000000    0.5481492435127979    0.4706233478785957 F F F Zn
   0.2500000000000000    0.2018507564872021    0.4398830452837149 F F F Zn
   0.2500000000000000    0.7018507564872021    0.3398830452837149 T T T Zn
   0.7500000000000000    0.2981492435127979    0.4101169547162851 F F F Zn
   0.7500000000000000    0.7981492435127978    0.3101169547162851 T T T Zn
   0.7500000000000000    0.1940978423427691    0.7003931551433343 T T T Sr
   0.7500000000000000    0.6940978423427691    0.6003931551433344 F F F Sr
   0.2500000000000000    0.3059021576572309    0.5496068448566657 F F F Sr
   0.2500000000000000    0.8059021576572309    0.6496068448566656 T T T Sr
   0.2500000000000000    0.4440978423427691    0.6219677079195580 T T T Sr
   0.2500000000000001    0.9440978423427691    0.5219677079195580 F F F Sr
   0.7500000000000000    0.0559021576572309    0.6280322920804420 T T T Sr
   0.7500000000000000    0.5559021576572309    0.5280322920804419 F F F Sr
   0.7500000000000000    0.4518507564872020    0.6793766521214042 T T T Zn
   0.7500000000000000    0.9518507564872021    0.5793766521214043 F F F Zn
   0.2500000000000000    0.0481492435127979    0.5706233478785958 F F F Zn
   0.2500000000000000    0.5481492435127979    0.6706233478785957 T T T Zn
   0.2500000000000000    0.2018507564872021    0.6398830452837150 T T T Zn
   0.2500000000000000    0.7018507564872021    0.5398830452837149 F F F Zn
   0.7500000000000000    0.2981492435127979    0.6101169547162850 F F F Zn
   0.7500000000000000    0.7981492435127978    0.5101169547162852 F F F Zn
