Y6 Au18
1.0
   5.0480462034819311    0.0000000000000000    0.0000000000000003
  -0.0000000000000004    6.2221747805865730   -5.1471474474619381
   0.0000000000000000    0.0000000000000000   36.0300321322335648
Y Au Y Au Y Au
2 6 2 6 2 6
Selective dynamics
direct
   0.5000000000000000    0.5000000000000000    0.2901889831062699 T T T Y
   0.0000000000000000    0.0000000000000000    0.3169538740365872 T T T Y
   0.4999999999999999    0.2423271837224024    0.3258502690853190 T T T Au
   0.4999999999999999    0.7576728162775977    0.3994710737360612 F F F Au
   0.0000000000000000    0.2576728162775979    0.4241497309146811 F F F Au
   0.0000000000000000    0.7423271837224021    0.3505289262639388 T T T Au
   0.0000000000000000    0.5000000000000000    0.3863586703719304 T T T Au
   0.4999999999999999    0.0000000000000000    0.3636413296280696 T T T Au
   0.5000000000000000    0.5000000000000000    0.4330461259634129 F F F Y
   0.0000000000000000    0.0000000000000000    0.4598110168937301 F F F Y
   0.4999999999999999    0.2423271837224024    0.4687074119424618 F F F Au
   0.4999999999999999    0.7576728162775977    0.5423282165932041 F F F Au
   0.0000000000000000    0.2576728162775979    0.5670068737718239 F F F Au
   0.0000000000000000    0.7423271837224021    0.4933860691210816 F F F Au
   0.0000000000000000    0.5000000000000000    0.5292158132290733 F F F Au
   0.4999999999999999    0.0000000000000000    0.5064984724852124 F F F Au
   0.5000000000000000    0.5000000000000000    0.5759032688205556 F F F Y
   0.0000000000000000    0.0000000000000000    0.6026681597508730 T T T Y
   0.4999999999999999    0.2423271837224024    0.6115645547996047 T T T Au
   0.4999999999999999    0.7576728162775977    0.6851853594503469 T T T Au
   0.0000000000000000    0.2576728162775979    0.7098640166289667 T T T Au
   0.0000000000000000    0.7423271837224021    0.6362432119782245 T T T Au
   0.0000000000000000    0.5000000000000000    0.6720729560862162 T T T Au
   0.4999999999999999    0.0000000000000000    0.6493556153423552 T T T Au
