Nb24 Te48
1.0
  15.1581396325465665    0.0000000000000000   -7.3092110921810809
  11.5402262947842615    8.9316656635663492    0.0000000000000009
   0.0000000000000000    0.0000000000000000   36.5460554609054000
Nb Te Nb Te Nb Te Nb Te
6 12 6 12 6 12 6 12
Selective dynamics
direct
   0.0000000000000000    0.0000000000000000    0.3972222222222221 T T T Nb
   0.6506569494093278    0.7122371232835929    0.3273536121040878 T T T Nb
   0.8493430505906723    0.2877628767164070    0.3170908323403566 T T T Nb
   0.5000000000000001    0.9999999999999999    0.3472222222222222 T T T Nb
   0.1506569494093279    0.7122371232835930    0.3773536121040877 T T T Nb
   0.3493430505906721    0.2877628767164070    0.3670908323403566 T T T Nb
   0.3679918748176122    0.9847711136412440    0.3708205971857446 T T T Te
   0.1320081251823879    0.0152288863587559    0.3736238472586997 T T T Te
   0.5913447847162348    0.6149797720192109    0.3654911791654691 T T T Te
   0.9086552152837652    0.3850202279807889    0.3789532652789752 T T T Te
   0.7009843779865470    0.3037683250259988    0.3374190978195316 T T T Te
   0.7990156220134530    0.6962316749740012    0.3070253466249128 T T T Te
   0.8679918748176121    0.9847711136412441    0.3208205971857446 T T T Te
   0.6320081251823878    0.0152288863587560    0.3236238472586997 T T T Te
   0.0913447847162346    0.6149797720192111    0.3154911791654691 T T T Te
   0.4086552152837654    0.3850202279807889    0.3289532652789752 T T T Te
   0.2009843779865469    0.3037683250259988    0.3874190978195315 T T T Te
   0.2990156220134529    0.6962316749740012    0.3570253466249128 T T T Te
   0.0000000000000000    0.0000000000000000    0.4972222222222222 F F F Nb
   0.6506569494093278    0.7122371232835929    0.4273536121040877 F F F Nb
   0.8493430505906723    0.2877628767164070    0.4170908323403566 F F F Nb
   0.5000000000000001    0.9999999999999999    0.4472222222222222 F F F Nb
   0.1506569494093279    0.7122371232835930    0.4773536121040877 F F F Nb
   0.3493430505906721    0.2877628767164070    0.4670908323403566 F F F Nb
   0.3679918748176122    0.9847711136412440    0.4708205971857446 F F F Te
   0.1320081251823879    0.0152288863587559    0.4736238472586998 F F F Te
   0.5913447847162348    0.6149797720192109    0.4654911791654691 F F F Te
   0.9086552152837652    0.3850202279807889    0.4789532652789752 F F F Te
   0.7009843779865470    0.3037683250259988    0.4374190978195316 F F F Te
   0.7990156220134530    0.6962316749740012    0.4070253466249127 T T T Te
   0.8679918748176121    0.9847711136412441    0.4208205971857446 F F F Te
   0.6320081251823878    0.0152288863587560    0.4236238472586997 F F F Te
   0.0913447847162346    0.6149797720192111    0.4154911791654691 F F F Te
   0.4086552152837654    0.3850202279807889    0.4289532652789753 F F F Te
   0.2009843779865469    0.3037683250259988    0.4874190978195315 F F F Te
   0.2990156220134529    0.6962316749740012    0.4570253466249127 F F F Te
   0.0000000000000000    0.0000000000000000    0.5972222222222222 T T T Nb
   0.6506569494093278    0.7122371232835929    0.5273536121040877 F F F Nb
   0.8493430505906723    0.2877628767164070    0.5170908323403566 F F F Nb
   0.5000000000000001    0.9999999999999999    0.5472222222222222 F F F Nb
   0.1506569494093279    0.7122371232835930    0.5773536121040878 F F F Nb
   0.3493430505906721    0.2877628767164070    0.5670908323403566 F F F Nb
   0.3679918748176122    0.9847711136412440    0.5708205971857446 F F F Te
   0.1320081251823879    0.0152288863587559    0.5736238472586997 F F F Te
   0.5913447847162348    0.6149797720192109    0.5654911791654691 F F F Te
   0.9086552152837652    0.3850202279807889    0.5789532652789753 F F F Te
   0.7009843779865470    0.3037683250259988    0.5374190978195316 F F F Te
   0.7990156220134530    0.6962316749740012    0.5070253466249128 F F F Te
   0.8679918748176121    0.9847711136412441    0.5208205971857446 F F F Te
   0.6320081251823878    0.0152288863587560    0.5236238472586997 F F F Te
   0.0913447847162346    0.6149797720192111    0.5154911791654690 F F F Te
   0.4086552152837654    0.3850202279807889    0.5289532652789752 F F F Te
   0.2009843779865469    0.3037683250259988    0.5874190978195315 F F F Te
   0.2990156220134529    0.6962316749740012    0.5570253466249128 F F F Te
   0.0000000000000000    0.0000000000000000    0.6972222222222222 T T T Nb
   0.6506569494093278    0.7122371232835929    0.6273536121040877 T T T Nb
   0.8493430505906723    0.2877628767164070    0.6170908323403566 T T T Nb
   0.5000000000000001    0.9999999999999999    0.6472222222222221 T T T Nb
   0.1506569494093279    0.7122371232835930    0.6773536121040877 T T T Nb
   0.3493430505906721    0.2877628767164070    0.6670908323403566 T T T Nb
   0.3679918748176122    0.9847711136412440    0.6708205971857446 T T T Te
   0.1320081251823879    0.0152288863587559    0.6736238472586997 T T T Te
   0.5913447847162348    0.6149797720192109    0.6654911791654691 T T T Te
   0.9086552152837652    0.3850202279807889    0.6789532652789751 T T T Te
   0.7009843779865470    0.3037683250259988    0.6374190978195315 T T T Te
   0.7990156220134530    0.6962316749740012    0.6070253466249127 T T T Te
   0.8679918748176121    0.9847711136412441    0.6208205971857446 T T T Te
   0.6320081251823878    0.0152288863587560    0.6236238472586997 T T T Te
   0.0913447847162346    0.6149797720192111    0.6154911791654691 T T T Te
   0.4086552152837654    0.3850202279807889    0.6289532652789752 T T T Te
   0.2009843779865469    0.3037683250259988    0.6874190978195316 T T T Te
   0.2990156220134529    0.6962316749740012    0.6570253466249127 T T T Te
