Hf96 Ga144
1.0
  18.9115969140122928    0.0000000000000000   -5.4984763203500462
  -0.0000000000000008   13.6804322150799411   -5.4984763203500489
   0.0000000000000000    0.0000000000000000   38.4893342424503331
Hf Ga Hf Ga Hf Ga
32 48 32 48 32 48
Selective dynamics
direct
   0.3415389157126887    0.0522992720517745    0.3980306082006518 F F F Hf
   0.8415389157126887    0.0522992720517746    0.3266020367720804 T T T Hf
   0.1584610842873113    0.4477007279482255    0.3569339831250909 T T T Hf
   0.6584610842873113    0.4477007279482255    0.4283625545536623 F F F Hf
   0.2834610842873113    0.3022992720517745    0.3183052037113122 T T T Hf
   0.7834610842873112    0.3022992720517746    0.3897337751398836 F F F Hf
   0.4665389157126887    0.1977007279482255    0.3295165304715734 T T T Hf
   0.9665389157126888    0.1977007279482256    0.4009451019001449 F F F Hf
   0.3415389157126887    0.5522992720517745    0.3980306082006518 F F F Hf
   0.8415389157126887    0.5522992720517746    0.3266020367720804 T T T Hf
   0.1584610842873113    0.9477007279482255    0.3569339831250909 T T T Hf
   0.6584610842873113    0.9477007279482255    0.4283625545536623 F F F Hf
   0.2834610842873113    0.8022992720517745    0.3183052037113122 T T T Hf
   0.7834610842873112    0.8022992720517745    0.3897337751398836 F F F Hf
   0.4665389157126887    0.6977007279482256    0.3295165304715734 T T T Hf
   0.9665389157126888    0.6977007279482255    0.4009451019001448 F F F Hf
   0.0915389157126887    0.0522992720517745    0.2908877510577947 T T T Hf
   0.5915389157126887    0.0522992720517745    0.3623163224863661 T T T Hf
   0.4084610842873113    0.4477007279482255    0.3212196974108052 T T T Hf
   0.9084610842873113    0.4477007279482255    0.3926482688393766 F F F Hf
   0.0334610842873113    0.3022992720517745    0.3540194894255979 T T T Hf
   0.5334610842873113    0.3022992720517746    0.4254480608541694 F F F Hf
   0.2165389157126887    0.1977007279482255    0.3652308161858591 T T T Hf
   0.7165389157126887    0.1977007279482255    0.2938022447572877 T T T Hf
   0.0915389157126887    0.5522992720517746    0.2908877510577947 T T T Hf
   0.5915389157126887    0.5522992720517746    0.3623163224863661 T T T Hf
   0.4084610842873113    0.9477007279482255    0.3212196974108052 T T T Hf
   0.9084610842873113    0.9477007279482255    0.3926482688393766 F F F Hf
   0.0334610842873113    0.8022992720517745    0.3540194894255979 T T T Hf
   0.5334610842873113    0.8022992720517745    0.4254480608541694 F F F Hf
   0.2165389157126887    0.6977007279482256    0.3652308161858592 T T T Hf
   0.7165389157126887    0.6977007279482256    0.2938022447572877 T T T Hf
   0.0000000000000000    0.0000000000000000    0.3594420565439218 T T T Ga
   0.5000000000000000    0.0000000000000001    0.2880134851153504 T T T Ga
   0.1250000000000000    0.2500000000000001    0.3058706279724932 T T T Ga
   0.6250000000000000    0.2500000000000001    0.3772991994010647 F F F Ga
   0.0904281313587498    0.1357004903782606    0.3724221934561692 T T T Ga
   0.5904281313587498    0.1357004903782606    0.3009936220275978 T T T Ga
   0.4095718686412502    0.3642995096217395    0.3792425872455948 F F F Ga
   0.9095718686412502    0.3642995096217396    0.3078140158170233 T T T Ga
   0.0345718686412502    0.3857004903782605    0.2930141559250978 T T T Ga
   0.5345718686412502    0.3857004903782606    0.3644427273536692 T T T Ga
   0.4654281313587499    0.1142995096217395    0.3872220533480948 F F F Ga
   0.9654281313587499    0.1142995096217395    0.3157934819195234 T T T Ga
   0.0000000000000000    0.5000000000000000    0.3594420565439218 T T T Ga
   0.5000000000000000    0.5000000000000001    0.2880134851153504 T T T Ga
   0.1250000000000000    0.7500000000000001    0.3058706279724932 T T T Ga
   0.6250000000000000    0.7500000000000000    0.3772991994010647 F F F Ga
   0.0904281313587498    0.6357004903782607    0.3724221934561692 T T T Ga
   0.5904281313587498    0.6357004903782607    0.3009936220275978 T T T Ga
   0.4095718686412502    0.8642995096217394    0.3792425872455948 F F F Ga
   0.9095718686412502    0.8642995096217394    0.3078140158170233 T T T Ga
   0.0345718686412502    0.8857004903782606    0.2930141559250978 T T T Ga
   0.5345718686412502    0.8857004903782606    0.3644427273536692 T T T Ga
   0.4654281313587499    0.6142995096217395    0.3872220533480948 F F F Ga
   0.9654281313587499    0.6142995096217394    0.3157934819195234 T T T Ga
   0.2500000000000000    0.0000000000000000    0.3237277708296361 T T T Ga
   0.7500000000000000    0.0000000000000000    0.3951563422582075 F F F Ga
   0.3750000000000000    0.2500000000000001    0.4130134851153504 F F F Ga
   0.8750000000000000    0.2500000000000001    0.3415849136867790 T T T Ga
   0.3404281313587499    0.1357004903782606    0.3367079077418835 T T T Ga
   0.8404281313587498    0.1357004903782606    0.4081364791704549 F F F Ga
   0.1595718686412502    0.3642995096217395    0.4149568729598805 F F F Ga
   0.6595718686412502    0.3642995096217396    0.3435283015313091 T T T Ga
   0.2845718686412502    0.3857004903782605    0.4001570130679549 F F F Ga
   0.7845718686412502    0.3857004903782606    0.3287284416393835 T T T Ga
   0.2154281313587499    0.1142995096217395    0.4229363390623805 F F F Ga
   0.7154281313587498    0.1142995096217395    0.3515077676338091 T T T Ga
   0.2500000000000000    0.5000000000000001    0.3237277708296361 T T T Ga
   0.7500000000000000    0.5000000000000001    0.3951563422582075 F F F Ga
   0.3750000000000000    0.7500000000000001    0.4130134851153504 F F F Ga
   0.8750000000000000    0.7500000000000000    0.3415849136867790 T T T Ga
   0.3404281313587499    0.6357004903782606    0.3367079077418835 T T T Ga
   0.8404281313587498    0.6357004903782606    0.4081364791704549 F F F Ga
   0.1595718686412502    0.8642995096217395    0.4149568729598806 F F F Ga
   0.6595718686412502    0.8642995096217394    0.3435283015313091 T T T Ga
   0.2845718686412502    0.8857004903782606    0.4001570130679550 F F F Ga
   0.7845718686412502    0.8857004903782606    0.3287284416393836 T T T Ga
   0.2154281313587499    0.6142995096217395    0.4229363390623805 F F F Ga
   0.7154281313587498    0.6142995096217394    0.3515077676338090 T T T Ga
   0.3415389157126887    0.0522992720517745    0.5408877510577947 F F F Hf
   0.8415389157126887    0.0522992720517746    0.4694591796292232 F F F Hf
   0.1584610842873113    0.4477007279482255    0.4997911259822337 F F F Hf
   0.6584610842873113    0.4477007279482255    0.5712196974108052 F F F Hf
   0.2834610842873113    0.3022992720517745    0.4611623465684551 F F F Hf
   0.7834610842873112    0.3022992720517746    0.5325909179970265 F F F Hf
   0.4665389157126887    0.1977007279482255    0.4723736733287163 F F F Hf
   0.9665389157126888    0.1977007279482256    0.5438022447572877 F F F Hf
   0.3415389157126887    0.5522992720517745    0.5408877510577947 F F F Hf
   0.8415389157126887    0.5522992720517746    0.4694591796292233 F F F Hf
   0.1584610842873113    0.9477007279482255    0.4997911259822337 F F F Hf
   0.6584610842873113    0.9477007279482255    0.5712196974108052 F F F Hf
   0.2834610842873113    0.8022992720517745    0.4611623465684551 F F F Hf
   0.7834610842873112    0.8022992720517745    0.5325909179970265 F F F Hf
   0.4665389157126887    0.6977007279482256    0.4723736733287163 F F F Hf
   0.9665389157126888    0.6977007279482255    0.5438022447572877 F F F Hf
   0.0915389157126887    0.0522992720517745    0.4337448939149375 F F F Hf
   0.5915389157126887    0.0522992720517745    0.5051734653435089 F F F Hf
   0.4084610842873113    0.4477007279482255    0.4640768402679480 F F F Hf
   0.9084610842873113    0.4477007279482255    0.5355054116965194 F F F Hf
   0.0334610842873113    0.3022992720517745    0.4968766322827408 F F F Hf
   0.5334610842873113    0.3022992720517746    0.5683052037113122 F F F Hf
   0.2165389157126887    0.1977007279482255    0.5080879590430020 F F F Hf
   0.7165389157126887    0.1977007279482255    0.4366593876144306 F F F Hf
   0.0915389157126887    0.5522992720517746    0.4337448939149375 F F F Hf
   0.5915389157126887    0.5522992720517746    0.5051734653435089 F F F Hf
   0.4084610842873113    0.9477007279482255    0.4640768402679480 F F F Hf
   0.9084610842873113    0.9477007279482255    0.5355054116965194 F F F Hf
   0.0334610842873113    0.8022992720517745    0.4968766322827408 F F F Hf
   0.5334610842873113    0.8022992720517745    0.5683052037113122 F F F Hf
   0.2165389157126887    0.6977007279482256    0.5080879590430020 F F F Hf
   0.7165389157126887    0.6977007279482256    0.4366593876144306 F F F Hf
   0.0000000000000000    0.0000000000000000    0.5022991994010646 F F F Ga
   0.5000000000000000    0.0000000000000001    0.4308706279724932 F F F Ga
   0.1250000000000000    0.2500000000000001    0.4487277708296361 F F F Ga
   0.6250000000000000    0.2500000000000001    0.5201563422582075 F F F Ga
   0.0904281313587498    0.1357004903782606    0.5152793363133121 F F F Ga
   0.5904281313587498    0.1357004903782606    0.4438507648847406 F F F Ga
   0.4095718686412502    0.3642995096217395    0.5220997301027377 F F F Ga
   0.9095718686412502    0.3642995096217396    0.4506711586741662 F F F Ga
   0.0345718686412502    0.3857004903782605    0.4358712987822407 F F F Ga
   0.5345718686412502    0.3857004903782606    0.5072998702108120 F F F Ga
   0.4654281313587499    0.1142995096217395    0.5300791962052376 F F F Ga
   0.9654281313587499    0.1142995096217395    0.4586506247766662 F F F Ga
   0.0000000000000000    0.5000000000000000    0.5022991994010646 F F F Ga
   0.5000000000000000    0.5000000000000001    0.4308706279724932 F F F Ga
   0.1250000000000000    0.7500000000000001    0.4487277708296361 F F F Ga
   0.6250000000000000    0.7500000000000000    0.5201563422582075 F F F Ga
   0.0904281313587498    0.6357004903782607    0.5152793363133120 F F F Ga
   0.5904281313587498    0.6357004903782607    0.4438507648847407 F F F Ga
   0.4095718686412502    0.8642995096217394    0.5220997301027377 F F F Ga
   0.9095718686412502    0.8642995096217394    0.4506711586741662 F F F Ga
   0.0345718686412502    0.8857004903782606    0.4358712987822406 F F F Ga
   0.5345718686412502    0.8857004903782606    0.5072998702108120 F F F Ga
   0.4654281313587499    0.6142995096217395    0.5300791962052376 F F F Ga
   0.9654281313587499    0.6142995096217394    0.4586506247766662 F F F Ga
   0.2500000000000000    0.0000000000000000    0.4665849136867789 F F F Ga
   0.7500000000000000    0.0000000000000000    0.5380134851153504 F F F Ga
   0.3750000000000000    0.2500000000000001    0.5558706279724932 F F F Ga
   0.8750000000000000    0.2500000000000001    0.4844420565439218 F F F Ga
   0.3404281313587499    0.1357004903782606    0.4795650505990264 F F F Ga
   0.8404281313587498    0.1357004903782606    0.5509936220275977 F F F Ga
   0.1595718686412502    0.3642995096217395    0.5578140158170234 F F F Ga
   0.6595718686412502    0.3642995096217396    0.4863854443884519 F F F Ga
   0.2845718686412502    0.3857004903782605    0.5430141559250978 F F F Ga
   0.7845718686412502    0.3857004903782606    0.4715855844965264 F F F Ga
   0.2154281313587499    0.1142995096217395    0.5657934819195234 F F F Ga
   0.7154281313587498    0.1142995096217395    0.4943649104909519 F F F Ga
   0.2500000000000000    0.5000000000000001    0.4665849136867790 F F F Ga
   0.7500000000000000    0.5000000000000001    0.5380134851153504 F F F Ga
   0.3750000000000000    0.7500000000000001    0.5558706279724932 F F F Ga
   0.8750000000000000    0.7500000000000000    0.4844420565439218 F F F Ga
   0.3404281313587499    0.6357004903782606    0.4795650505990264 F F F Ga
   0.8404281313587498    0.6357004903782606    0.5509936220275977 F F F Ga
   0.1595718686412502    0.8642995096217395    0.5578140158170234 F F F Ga
   0.6595718686412502    0.8642995096217394    0.4863854443884520 F F F Ga
   0.2845718686412502    0.8857004903782606    0.5430141559250978 F F F Ga
   0.7845718686412502    0.8857004903782606    0.4715855844965264 F F F Ga
   0.2154281313587499    0.6142995096217395    0.5657934819195233 F F F Ga
   0.7154281313587498    0.6142995096217394    0.4943649104909519 F F F Ga
   0.3415389157126887    0.0522992720517745    0.6837448939149375 T T T Hf
   0.8415389157126887    0.0522992720517746    0.6123163224863661 F F F Hf
   0.1584610842873113    0.4477007279482255    0.6426482688393766 T T T Hf
   0.6584610842873113    0.4477007279482255    0.7140768402679480 T T T Hf
   0.2834610842873113    0.3022992720517745    0.6040194894255979 F F F Hf
   0.7834610842873112    0.3022992720517746    0.6754480608541693 T T T Hf
   0.4665389157126887    0.1977007279482255    0.6152308161858591 F F F Hf
   0.9665389157126888    0.1977007279482256    0.6866593876144306 T T T Hf
   0.3415389157126887    0.5522992720517745    0.6837448939149375 T T T Hf
   0.8415389157126887    0.5522992720517746    0.6123163224863661 F F F Hf
   0.1584610842873113    0.9477007279482255    0.6426482688393766 T T T Hf
   0.6584610842873113    0.9477007279482255    0.7140768402679480 T T T Hf
   0.2834610842873113    0.8022992720517745    0.6040194894255979 F F F Hf
   0.7834610842873112    0.8022992720517745    0.6754480608541693 T T T Hf
   0.4665389157126887    0.6977007279482256    0.6152308161858591 F F F Hf
   0.9665389157126888    0.6977007279482255    0.6866593876144305 T T T Hf
   0.0915389157126887    0.0522992720517745    0.5766020367720803 F F F Hf
   0.5915389157126887    0.0522992720517745    0.6480306082006518 T T T Hf
   0.4084610842873113    0.4477007279482255    0.6069339831250908 F F F Hf
   0.9084610842873113    0.4477007279482255    0.6783625545536623 T T T Hf
   0.0334610842873113    0.3022992720517745    0.6397337751398836 T T T Hf
   0.5334610842873113    0.3022992720517746    0.7111623465684551 T T T Hf
   0.2165389157126887    0.1977007279482255    0.6509451019001449 T T T Hf
   0.7165389157126887    0.1977007279482255    0.5795165304715734 F F F Hf
   0.0915389157126887    0.5522992720517746    0.5766020367720803 F F F Hf
   0.5915389157126887    0.5522992720517746    0.6480306082006518 T T T Hf
   0.4084610842873113    0.9477007279482255    0.6069339831250908 F F F Hf
   0.9084610842873113    0.9477007279482255    0.6783625545536623 T T T Hf
   0.0334610842873113    0.8022992720517745    0.6397337751398836 T T T Hf
   0.5334610842873113    0.8022992720517745    0.7111623465684551 T T T Hf
   0.2165389157126887    0.6977007279482256    0.6509451019001449 T T T Hf
   0.7165389157126887    0.6977007279482256    0.5795165304715734 F F F Hf
   0.0000000000000000    0.0000000000000000    0.6451563422582075 T T T Ga
   0.5000000000000000    0.0000000000000001    0.5737277708296360 F F F Ga
   0.1250000000000000    0.2500000000000001    0.5915849136867789 F F F Ga
   0.6250000000000000    0.2500000000000001    0.6630134851153504 T T T Ga
   0.0904281313587498    0.1357004903782606    0.6581364791704549 T T T Ga
   0.5904281313587498    0.1357004903782606    0.5867079077418835 F F F Ga
   0.4095718686412502    0.3642995096217395    0.6649568729598805 T T T Ga
   0.9095718686412502    0.3642995096217396    0.5935283015313091 F F F Ga
   0.0345718686412502    0.3857004903782605    0.5787284416393835 F F F Ga
   0.5345718686412502    0.3857004903782606    0.6501570130679549 T T T Ga
   0.4654281313587499    0.1142995096217395    0.6729363390623805 T T T Ga
   0.9654281313587499    0.1142995096217395    0.6015077676338091 F F F Ga
   0.0000000000000000    0.5000000000000000    0.6451563422582075 T T T Ga
   0.5000000000000000    0.5000000000000001    0.5737277708296360 F F F Ga
   0.1250000000000000    0.7500000000000001    0.5915849136867789 F F F Ga
   0.6250000000000000    0.7500000000000000    0.6630134851153504 T T T Ga
   0.0904281313587498    0.6357004903782607    0.6581364791704549 T T T Ga
   0.5904281313587498    0.6357004903782607    0.5867079077418835 F F F Ga
   0.4095718686412502    0.8642995096217394    0.6649568729598805 T T T Ga
   0.9095718686412502    0.8642995096217394    0.5935283015313091 F F F Ga
   0.0345718686412502    0.8857004903782606    0.5787284416393835 F F F Ga
   0.5345718686412502    0.8857004903782606    0.6501570130679549 T T T Ga
   0.4654281313587499    0.6142995096217395    0.6729363390623805 T T T Ga
   0.9654281313587499    0.6142995096217394    0.6015077676338091 F F F Ga
   0.2500000000000000    0.0000000000000000    0.6094420565439218 F F F Ga
   0.7500000000000000    0.0000000000000000    0.6808706279724932 T T T Ga
   0.3750000000000000    0.2500000000000001    0.6987277708296360 T T T Ga
   0.8750000000000000    0.2500000000000001    0.6272991994010646 T T T Ga
   0.3404281313587499    0.1357004903782606    0.6224221934561692 F F F Ga
   0.8404281313587498    0.1357004903782606    0.6938507648847406 T T T Ga
   0.1595718686412502    0.3642995096217395    0.7006711586741662 T T T Ga
   0.6595718686412502    0.3642995096217396    0.6292425872455948 T T T Ga
   0.2845718686412502    0.3857004903782605    0.6858712987822406 T T T Ga
   0.7845718686412502    0.3857004903782606    0.6144427273536692 F F F Ga
   0.2154281313587499    0.1142995096217395    0.7086506247766662 T T T Ga
   0.7154281313587498    0.1142995096217395    0.6372220533480948 T T T Ga
   0.2500000000000000    0.5000000000000001    0.6094420565439218 F F F Ga
   0.7500000000000000    0.5000000000000001    0.6808706279724932 T T T Ga
   0.3750000000000000    0.7500000000000001    0.6987277708296360 T T T Ga
   0.8750000000000000    0.7500000000000000    0.6272991994010646 T T T Ga
   0.3404281313587499    0.6357004903782606    0.6224221934561692 F F F Ga
   0.8404281313587498    0.6357004903782606    0.6938507648847406 T T T Ga
   0.1595718686412502    0.8642995096217395    0.7006711586741663 T T T Ga
   0.6595718686412502    0.8642995096217394    0.6292425872455949 T T T Ga
   0.2845718686412502    0.8857004903782606    0.6858712987822406 T T T Ga
   0.7845718686412502    0.8857004903782606    0.6144427273536692 F F F Ga
   0.2154281313587499    0.6142995096217395    0.7086506247766662 T T T Ga
   0.7154281313587498    0.6142995096217394    0.6372220533480948 T T T Ga
