V36 Re12
1.0
   6.0261463327077003    0.0000000000000000    0.0000000000000004
   0.0000000000000010    6.0261463327077003   -6.0261463327076985
   0.0000000000000000    0.0000000000000000   42.1830243289539055
V Re V Re V Re
12 4 12 4 12 4
Selective dynamics
direct
   0.2500000000000001    0.7500000000000000    0.3214285714285714 T T T V
   0.2500000000000001    0.2500000000000000    0.3928571428571428 T T T V
   0.0000000000000000    0.0000000000000000    0.3928571428571428 T T T V
   0.7500000000000000    0.2500000000000000    0.3928571428571428 T T T V
   0.7500000000000000    0.7500000000000000    0.3214285714285714 T T T V
   0.5000000000000000    0.5000000000000000    0.3214285714285714 T T T V
   0.7500000000000000    0.7500000000000000    0.3928571428571428 T T T V
   0.7500000000000000    0.2500000000000000    0.3214285714285714 T T T V
   0.5000000000000000    0.0000000000000000    0.3214285714285714 T T T V
   0.2500000000000000    0.2500000000000000    0.3214285714285714 T T T V
   0.2500000000000001    0.7500000000000000    0.3928571428571428 T T T V
   0.0000000000000000    0.5000000000000000    0.3928571428571428 T T T V
   0.0000000000000000    0.0000000000000000    0.3214285714285714 T T T Re
   0.5000000000000000    0.5000000000000000    0.3928571428571428 T T T Re
   0.5000000000000000    0.0000000000000000    0.3928571428571428 T T T Re
   0.0000000000000000    0.5000000000000000    0.3214285714285714 T T T Re
   0.2500000000000001    0.7500000000000000    0.4642857142857142 F F F V
   0.2500000000000001    0.2500000000000000    0.5357142857142857 F F F V
   0.0000000000000000    0.0000000000000000    0.5357142857142857 F F F V
   0.7500000000000000    0.2500000000000000    0.5357142857142857 F F F V
   0.7500000000000000    0.7500000000000000    0.4642857142857142 F F F V
   0.5000000000000000    0.5000000000000000    0.4642857142857142 F F F V
   0.7500000000000000    0.7500000000000000    0.5357142857142857 F F F V
   0.7500000000000000    0.2500000000000000    0.4642857142857142 F F F V
   0.5000000000000000    0.0000000000000000    0.4642857142857142 F F F V
   0.2500000000000000    0.2500000000000000    0.4642857142857142 F F F V
   0.2500000000000001    0.7500000000000000    0.5357142857142857 F F F V
   0.0000000000000000    0.5000000000000000    0.5357142857142857 F F F V
   0.0000000000000000    0.0000000000000000    0.4642857142857142 F F F Re
   0.5000000000000000    0.5000000000000000    0.5357142857142857 F F F Re
   0.5000000000000000    0.0000000000000000    0.5357142857142857 F F F Re
   0.0000000000000000    0.5000000000000000    0.4642857142857142 F F F Re
   0.2500000000000001    0.7500000000000000    0.6071428571428571 T T T V
   0.2500000000000001    0.2500000000000000    0.6785714285714286 T T T V
   0.0000000000000000    0.0000000000000000    0.6785714285714286 T T T V
   0.7500000000000000    0.2500000000000000    0.6785714285714286 T T T V
   0.7500000000000000    0.7500000000000000    0.6071428571428571 T T T V
   0.5000000000000000    0.5000000000000000    0.6071428571428571 T T T V
   0.7500000000000000    0.7500000000000000    0.6785714285714286 T T T V
   0.7500000000000000    0.2500000000000000    0.6071428571428571 T T T V
   0.5000000000000000    0.0000000000000000    0.6071428571428571 T T T V
   0.2500000000000000    0.2500000000000000    0.6071428571428571 T T T V
   0.2500000000000001    0.7500000000000000    0.6785714285714286 T T T V
   0.0000000000000000    0.5000000000000000    0.6785714285714286 T T T V
   0.0000000000000000    0.0000000000000000    0.6071428571428571 T T T Re
   0.5000000000000000    0.5000000000000000    0.6785714285714286 T T T Re
   0.5000000000000000    0.0000000000000000    0.6785714285714286 T T T Re
   0.0000000000000000    0.5000000000000000    0.6071428571428571 T T T Re
