Ag30 Pt120
1.0
   2.4218649624765050    0.0000000000000000   -1.3982643880267338
  -0.0000000000000043   70.4824150637459894    2.7965287760534832
   0.0000000000000000    0.0000000000000000   33.5583453126415918
Ag Pt Ag Pt Ag Pt Ag Pt Ag Pt
6 24 6 24 6 24 6 24 6 24
Selective dynamics
direct
   0.0000000000000000    0.0000000000000000    0.3541666666666666 T T T Ag
   0.0000000000000000    0.5000000000000000    0.3124999999999999 T T T Ag
   0.3333333333333334    0.1666666666666666    0.3124999999999999 T T T Ag
   0.3333333333333334    0.6666666666666666    0.3541666666666666 T T T Ag
   0.6666666666666666    0.3333333333333333    0.3541666666666666 T T T Ag
   0.6666666666666666    0.8333333333333334    0.3124999999999999 T T T Ag
   0.6666666666666666    0.0339960530047646    0.2957781066940474 T T T Pt
   0.6666666666666666    0.5339960530047646    0.3374447733607140 T T T Pt
   0.3333333333333334    0.0669564481237862    0.3208091848785734 T T T Pt
   0.3333333333333334    0.5669564481237862    0.3624758515452400 T T T Pt
   0.0000000000000000    0.0997102185428804    0.3458574817880933 T T T Pt
   0.0000000000000000    0.5997102185428803    0.3041908151214266 T T T Pt
   0.6666666666666667    0.1326706136619021    0.3708885599726192 T T T Pt
   0.6666666666666667    0.6326706136619021    0.3292218933059525 T T T Pt
   0.0000000000000000    0.2006627196714312    0.3374447733607140 T T T Pt
   0.0000000000000000    0.7006627196714312    0.2957781066940474 T T T Pt
   0.6666666666666666    0.2336231147904529    0.3624758515452400 T T T Pt
   0.6666666666666667    0.7336231147904529    0.3208091848785734 T T T Pt
   0.3333333333333334    0.2663768852095471    0.3041908151214266 T T T Pt
   0.3333333333333334    0.7663768852095471    0.3458574817880933 T T T Pt
   0.0000000000000000    0.2993372803285688    0.3292218933059526 T T T Pt
   0.0000000000000000    0.7993372803285688    0.3708885599726192 T T T Pt
   0.3333333333333333    0.3673293863380979    0.2957781066940474 T T T Pt
   0.3333333333333333    0.8673293863380979    0.3374447733607140 T T T Pt
   0.0000000000000000    0.4002897814571196    0.3208091848785734 T T T Pt
   0.0000000000000000    0.9002897814571196    0.3624758515452400 T T T Pt
   0.6666666666666666    0.4330435518762137    0.3458574817880933 T T T Pt
   0.6666666666666666    0.9330435518762136    0.3041908151214266 T T T Pt
   0.3333333333333335    0.4660039469952354    0.3708885599726192 T T T Pt
   0.3333333333333335    0.9660039469952353    0.3292218933059526 T T T Pt
   0.0000000000000000    0.0000000000000000    0.4374999999999999 F F F Ag
   0.0000000000000000    0.5000000000000000    0.3958333333333333 T T T Ag
   0.3333333333333334    0.1666666666666666    0.3958333333333333 T T T Ag
   0.3333333333333334    0.6666666666666666    0.4374999999999999 F F F Ag
   0.6666666666666666    0.3333333333333333    0.4374999999999999 F F F Ag
   0.6666666666666666    0.8333333333333334    0.3958333333333333 T T T Ag
   0.6666666666666666    0.0339960530047646    0.3791114400273807 T T T Pt
   0.6666666666666666    0.5339960530047646    0.4207781066940474 F F F Pt
   0.3333333333333334    0.0669564481237862    0.4041425182119067 F F F Pt
   0.3333333333333334    0.5669564481237862    0.4458091848785733 F F F Pt
   0.0000000000000000    0.0997102185428804    0.4291908151214266 F F F Pt
   0.0000000000000000    0.5997102185428803    0.3875241484547599 T T T Pt
   0.6666666666666667    0.1326706136619021    0.4542218933059525 F F F Pt
   0.6666666666666667    0.6326706136619021    0.4125552266392859 F F F Pt
   0.0000000000000000    0.2006627196714312    0.4207781066940474 F F F Pt
   0.0000000000000000    0.7006627196714312    0.3791114400273807 T T T Pt
   0.6666666666666666    0.2336231147904529    0.4458091848785734 F F F Pt
   0.6666666666666667    0.7336231147904529    0.4041425182119067 F F F Pt
   0.3333333333333334    0.2663768852095471    0.3875241484547599 T T T Pt
   0.3333333333333334    0.7663768852095471    0.4291908151214266 F F F Pt
   0.0000000000000000    0.2993372803285688    0.4125552266392859 F F F Pt
   0.0000000000000000    0.7993372803285688    0.4542218933059525 F F F Pt
   0.3333333333333333    0.3673293863380979    0.3791114400273807 T T T Pt
   0.3333333333333333    0.8673293863380979    0.4207781066940474 F F F Pt
   0.0000000000000000    0.4002897814571196    0.4041425182119067 F F F Pt
   0.0000000000000000    0.9002897814571196    0.4458091848785734 F F F Pt
   0.6666666666666666    0.4330435518762137    0.4291908151214266 F F F Pt
   0.6666666666666666    0.9330435518762136    0.3875241484547599 T T T Pt
   0.3333333333333335    0.4660039469952354    0.4542218933059525 F F F Pt
   0.3333333333333335    0.9660039469952353    0.4125552266392859 F F F Pt
   0.0000000000000000    0.0000000000000000    0.5208333333333333 F F F Ag
   0.0000000000000000    0.5000000000000000    0.4791666666666666 F F F Ag
   0.3333333333333334    0.1666666666666666    0.4791666666666666 F F F Ag
   0.3333333333333334    0.6666666666666666    0.5208333333333333 F F F Ag
   0.6666666666666666    0.3333333333333333    0.5208333333333333 F F F Ag
   0.6666666666666666    0.8333333333333334    0.4791666666666666 F F F Ag
   0.6666666666666666    0.0339960530047646    0.4624447733607140 F F F Pt
   0.6666666666666666    0.5339960530047646    0.5041114400273807 F F F Pt
   0.3333333333333334    0.0669564481237862    0.4874758515452400 F F F Pt
   0.3333333333333334    0.5669564481237862    0.5291425182119066 F F F Pt
   0.0000000000000000    0.0997102185428804    0.5125241484547599 F F F Pt
   0.0000000000000000    0.5997102185428803    0.4708574817880933 F F F Pt
   0.6666666666666667    0.1326706136619021    0.5375552266392859 F F F Pt
   0.6666666666666667    0.6326706136619021    0.4958885599726192 F F F Pt
   0.0000000000000000    0.2006627196714312    0.5041114400273807 F F F Pt
   0.0000000000000000    0.7006627196714312    0.4624447733607140 F F F Pt
   0.6666666666666666    0.2336231147904529    0.5291425182119067 F F F Pt
   0.6666666666666667    0.7336231147904529    0.4874758515452400 F F F Pt
   0.3333333333333334    0.2663768852095471    0.4708574817880933 F F F Pt
   0.3333333333333334    0.7663768852095471    0.5125241484547599 F F F Pt
   0.0000000000000000    0.2993372803285688    0.4958885599726192 F F F Pt
   0.0000000000000000    0.7993372803285688    0.5375552266392859 F F F Pt
   0.3333333333333333    0.3673293863380979    0.4624447733607140 F F F Pt
   0.3333333333333333    0.8673293863380979    0.5041114400273807 F F F Pt
   0.0000000000000000    0.4002897814571196    0.4874758515452400 F F F Pt
   0.0000000000000000    0.9002897814571196    0.5291425182119067 F F F Pt
   0.6666666666666666    0.4330435518762137    0.5125241484547599 F F F Pt
   0.6666666666666666    0.9330435518762136    0.4708574817880933 F F F Pt
   0.3333333333333335    0.4660039469952354    0.5375552266392859 F F F Pt
   0.3333333333333335    0.9660039469952353    0.4958885599726192 F F F Pt
   0.0000000000000000    0.0000000000000000    0.6041666666666666 T T T Ag
   0.0000000000000000    0.5000000000000000    0.5625000000000000 F F F Ag
   0.3333333333333334    0.1666666666666666    0.5625000000000000 F F F Ag
   0.3333333333333334    0.6666666666666666    0.6041666666666666 T T T Ag
   0.6666666666666666    0.3333333333333333    0.6041666666666666 T T T Ag
   0.6666666666666666    0.8333333333333334    0.5625000000000000 F F F Ag
   0.6666666666666666    0.0339960530047646    0.5457781066940474 F F F Pt
   0.6666666666666666    0.5339960530047646    0.5874447733607140 F F F Pt
   0.3333333333333334    0.0669564481237862    0.5708091848785734 F F F Pt
   0.3333333333333334    0.5669564481237862    0.6124758515452400 T T T Pt
   0.0000000000000000    0.0997102185428804    0.5958574817880933 F F F Pt
   0.0000000000000000    0.5997102185428803    0.5541908151214265 F F F Pt
   0.6666666666666667    0.1326706136619021    0.6208885599726193 T T T Pt
   0.6666666666666667    0.6326706136619021    0.5792218933059525 F F F Pt
   0.0000000000000000    0.2006627196714312    0.5874447733607140 F F F Pt
   0.0000000000000000    0.7006627196714312    0.5457781066940474 F F F Pt
   0.6666666666666666    0.2336231147904529    0.6124758515452400 T T T Pt
   0.6666666666666667    0.7336231147904529    0.5708091848785734 F F F Pt
   0.3333333333333334    0.2663768852095471    0.5541908151214265 F F F Pt
   0.3333333333333334    0.7663768852095471    0.5958574817880933 F F F Pt
   0.0000000000000000    0.2993372803285688    0.5792218933059525 F F F Pt
   0.0000000000000000    0.7993372803285688    0.6208885599726193 T T T Pt
   0.3333333333333333    0.3673293863380979    0.5457781066940474 F F F Pt
   0.3333333333333333    0.8673293863380979    0.5874447733607140 F F F Pt
   0.0000000000000000    0.4002897814571196    0.5708091848785734 F F F Pt
   0.0000000000000000    0.9002897814571196    0.6124758515452400 T T T Pt
   0.6666666666666666    0.4330435518762137    0.5958574817880933 F F F Pt
   0.6666666666666666    0.9330435518762136    0.5541908151214265 F F F Pt
   0.3333333333333335    0.4660039469952354    0.6208885599726193 T T T Pt
   0.3333333333333335    0.9660039469952353    0.5792218933059525 F F F Pt
   0.0000000000000000    0.0000000000000000    0.6875000000000000 T T T Ag
   0.0000000000000000    0.5000000000000000    0.6458333333333333 T T T Ag
   0.3333333333333334    0.1666666666666666    0.6458333333333333 T T T Ag
   0.3333333333333334    0.6666666666666666    0.6875000000000000 T T T Ag
   0.6666666666666666    0.3333333333333333    0.6875000000000000 T T T Ag
   0.6666666666666666    0.8333333333333334    0.6458333333333333 T T T Ag
   0.6666666666666666    0.0339960530047646    0.6291114400273807 T T T Pt
   0.6666666666666666    0.5339960530047646    0.6707781066940474 T T T Pt
   0.3333333333333334    0.0669564481237862    0.6541425182119066 T T T Pt
   0.3333333333333334    0.5669564481237862    0.6958091848785732 T T T Pt
   0.0000000000000000    0.0997102185428804    0.6791908151214265 T T T Pt
   0.0000000000000000    0.5997102185428803    0.6375241484547599 T T T Pt
   0.6666666666666667    0.1326706136619021    0.7042218933059525 T T T Pt
   0.6666666666666667    0.6326706136619021    0.6625552266392859 T T T Pt
   0.0000000000000000    0.2006627196714312    0.6707781066940474 T T T Pt
   0.0000000000000000    0.7006627196714312    0.6291114400273807 T T T Pt
   0.6666666666666666    0.2336231147904529    0.6958091848785732 T T T Pt
   0.6666666666666667    0.7336231147904529    0.6541425182119066 T T T Pt
   0.3333333333333334    0.2663768852095471    0.6375241484547599 T T T Pt
   0.3333333333333334    0.7663768852095471    0.6791908151214265 T T T Pt
   0.0000000000000000    0.2993372803285688    0.6625552266392859 T T T Pt
   0.0000000000000000    0.7993372803285688    0.7042218933059525 T T T Pt
   0.3333333333333333    0.3673293863380979    0.6291114400273807 T T T Pt
   0.3333333333333333    0.8673293863380979    0.6707781066940474 T T T Pt
   0.0000000000000000    0.4002897814571196    0.6541425182119067 T T T Pt
   0.0000000000000000    0.9002897814571196    0.6958091848785732 T T T Pt
   0.6666666666666666    0.4330435518762137    0.6791908151214265 T T T Pt
   0.6666666666666666    0.9330435518762136    0.6375241484547599 T T T Pt
   0.3333333333333335    0.4660039469952354    0.7042218933059525 T T T Pt
   0.3333333333333335    0.9660039469952353    0.6625552266392859 T T T Pt
