Be240 Au48
1.0
  12.2259557312326521    0.0000000000000000   -6.1129778656163261
  -0.0000000000000035   12.2259557312326539   -6.1129778656163269
   0.0000000000000000    0.0000000000000000   42.7908450593142859
Be Au Be Au Be Au
80 16 80 16 80 16
Selective dynamics
direct
   0.9376491534365491    0.8123508465634509    0.3631378533628235 T T T Be
   0.4376491534365491    0.3123508465634510    0.3631378533628236 T T T Be
   0.4376491534365491    0.8123508465634509    0.2917092819342521 T T T Be
   0.9376491534365491    0.3123508465634510    0.2917092819342521 T T T Be
   0.8750000000000001    0.8750000000000001    0.4166666666666666 F F F Be
   0.3750000000000001    0.3750000000000001    0.4166666666666666 F F F Be
   0.3750000000000001    0.8750000000000001    0.3452380952380952 T T T Be
   0.8750000000000001    0.3750000000000001    0.3452380952380952 T T T Be
   0.5623508465634509    0.8123508465634508    0.3451528647029243 T T T Be
   0.0623508465634509    0.3123508465634509    0.3451528647029243 T T T Be
   0.0623508465634509    0.8123508465634509    0.4165814361314957 F F F Be
   0.5623508465634509    0.3123508465634509    0.4165814361314957 F F F Be
   0.9376491534365491    0.9376491534365492    0.3452380952380952 T T T Be
   0.4376491534365491    0.4376491534365493    0.3452380952380952 T T T Be
   0.4376491534365491    0.9376491534365493    0.4166666666666667 F F F Be
   0.9376491534365491    0.4376491534365493    0.4166666666666666 F F F Be
   0.5623508465634509    0.9376491534365492    0.3988521390771093 F F F Be
   0.0623508465634509    0.4376491534365493    0.3988521390771093 F F F Be
   0.0623508465634509    0.9376491534365493    0.3274235676485378 T T T Be
   0.5623508465634509    0.4376491534365493    0.3274235676485378 T T T Be
   0.6876491534365493    0.5623508465634508    0.2917092819342521 T T T Be
   0.1876491534365492    0.0623508465634509    0.2917092819342521 T T T Be
   0.1876491534365492    0.5623508465634509    0.3631378533628235 T T T Be
   0.6876491534365493    0.0623508465634509    0.3631378533628235 T T T Be
   0.6250000000000000    0.6250000000000000    0.3452380952380952 T T T Be
   0.1250000000000000    0.1250000000000000    0.3452380952380952 T T T Be
   0.1250000000000000    0.6250000000000000    0.4166666666666666 F F F Be
   0.6250000000000000    0.1250000000000001    0.4166666666666666 F F F Be
   0.8123508465634509    0.5623508465634508    0.3451528647029242 T T T Be
   0.3123508465634509    0.0623508465634508    0.3451528647029243 T T T Be
   0.3123508465634509    0.5623508465634508    0.4165814361314957 F F F Be
   0.8123508465634509    0.0623508465634509    0.4165814361314957 F F F Be
   0.6876491534365493    0.6876491534365492    0.4166666666666666 F F F Be
   0.1876491534365492    0.1876491534365493    0.4166666666666666 F F F Be
   0.1876491534365492    0.6876491534365493    0.3452380952380952 T T T Be
   0.6876491534365493    0.1876491534365493    0.3452380952380952 T T T Be
   0.8123508465634509    0.6876491534365492    0.3988521390771093 F F F Be
   0.3123508465634509    0.1876491534365493    0.3988521390771093 F F F Be
   0.3123508465634509    0.6876491534365493    0.3274235676485378 T T T Be
   0.8123508465634509    0.1876491534365493    0.3274235676485378 T T T Be
   0.9376491534365491    0.5623508465634508    0.3988521390771093 F F F Be
   0.4376491534365491    0.0623508465634509    0.3988521390771093 F F F Be
   0.4376491534365491    0.5623508465634509    0.3274235676485378 T T T Be
   0.9376491534365491    0.0623508465634509    0.3274235676485378 T T T Be
   0.8750000000000001    0.6250000000000001    0.3095238095238095 T T T Be
   0.3750000000000001    0.1250000000000001    0.3095238095238095 T T T Be
   0.3750000000000001    0.6250000000000001    0.3809523809523809 F F F Be
   0.8750000000000001    0.1250000000000001    0.3809523809523809 F F F Be
   0.5623508465634509    0.5623508465634508    0.3808671504172100 F F F Be
   0.0623508465634509    0.0623508465634509    0.3808671504172100 F F F Be
   0.0623508465634509    0.5623508465634509    0.3094385789886385 T T T Be
   0.5623508465634509    0.0623508465634509    0.3094385789886385 T T T Be
   0.9376491534365491    0.6876491534365492    0.3809523809523809 F F F Be
   0.4376491534365491    0.1876491534365492    0.3809523809523809 F F F Be
   0.4376491534365491    0.6876491534365493    0.3095238095238095 T T T Be
   0.9376491534365491    0.1876491534365493    0.3095238095238095 T T T Be
   0.5623508465634509    0.6876491534365492    0.2917092819342521 T T T Be
   0.0623508465634509    0.1876491534365493    0.2917092819342521 T T T Be
   0.0623508465634509    0.6876491534365493    0.3631378533628236 T T T Be
   0.5623508465634509    0.1876491534365493    0.3631378533628236 T T T Be
   0.6876491534365493    0.8123508465634509    0.3988521390771093 F F F Be
   0.1876491534365492    0.3123508465634509    0.3988521390771093 F F F Be
   0.1876491534365492    0.8123508465634509    0.3274235676485378 T T T Be
   0.6876491534365493    0.3123508465634510    0.3274235676485379 T T T Be
   0.6250000000000000    0.8750000000000001    0.3095238095238095 T T T Be
   0.1250000000000000    0.3750000000000001    0.3095238095238095 T T T Be
   0.1250000000000000    0.8750000000000002    0.3809523809523809 F F F Be
   0.6250000000000000    0.3750000000000001    0.3809523809523809 F F F Be
   0.8123508465634509    0.8123508465634509    0.3094385789886385 T T T Be
   0.3123508465634509    0.3123508465634510    0.3094385789886385 T T T Be
   0.3123508465634509    0.8123508465634509    0.3808671504172100 F F F Be
   0.8123508465634509    0.3123508465634510    0.3808671504172100 F F F Be
   0.6876491534365493    0.9376491534365492    0.3809523809523809 F F F Be
   0.1876491534365492    0.4376491534365492    0.3809523809523809 F F F Be
   0.1876491534365492    0.9376491534365492    0.3095238095238095 T T T Be
   0.6876491534365493    0.4376491534365492    0.3095238095238095 T T T Be
   0.8123508465634509    0.9376491534365492    0.3631378533628236 T T T Be
   0.3123508465634509    0.4376491534365493    0.3631378533628236 T T T Be
   0.3123508465634509    0.9376491534365493    0.2917092819342521 T T T Be
   0.8123508465634509    0.4376491534365493    0.2917092819342521 T T T Be
   0.5000000000000000    0.4999999999999999    0.4166666666666666 F F F Au
   0.0000000000000000    0.0000000000000000    0.4166666666666666 F F F Au
   0.0000000000000000    0.5000000000000000    0.3452380952380952 T T T Au
   0.5000000000000000    0.0000000000000000    0.3452380952380952 T T T Au
   0.7500000000000001    0.7500000000000000    0.3452380952380952 T T T Au
   0.2500000000000000    0.2500000000000000    0.3452380952380952 T T T Au
   0.2500000000000000    0.7500000000000001    0.4166666666666666 F F F Au
   0.7500000000000001    0.2500000000000001    0.4166666666666666 F F F Au
   0.5000000000000000    0.7500000000000000    0.3809523809523809 F F F Au
   0.0000000000000000    0.2500000000000001    0.3809523809523809 F F F Au
   0.0000000000000000    0.7500000000000001    0.3095238095238095 T T T Au
   0.5000000000000000    0.2500000000000001    0.3095238095238095 T T T Au
   0.7500000000000001    0.5000000000000000    0.3809523809523809 F F F Au
   0.2500000000000000    0.0000000000000001    0.3809523809523809 F F F Au
   0.2500000000000000    0.5000000000000001    0.3095238095238095 T T T Au
   0.7500000000000001    0.0000000000000001    0.3095238095238095 T T T Au
   0.9376491534365491    0.8123508465634509    0.5059949962199664 F F F Be
   0.4376491534365491    0.3123508465634510    0.5059949962199664 F F F Be
   0.4376491534365491    0.8123508465634509    0.4345664247913950 F F F Be
   0.9376491534365491    0.3123508465634510    0.4345664247913950 F F F Be
   0.8750000000000001    0.8750000000000001    0.5595238095238095 F F F Be
   0.3750000000000001    0.3750000000000001    0.5595238095238095 F F F Be
   0.3750000000000001    0.8750000000000001    0.4880952380952381 F F F Be
   0.8750000000000001    0.3750000000000001    0.4880952380952381 F F F Be
   0.5623508465634509    0.8123508465634508    0.4880100075600671 F F F Be
   0.0623508465634509    0.3123508465634509    0.4880100075600671 F F F Be
   0.0623508465634509    0.8123508465634509    0.5594385789886386 F F F Be
   0.5623508465634509    0.3123508465634509    0.5594385789886386 F F F Be
   0.9376491534365491    0.9376491534365492    0.4880952380952380 F F F Be
   0.4376491534365491    0.4376491534365493    0.4880952380952381 F F F Be
   0.4376491534365491    0.9376491534365493    0.5595238095238095 F F F Be
   0.9376491534365491    0.4376491534365493    0.5595238095238095 F F F Be
   0.5623508465634509    0.9376491534365492    0.5417092819342522 F F F Be
   0.0623508465634509    0.4376491534365493    0.5417092819342522 F F F Be
   0.0623508465634509    0.9376491534365493    0.4702807105056807 F F F Be
   0.5623508465634509    0.4376491534365493    0.4702807105056807 F F F Be
   0.6876491534365493    0.5623508465634508    0.4345664247913950 F F F Be
   0.1876491534365492    0.0623508465634509    0.4345664247913950 F F F Be
   0.1876491534365492    0.5623508465634509    0.5059949962199664 F F F Be
   0.6876491534365493    0.0623508465634509    0.5059949962199664 F F F Be
   0.6250000000000000    0.6250000000000000    0.4880952380952380 F F F Be
   0.1250000000000000    0.1250000000000000    0.4880952380952380 F F F Be
   0.1250000000000000    0.6250000000000000    0.5595238095238095 F F F Be
   0.6250000000000000    0.1250000000000001    0.5595238095238095 F F F Be
   0.8123508465634509    0.5623508465634508    0.4880100075600671 F F F Be
   0.3123508465634509    0.0623508465634508    0.4880100075600671 F F F Be
   0.3123508465634509    0.5623508465634508    0.5594385789886386 F F F Be
   0.8123508465634509    0.0623508465634509    0.5594385789886386 F F F Be
   0.6876491534365493    0.6876491534365492    0.5595238095238095 F F F Be
   0.1876491534365492    0.1876491534365493    0.5595238095238095 F F F Be
   0.1876491534365492    0.6876491534365493    0.4880952380952381 F F F Be
   0.6876491534365493    0.1876491534365493    0.4880952380952381 F F F Be
   0.8123508465634509    0.6876491534365492    0.5417092819342522 F F F Be
   0.3123508465634509    0.1876491534365493    0.5417092819342522 F F F Be
   0.3123508465634509    0.6876491534365493    0.4702807105056807 F F F Be
   0.8123508465634509    0.1876491534365493    0.4702807105056807 F F F Be
   0.9376491534365491    0.5623508465634508    0.5417092819342521 F F F Be
   0.4376491534365491    0.0623508465634509    0.5417092819342522 F F F Be
   0.4376491534365491    0.5623508465634509    0.4702807105056807 F F F Be
   0.9376491534365491    0.0623508465634509    0.4702807105056807 F F F Be
   0.8750000000000001    0.6250000000000001    0.4523809523809523 F F F Be
   0.3750000000000001    0.1250000000000001    0.4523809523809523 F F F Be
   0.3750000000000001    0.6250000000000001    0.5238095238095237 F F F Be
   0.8750000000000001    0.1250000000000001    0.5238095238095237 F F F Be
   0.5623508465634509    0.5623508465634508    0.5237242932743529 F F F Be
   0.0623508465634509    0.0623508465634509    0.5237242932743529 F F F Be
   0.0623508465634509    0.5623508465634509    0.4522957218457814 F F F Be
   0.5623508465634509    0.0623508465634509    0.4522957218457814 F F F Be
   0.9376491534365491    0.6876491534365492    0.5238095238095237 F F F Be
   0.4376491534365491    0.1876491534365492    0.5238095238095237 F F F Be
   0.4376491534365491    0.6876491534365493    0.4523809523809523 F F F Be
   0.9376491534365491    0.1876491534365493    0.4523809523809523 F F F Be
   0.5623508465634509    0.6876491534365492    0.4345664247913950 F F F Be
   0.0623508465634509    0.1876491534365493    0.4345664247913950 F F F Be
   0.0623508465634509    0.6876491534365493    0.5059949962199664 F F F Be
   0.5623508465634509    0.1876491534365493    0.5059949962199664 F F F Be
   0.6876491534365493    0.8123508465634509    0.5417092819342522 F F F Be
   0.1876491534365492    0.3123508465634509    0.5417092819342522 F F F Be
   0.1876491534365492    0.8123508465634509    0.4702807105056807 F F F Be
   0.6876491534365493    0.3123508465634510    0.4702807105056807 F F F Be
   0.6250000000000000    0.8750000000000001    0.4523809523809523 F F F Be
   0.1250000000000000    0.3750000000000001    0.4523809523809523 F F F Be
   0.1250000000000000    0.8750000000000002    0.5238095238095237 F F F Be
   0.6250000000000000    0.3750000000000001    0.5238095238095237 F F F Be
   0.8123508465634509    0.8123508465634509    0.4522957218457814 F F F Be
   0.3123508465634509    0.3123508465634510    0.4522957218457814 F F F Be
   0.3123508465634509    0.8123508465634509    0.5237242932743529 F F F Be
   0.8123508465634509    0.3123508465634510    0.5237242932743529 F F F Be
   0.6876491534365493    0.9376491534365492    0.5238095238095237 F F F Be
   0.1876491534365492    0.4376491534365492    0.5238095238095237 F F F Be
   0.1876491534365492    0.9376491534365492    0.4523809523809523 F F F Be
   0.6876491534365493    0.4376491534365492    0.4523809523809523 F F F Be
   0.8123508465634509    0.9376491534365492    0.5059949962199664 F F F Be
   0.3123508465634509    0.4376491534365493    0.5059949962199664 F F F Be
   0.3123508465634509    0.9376491534365493    0.4345664247913950 F F F Be
   0.8123508465634509    0.4376491534365493    0.4345664247913950 F F F Be
   0.5000000000000000    0.4999999999999999    0.5595238095238095 F F F Au
   0.0000000000000000    0.0000000000000000    0.5595238095238095 F F F Au
   0.0000000000000000    0.5000000000000000    0.4880952380952380 F F F Au
   0.5000000000000000    0.0000000000000000    0.4880952380952380 F F F Au
   0.7500000000000001    0.7500000000000000    0.4880952380952381 F F F Au
   0.2500000000000000    0.2500000000000000    0.4880952380952380 F F F Au
   0.2500000000000000    0.7500000000000001    0.5595238095238095 F F F Au
   0.7500000000000001    0.2500000000000001    0.5595238095238095 F F F Au
   0.5000000000000000    0.7500000000000000    0.5238095238095237 F F F Au
   0.0000000000000000    0.2500000000000001    0.5238095238095237 F F F Au
   0.0000000000000000    0.7500000000000001    0.4523809523809523 F F F Au
   0.5000000000000000    0.2500000000000001    0.4523809523809523 F F F Au
   0.7500000000000001    0.5000000000000000    0.5238095238095237 F F F Au
   0.2500000000000000    0.0000000000000001    0.5238095238095237 F F F Au
   0.2500000000000000    0.5000000000000001    0.4523809523809523 F F F Au
   0.7500000000000001    0.0000000000000001    0.4523809523809523 F F F Au
   0.9376491534365491    0.8123508465634509    0.6488521390771091 T T T Be
   0.4376491534365491    0.3123508465634510    0.6488521390771093 T T T Be
   0.4376491534365491    0.8123508465634509    0.5774235676485377 F F F Be
   0.9376491534365491    0.3123508465634510    0.5774235676485377 F F F Be
   0.8750000000000001    0.8750000000000001    0.7023809523809523 T T T Be
   0.3750000000000001    0.3750000000000001    0.7023809523809523 T T T Be
   0.3750000000000001    0.8750000000000001    0.6309523809523809 T T T Be
   0.8750000000000001    0.3750000000000001    0.6309523809523809 T T T Be
   0.5623508465634509    0.8123508465634508    0.6308671504172100 T T T Be
   0.0623508465634509    0.3123508465634509    0.6308671504172100 T T T Be
   0.0623508465634509    0.8123508465634509    0.7022957218457814 T T T Be
   0.5623508465634509    0.3123508465634509    0.7022957218457814 T T T Be
   0.9376491534365491    0.9376491534365492    0.6309523809523809 T T T Be
   0.4376491534365491    0.4376491534365493    0.6309523809523809 T T T Be
   0.4376491534365491    0.9376491534365493    0.7023809523809523 T T T Be
   0.9376491534365491    0.4376491534365493    0.7023809523809523 T T T Be
   0.5623508465634509    0.9376491534365492    0.6845664247913950 T T T Be
   0.0623508465634509    0.4376491534365493    0.6845664247913950 T T T Be
   0.0623508465634509    0.9376491534365493    0.6131378533628236 F F F Be
   0.5623508465634509    0.4376491534365493    0.6131378533628236 F F F Be
   0.6876491534365493    0.5623508465634508    0.5774235676485377 F F F Be
   0.1876491534365492    0.0623508465634509    0.5774235676485377 F F F Be
   0.1876491534365492    0.5623508465634509    0.6488521390771091 T T T Be
   0.6876491534365493    0.0623508465634509    0.6488521390771091 T T T Be
   0.6250000000000000    0.6250000000000000    0.6309523809523809 T T T Be
   0.1250000000000000    0.1250000000000000    0.6309523809523809 T T T Be
   0.1250000000000000    0.6250000000000000    0.7023809523809523 T T T Be
   0.6250000000000000    0.1250000000000001    0.7023809523809523 T T T Be
   0.8123508465634509    0.5623508465634508    0.6308671504172099 T T T Be
   0.3123508465634509    0.0623508465634508    0.6308671504172100 T T T Be
   0.3123508465634509    0.5623508465634508    0.7022957218457814 T T T Be
   0.8123508465634509    0.0623508465634509    0.7022957218457814 T T T Be
   0.6876491534365493    0.6876491534365492    0.7023809523809523 T T T Be
   0.1876491534365492    0.1876491534365493    0.7023809523809523 T T T Be
   0.1876491534365492    0.6876491534365493    0.6309523809523809 T T T Be
   0.6876491534365493    0.1876491534365493    0.6309523809523809 T T T Be
   0.8123508465634509    0.6876491534365492    0.6845664247913950 T T T Be
   0.3123508465634509    0.1876491534365493    0.6845664247913950 T T T Be
   0.3123508465634509    0.6876491534365493    0.6131378533628236 F F F Be
   0.8123508465634509    0.1876491534365493    0.6131378533628236 F F F Be
   0.9376491534365491    0.5623508465634508    0.6845664247913950 T T T Be
   0.4376491534365491    0.0623508465634509    0.6845664247913950 T T T Be
   0.4376491534365491    0.5623508465634509    0.6131378533628236 F F F Be
   0.9376491534365491    0.0623508465634509    0.6131378533628236 F F F Be
   0.8750000000000001    0.6250000000000001    0.5952380952380952 F F F Be
   0.3750000000000001    0.1250000000000001    0.5952380952380952 F F F Be
   0.3750000000000001    0.6250000000000001    0.6666666666666666 T T T Be
   0.8750000000000001    0.1250000000000001    0.6666666666666666 T T T Be
   0.5623508465634509    0.5623508465634508    0.6665814361314957 T T T Be
   0.0623508465634509    0.0623508465634509    0.6665814361314957 T T T Be
   0.0623508465634509    0.5623508465634509    0.5951528647029243 F F F Be
   0.5623508465634509    0.0623508465634509    0.5951528647029243 F F F Be
   0.9376491534365491    0.6876491534365492    0.6666666666666666 T T T Be
   0.4376491534365491    0.1876491534365492    0.6666666666666666 T T T Be
   0.4376491534365491    0.6876491534365493    0.5952380952380951 F F F Be
   0.9376491534365491    0.1876491534365493    0.5952380952380951 F F F Be
   0.5623508465634509    0.6876491534365492    0.5774235676485377 F F F Be
   0.0623508465634509    0.1876491534365493    0.5774235676485377 F F F Be
   0.0623508465634509    0.6876491534365493    0.6488521390771093 T T T Be
   0.5623508465634509    0.1876491534365493    0.6488521390771093 T T T Be
   0.6876491534365493    0.8123508465634509    0.6845664247913950 T T T Be
   0.1876491534365492    0.3123508465634509    0.6845664247913950 T T T Be
   0.1876491534365492    0.8123508465634509    0.6131378533628236 F F F Be
   0.6876491534365493    0.3123508465634510    0.6131378533628236 F F F Be
   0.6250000000000000    0.8750000000000001    0.5952380952380952 F F F Be
   0.1250000000000000    0.3750000000000001    0.5952380952380952 F F F Be
   0.1250000000000000    0.8750000000000002    0.6666666666666666 T T T Be
   0.6250000000000000    0.3750000000000001    0.6666666666666666 T T T Be
   0.8123508465634509    0.8123508465634509    0.5951528647029243 F F F Be
   0.3123508465634509    0.3123508465634510    0.5951528647029243 F F F Be
   0.3123508465634509    0.8123508465634509    0.6665814361314957 T T T Be
   0.8123508465634509    0.3123508465634510    0.6665814361314957 T T T Be
   0.6876491534365493    0.9376491534365492    0.6666666666666666 T T T Be
   0.1876491534365492    0.4376491534365492    0.6666666666666666 T T T Be
   0.1876491534365492    0.9376491534365492    0.5952380952380951 F F F Be
   0.6876491534365493    0.4376491534365492    0.5952380952380951 F F F Be
   0.8123508465634509    0.9376491534365492    0.6488521390771093 T T T Be
   0.3123508465634509    0.4376491534365493    0.6488521390771093 T T T Be
   0.3123508465634509    0.9376491534365493    0.5774235676485377 F F F Be
   0.8123508465634509    0.4376491534365493    0.5774235676485377 F F F Be
   0.5000000000000000    0.4999999999999999    0.7023809523809523 T T T Au
   0.0000000000000000    0.0000000000000000    0.7023809523809523 T T T Au
   0.0000000000000000    0.5000000000000000    0.6309523809523809 T T T Au
   0.5000000000000000    0.0000000000000000    0.6309523809523809 T T T Au
   0.7500000000000001    0.7500000000000000    0.6309523809523809 T T T Au
   0.2500000000000000    0.2500000000000000    0.6309523809523809 T T T Au
   0.2500000000000000    0.7500000000000001    0.7023809523809523 T T T Au
   0.7500000000000001    0.2500000000000001    0.7023809523809523 T T T Au
   0.5000000000000000    0.7500000000000000    0.6666666666666666 T T T Au
   0.0000000000000000    0.2500000000000001    0.6666666666666666 T T T Au
   0.0000000000000000    0.7500000000000001    0.5952380952380951 F F F Au
   0.5000000000000000    0.2500000000000001    0.5952380952380951 F F F Au
   0.7500000000000001    0.5000000000000000    0.6666666666666666 T T T Au
   0.2500000000000000    0.0000000000000001    0.6666666666666666 T T T Au
   0.2500000000000000    0.5000000000000001    0.5952380952380951 F F F Au
   0.7500000000000001    0.0000000000000001    0.5952380952380951 F F F Au
