Zr24 Rh12
1.0
   5.6511733728784455    0.0000000000000000    0.0000000000000003
   0.0000000000000010    6.5148130860040387   -6.5148130860040379
   0.0000000000000000    0.0000000000000000   45.6036916020282632
Zr Rh Zr Rh Zr Rh
8 4 8 4 8 4
Selective dynamics
direct
   0.5000000000000000    0.6658403493654603    0.3095238095238095 T T T Zr
   0.0000000000000000    0.8341596506345397    0.3095238095238095 T T T Zr
   0.5000000000000000    0.1658403493654604    0.3569067664853696 T T T Zr
   0.0000000000000000    0.3341596506345397    0.4049979954193923 F F F Zr
   0.0000000000000000    0.1658403493654604    0.3095238095238095 T T T Zr
   0.5000000000000000    0.3341596506345397    0.3095238095238095 T T T Zr
   0.0000000000000000    0.6658403493654603    0.3569067664853696 T T T Zr
   0.5000000000000000    0.8341596506345397    0.4049979954193923 F F F Zr
   0.7500000000000000    0.0000000000000000    0.3809523809523809 T T T Rh
   0.2500000000000000    0.0000000000000000    0.3809523809523809 T T T Rh
   0.2499999999999999    0.5000000000000000    0.3809523809523809 T T T Rh
   0.7500000000000000    0.5000000000000000    0.3809523809523809 T T T Rh
   0.5000000000000000    0.6658403493654603    0.4523809523809523 F F F Zr
   0.0000000000000000    0.8341596506345397    0.4523809523809523 F F F Zr
   0.5000000000000000    0.1658403493654604    0.4997639093425125 F F F Zr
   0.0000000000000000    0.3341596506345397    0.5478551382765351 F F F Zr
   0.0000000000000000    0.1658403493654604    0.4523809523809524 F F F Zr
   0.5000000000000000    0.3341596506345397    0.4523809523809523 F F F Zr
   0.0000000000000000    0.6658403493654603    0.4997639093425125 F F F Zr
   0.5000000000000000    0.8341596506345397    0.5478551382765351 F F F Zr
   0.7500000000000000    0.0000000000000000    0.5238095238095237 F F F Rh
   0.2500000000000000    0.0000000000000000    0.5238095238095237 F F F Rh
   0.2499999999999999    0.5000000000000000    0.5238095238095238 F F F Rh
   0.7500000000000000    0.5000000000000000    0.5238095238095238 F F F Rh
   0.5000000000000000    0.6658403493654603    0.5952380952380951 F F F Zr
   0.0000000000000000    0.8341596506345397    0.5952380952380952 F F F Zr
   0.5000000000000000    0.1658403493654604    0.6426210521996554 T T T Zr
   0.0000000000000000    0.3341596506345397    0.6907122811336779 T T T Zr
   0.0000000000000000    0.1658403493654604    0.5952380952380952 F F F Zr
   0.5000000000000000    0.3341596506345397    0.5952380952380952 F F F Zr
   0.0000000000000000    0.6658403493654603    0.6426210521996554 T T T Zr
   0.5000000000000000    0.8341596506345397    0.6907122811336779 T T T Zr
   0.7500000000000000    0.0000000000000000    0.6666666666666666 T T T Rh
   0.2500000000000000    0.0000000000000000    0.6666666666666666 T T T Rh
   0.2499999999999999    0.5000000000000000    0.6666666666666667 T T T Rh
   0.7500000000000000    0.5000000000000000    0.6666666666666667 T T T Rh
