Hf64 Si32
1.0
  13.1529455264715445    0.0000000000000000   -6.5764727632357722
  -0.0000000000000006   10.3711089726288144   -6.5764727632357705
   0.0000000000000000    0.0000000000000000   32.8823638161788594
Hf Si Hf Si
32 16 32 16
Selective dynamics
direct
   0.6715241083328998    0.7500000000000000    0.4156951783334200 T T T Hf
   0.1715241083328997    0.2499999999999999    0.4156951783334200 T T T Hf
   0.1715241083328997    0.7499999999999999    0.3156951783334200 T T T Hf
   0.6715241083328998    0.2499999999999999    0.3156951783334200 T T T Hf
   0.6715241083328998    0.4999999999999999    0.3029144649997398 T T T Hf
   0.1715241083328997    0.9999999999999999    0.3029144649997397 T T T Hf
   0.1715241083328997    0.4999999999999999    0.4029144649997398 T T T Hf
   0.6715241083328998    0.9999999999999999    0.4029144649997398 T T T Hf
   0.8284758916671001    0.7499999999999999    0.3843048216665799 T T T Hf
   0.3284758916671002    0.2499999999999999    0.3843048216665799 T T T Hf
   0.3284758916671002    0.7499999999999998    0.4843048216665799 F F F Hf
   0.8284758916671001    0.2499999999999998    0.4843048216665799 F F F Hf
   0.8284758916671001    0.4999999999999999    0.3970855350002601 T T T Hf
   0.3284758916671002    0.0000000000000000    0.3970855350002601 T T T Hf
   0.3284758916671002    0.4999999999999999    0.4970855350002601 F F F Hf
   0.8284758916671001    0.9999999999999999    0.4970855350002601 F F F Hf
   0.9215241083328997    0.4999999999999999    0.3156951783334200 T T T Hf
   0.4215241083328997    0.9999999999999999    0.3156951783334200 T T T Hf
   0.4215241083328997    0.4999999999999999    0.4156951783334200 T T T Hf
   0.9215241083328997    0.9999999999999999    0.4156951783334200 T T T Hf
   0.9215241083328997    0.7499999999999999    0.3029144649997398 T T T Hf
   0.4215241083328997    0.2499999999999999    0.3029144649997398 T T T Hf
   0.4215241083328997    0.7499999999999999    0.4029144649997398 T T T Hf
   0.9215241083328997    0.2499999999999999    0.4029144649997398 T T T Hf
   0.5784758916671002    0.4999999999999999    0.3843048216665799 T T T Hf
   0.0784758916671002    0.0000000000000000    0.3843048216665799 T T T Hf
   0.0784758916671002    0.4999999999999999    0.4843048216665799 F F F Hf
   0.5784758916671002    0.9999999999999999    0.4843048216665799 F F F Hf
   0.5784758916671002    0.7499999999999999    0.4970855350002601 F F F Hf
   0.0784758916671002    0.2499999999999999    0.4970855350002601 F F F Hf
   0.0784758916671002    0.7499999999999999    0.3970855350002601 T T T Hf
   0.5784758916671002    0.2499999999999999    0.3970855350002601 T T T Hf
   0.4999999999999999    0.8749999999999999    0.3749999999999999 T T T Si
   0.0000000000000000    0.3749999999999999    0.3749999999999999 T T T Si
   0.0000000000000000    0.8749999999999998    0.4749999999999999 F F F Si
   0.4999999999999999    0.3749999999999999    0.4750000000000000 F F F Si
   0.4999999999999999    0.6250000000000000    0.3250000000000000 T T T Si
   0.0000000000000000    0.1250000000000000    0.3250000000000000 T T T Si
   0.0000000000000000    0.6249999999999999    0.4249999999999999 F F F Si
   0.4999999999999999    0.1250000000000000    0.4249999999999999 F F F Si
   0.7500000000000000    0.6249999999999999    0.4750000000000000 F F F Si
   0.2500000000000000    0.1249999999999999    0.4749999999999999 F F F Si
   0.2500000000000000    0.6249999999999999    0.3749999999999999 T T T Si
   0.7500000000000000    0.1249999999999999    0.3749999999999999 T T T Si
   0.7500000000000000    0.8749999999999998    0.3250000000000000 T T T Si
   0.2500000000000000    0.3749999999999999    0.3250000000000000 T T T Si
   0.2500000000000000    0.8749999999999997    0.4249999999999999 F F F Si
   0.7500000000000000    0.3749999999999998    0.4249999999999999 F F F Si
   0.6715241083328998    0.7500000000000000    0.6156951783334200 T T T Hf
   0.1715241083328997    0.2499999999999999    0.6156951783334200 T T T Hf
   0.1715241083328997    0.7499999999999999    0.5156951783334200 F F F Hf
   0.6715241083328998    0.2499999999999999    0.5156951783334200 F F F Hf
   0.6715241083328998    0.4999999999999999    0.5029144649997398 F F F Hf
   0.1715241083328997    0.9999999999999999    0.5029144649997398 F F F Hf
   0.1715241083328997    0.4999999999999999    0.6029144649997398 T T T Hf
   0.6715241083328998    0.9999999999999999    0.6029144649997398 T T T Hf
   0.8284758916671001    0.7499999999999999    0.5843048216665799 T T T Hf
   0.3284758916671002    0.2499999999999999    0.5843048216665799 T T T Hf
   0.3284758916671002    0.7499999999999998    0.6843048216665799 T T T Hf
   0.8284758916671001    0.2499999999999998    0.6843048216665799 T T T Hf
   0.8284758916671001    0.4999999999999999    0.5970855350002601 T T T Hf
   0.3284758916671002    0.0000000000000000    0.5970855350002601 T T T Hf
   0.3284758916671002    0.4999999999999999    0.6970855350002600 T T T Hf
   0.8284758916671001    0.9999999999999999    0.6970855350002602 T T T Hf
   0.9215241083328997    0.4999999999999999    0.5156951783334200 F F F Hf
   0.4215241083328997    0.9999999999999999    0.5156951783334200 F F F Hf
   0.4215241083328997    0.4999999999999999    0.6156951783334200 T T T Hf
   0.9215241083328997    0.9999999999999999    0.6156951783334200 T T T Hf
   0.9215241083328997    0.7499999999999999    0.5029144649997398 F F F Hf
   0.4215241083328997    0.2499999999999999    0.5029144649997398 F F F Hf
   0.4215241083328997    0.7499999999999999    0.6029144649997398 T T T Hf
   0.9215241083328997    0.2499999999999999    0.6029144649997398 T T T Hf
   0.5784758916671002    0.4999999999999999    0.5843048216665799 T T T Hf
   0.0784758916671002    0.0000000000000000    0.5843048216665799 T T T Hf
   0.0784758916671002    0.4999999999999999    0.6843048216665799 T T T Hf
   0.5784758916671002    0.9999999999999999    0.6843048216665799 T T T Hf
   0.5784758916671002    0.7499999999999999    0.6970855350002600 T T T Hf
   0.0784758916671002    0.2499999999999999    0.6970855350002600 T T T Hf
   0.0784758916671002    0.7499999999999999    0.5970855350002601 T T T Hf
   0.5784758916671002    0.2499999999999999    0.5970855350002601 T T T Hf
   0.4999999999999999    0.8749999999999999    0.5750000000000000 F F F Si
   0.0000000000000000    0.3749999999999999    0.5750000000000000 F F F Si
   0.0000000000000000    0.8749999999999998    0.6749999999999999 T T T Si
   0.4999999999999999    0.3749999999999999    0.6749999999999999 T T T Si
   0.4999999999999999    0.6250000000000000    0.5249999999999999 F F F Si
   0.0000000000000000    0.1250000000000000    0.5249999999999999 F F F Si
   0.0000000000000000    0.6249999999999999    0.6250000000000000 T T T Si
   0.4999999999999999    0.1250000000000000    0.6250000000000000 T T T Si
   0.7500000000000000    0.6249999999999999    0.6750000000000000 T T T Si
   0.2500000000000000    0.1249999999999999    0.6749999999999999 T T T Si
   0.2500000000000000    0.6249999999999999    0.5750000000000000 F F F Si
   0.7500000000000000    0.1249999999999999    0.5750000000000000 F F F Si
   0.7500000000000000    0.8749999999999998    0.5249999999999999 F F F Si
   0.2500000000000000    0.3749999999999999    0.5249999999999999 F F F Si
   0.2500000000000000    0.8749999999999997    0.6249999999999999 T T T Si
   0.7500000000000000    0.3749999999999998    0.6250000000000000 T T T Si
