Sc16 Si16
1.0
   3.9979662007961720    0.0000000000000000    0.0000000000000002
  -0.0000000000000028    9.9208968002148588    7.3320140137242875
   0.0000000000000000    0.0000000000000000   36.6600700686214438
Sc Si Sc Si Sc Si Sc Si
4 4 4 4 4 4 4 4
Selective dynamics
direct
   0.4999999999999999    0.3607732348111767    0.3528453530377647 T T T Sc
   0.0000000000000000    0.1392267651888233    0.3471546469622354 T T T Sc
   0.0000000000000000    0.8607732348111768    0.3528453530377646 T T T Sc
   0.4999999999999999    0.6392267651888233    0.3471546469622354 T T T Sc
   0.4999999999999999    0.0812702677255218    0.3087459464548956 T T T Si
   0.0000000000000000    0.4187297322744782    0.3912540535451043 T T T Si
   0.0000000000000000    0.5812702677255218    0.3087459464548957 T T T Si
   0.4999999999999999    0.9187297322744783    0.3912540535451043 T T T Si
   0.4999999999999999    0.3607732348111767    0.4528453530377646 F F F Sc
   0.0000000000000000    0.1392267651888233    0.4471546469622353 F F F Sc
   0.0000000000000000    0.8607732348111768    0.4528453530377646 F F F Sc
   0.4999999999999999    0.6392267651888233    0.4471546469622353 F F F Sc
   0.4999999999999999    0.0812702677255218    0.4087459464548956 T T T Si
   0.0000000000000000    0.4187297322744782    0.4912540535451044 F F F Si
   0.0000000000000000    0.5812702677255218    0.4087459464548956 T T T Si
   0.4999999999999999    0.9187297322744783    0.4912540535451043 F F F Si
   0.4999999999999999    0.3607732348111767    0.5528453530377646 F F F Sc
   0.0000000000000000    0.1392267651888233    0.5471546469622354 F F F Sc
   0.0000000000000000    0.8607732348111768    0.5528453530377646 F F F Sc
   0.4999999999999999    0.6392267651888233    0.5471546469622354 F F F Sc
   0.4999999999999999    0.0812702677255218    0.5087459464548956 F F F Si
   0.0000000000000000    0.4187297322744782    0.5912540535451043 T T T Si
   0.0000000000000000    0.5812702677255218    0.5087459464548957 F F F Si
   0.4999999999999999    0.9187297322744783    0.5912540535451043 T T T Si
   0.4999999999999999    0.3607732348111767    0.6528453530377647 T T T Sc
   0.0000000000000000    0.1392267651888233    0.6471546469622353 T T T Sc
   0.0000000000000000    0.8607732348111768    0.6528453530377646 T T T Sc
   0.4999999999999999    0.6392267651888233    0.6471546469622353 T T T Sc
   0.4999999999999999    0.0812702677255218    0.6087459464548957 T T T Si
   0.0000000000000000    0.4187297322744782    0.6912540535451044 T T T Si
   0.0000000000000000    0.5812702677255218    0.6087459464548957 T T T Si
   0.4999999999999999    0.9187297322744783    0.6912540535451044 T T T Si
