Cr12 As24
1.0
   3.2212984117222638    0.0000000000000000    0.0000000000000002
  -0.0000000000000005    7.7286023617943433   11.8592754679264978
   0.0000000000000000    0.0000000000000000   51.9193812579873679
Cr As Cr As Cr As
4 8 4 8 4 8
Selective dynamics
direct
   0.0000000000000000    0.8466525328984673    0.3956920389933422 T T T Cr
   0.0000000000000000    0.1533474671015326    0.2947841514828484 T T T Cr
   0.5000000000000000    0.3466525328984673    0.3242634675647707 T T T Cr
   0.5000000000000000    0.6533474671015327    0.3662127229114198 T T T Cr
   0.5000000000000000    0.0963080656737744    0.3465322941013455 T T T As
   0.5000000000000000    0.9036919343262256    0.3439438963748451 T T T As
   0.5000000000000000    0.6501400966827403    0.3185120266101378 T T T As
   0.5000000000000000    0.3498599033172596    0.3719641638660527 T T T As
   0.0000000000000000    0.5963080656737744    0.4179608655299168 F F F As
   0.0000000000000000    0.4036919343262255    0.4153724678034166 F F F As
   0.0000000000000000    0.1501400966827404    0.3899405980387093 T T T As
   0.0000000000000000    0.8498599033172597    0.3005355924374813 T T T As
   0.0000000000000000    0.8466525328984673    0.5385491818504851 F F F Cr
   0.0000000000000000    0.1533474671015326    0.4376412943399913 F F F Cr
   0.5000000000000000    0.3466525328984673    0.4671206104219136 F F F Cr
   0.5000000000000000    0.6533474671015327    0.5090698657685626 F F F Cr
   0.5000000000000000    0.0963080656737744    0.4893894369584883 F F F As
   0.5000000000000000    0.9036919343262256    0.4868010392319880 F F F As
   0.5000000000000000    0.6501400966827403    0.4613691694672807 F F F As
   0.5000000000000000    0.3498599033172596    0.5148213067231956 F F F As
   0.0000000000000000    0.5963080656737744    0.5608180083870596 F F F As
   0.0000000000000000    0.4036919343262255    0.5582296106605594 F F F As
   0.0000000000000000    0.1501400966827404    0.5327977408958522 F F F As
   0.0000000000000000    0.8498599033172597    0.4433927352946241 F F F As
   0.0000000000000000    0.8466525328984673    0.6814063247076279 T T T Cr
   0.0000000000000000    0.1533474671015326    0.5804984371971341 F F F Cr
   0.5000000000000000    0.3466525328984673    0.6099777532790565 T T T Cr
   0.5000000000000000    0.6533474671015327    0.6519270086257055 T T T Cr
   0.5000000000000000    0.0963080656737744    0.6322465798156311 T T T As
   0.5000000000000000    0.9036919343262256    0.6296581820891308 T T T As
   0.5000000000000000    0.6501400966827403    0.6042263123244236 T T T As
   0.5000000000000000    0.3498599033172596    0.6576784495803384 T T T As
   0.0000000000000000    0.5963080656737744    0.7036751512442025 T T T As
   0.0000000000000000    0.4036919343262255    0.7010867535177023 T T T As
   0.0000000000000000    0.1501400966827404    0.6756548837529950 T T T As
   0.0000000000000000    0.8498599033172597    0.5862498781517670 F F F As
