Re24 Rh8
1.0
   4.3992490044114057    0.0000000000000000    0.0000000000000003
   0.0000000000000008    4.8020941268200001   -8.3174710103803360
   0.0000000000000000    0.0000000000000000   55.4498067358689184
Re Rh Re Rh Re Rh Re Rh
6 2 6 2 6 2 6 2
Selective dynamics
direct
   0.2500000000000000    0.8391012984893749    0.3267303895468124 T T T Re
   0.2500000000000000    0.8391012984893749    0.3750000000000000 T T T Re
   0.2500000000000000    0.3217974030212504    0.3232696104531876 T T T Re
   0.7500000000000000    0.1608987015106252    0.3232696104531876 T T T Re
   0.7500000000000000    0.1608987015106251    0.3750000000000000 T T T Re
   0.7500000000000000    0.6782025969787497    0.3267303895468124 T T T Re
   0.7500000000000000    0.6666666666666667    0.3750000000000000 T T T Rh
   0.2500000000000000    0.3333333333333331    0.3750000000000000 T T T Rh
   0.2500000000000000    0.8391012984893749    0.4267303895468125 T T T Re
   0.2500000000000000    0.8391012984893749    0.4750000000000000 F F F Re
   0.2500000000000000    0.3217974030212504    0.4232696104531876 T T T Re
   0.7500000000000000    0.1608987015106252    0.4232696104531876 T T T Re
   0.7500000000000000    0.1608987015106251    0.4750000000000000 F F F Re
   0.7500000000000000    0.6782025969787497    0.4267303895468125 T T T Re
   0.7500000000000000    0.6666666666666667    0.4750000000000000 F F F Rh
   0.2500000000000000    0.3333333333333331    0.4750000000000000 F F F Rh
   0.2500000000000000    0.8391012984893749    0.5267303895468125 F F F Re
   0.2500000000000000    0.8391012984893749    0.5750000000000000 T T T Re
   0.2500000000000000    0.3217974030212504    0.5232696104531875 F F F Re
   0.7500000000000000    0.1608987015106252    0.5232696104531875 F F F Re
   0.7500000000000000    0.1608987015106251    0.5750000000000000 T T T Re
   0.7500000000000000    0.6782025969787497    0.5267303895468125 F F F Re
   0.7500000000000000    0.6666666666666667    0.5750000000000000 T T T Rh
   0.2500000000000000    0.3333333333333331    0.5750000000000000 T T T Rh
   0.2500000000000000    0.8391012984893749    0.6267303895468124 T T T Re
   0.2500000000000000    0.8391012984893749    0.6750000000000000 T T T Re
   0.2500000000000000    0.3217974030212504    0.6232696104531876 T T T Re
   0.7500000000000000    0.1608987015106252    0.6232696104531876 T T T Re
   0.7500000000000000    0.1608987015106251    0.6750000000000000 T T T Re
   0.7500000000000000    0.6782025969787497    0.6267303895468124 T T T Re
   0.7500000000000000    0.6666666666666667    0.6750000000000000 T T T Rh
   0.2500000000000000    0.3333333333333331    0.6749999999999999 T T T Rh
