Re36 Rh12
1.0
   5.5449806735868918    0.0000000000000000    0.0000000000000003
   5.5449806735868945    9.6041882536399932    4.3992490044114065
   0.0000000000000000    0.0000000000000000   30.7947430308798396
Re Rh Re Rh Re Rh
12 4 12 4 12 4
Selective dynamics
direct
   0.1608987015106252    0.3391012984893748    0.3265569573586607 T T T Re
   0.1608987015106251    0.8391012984893749    0.3979855287872321 T T T Re
   0.1608987015106251    0.0804493507553126    0.3635072356063839 T T T Re
   0.1608987015106251    0.5804493507553126    0.2920786641778125 T T T Re
   0.6782025969787496    0.0804493507553126    0.3635072356063839 T T T Re
   0.6782025969787496    0.5804493507553126    0.2920786641778125 T T T Re
   0.8391012984893749    0.1608987015106252    0.4234430426413393 F F F Re
   0.8391012984893748    0.6608987015106251    0.3520144712127679 T T T Re
   0.8391012984893749    0.4195506492446874    0.3864927643936161 T T T Re
   0.8391012984893749    0.9195506492446874    0.3150641929650447 T T T Re
   0.3217974030212504    0.4195506492446874    0.3864927643936161 T T T Re
   0.3217974030212503    0.9195506492446874    0.3150641929650447 T T T Re
   0.3333333333333334    0.1666666666666667    0.4226190476190476 F F F Rh
   0.3333333333333333    0.6666666666666667    0.3511904761904762 T T T Rh
   0.6666666666666669    0.3333333333333334    0.3273809523809524 T T T Rh
   0.6666666666666669    0.8333333333333333    0.3988095238095238 T T T Rh
   0.1608987015106252    0.3391012984893748    0.4694141002158036 F F F Re
   0.1608987015106251    0.8391012984893749    0.5408426716443751 F F F Re
   0.1608987015106251    0.0804493507553126    0.5063643784635268 F F F Re
   0.1608987015106251    0.5804493507553126    0.4349358070349554 F F F Re
   0.6782025969787496    0.0804493507553126    0.5063643784635268 F F F Re
   0.6782025969787496    0.5804493507553126    0.4349358070349554 F F F Re
   0.8391012984893749    0.1608987015106252    0.5663001854984822 F F F Re
   0.8391012984893748    0.6608987015106251    0.4948716140699106 F F F Re
   0.8391012984893749    0.4195506492446874    0.5293499072507589 F F F Re
   0.8391012984893749    0.9195506492446874    0.4579213358221875 F F F Re
   0.3217974030212504    0.4195506492446874    0.5293499072507589 F F F Re
   0.3217974030212503    0.9195506492446874    0.4579213358221875 F F F Re
   0.3333333333333334    0.1666666666666667    0.5654761904761905 F F F Rh
   0.3333333333333333    0.6666666666666667    0.4940476190476190 F F F Rh
   0.6666666666666669    0.3333333333333334    0.4702380952380952 F F F Rh
   0.6666666666666669    0.8333333333333333    0.5416666666666667 F F F Rh
   0.1608987015106252    0.3391012984893748    0.6122712430729464 T T T Re
   0.1608987015106251    0.8391012984893749    0.6836998145015178 T T T Re
   0.1608987015106251    0.0804493507553126    0.6492215213206696 T T T Re
   0.1608987015106251    0.5804493507553126    0.5777929498920982 F F F Re
   0.6782025969787496    0.0804493507553126    0.6492215213206696 T T T Re
   0.6782025969787496    0.5804493507553126    0.5777929498920982 F F F Re
   0.8391012984893749    0.1608987015106252    0.7091573283556249 T T T Re
   0.8391012984893748    0.6608987015106251    0.6377287569270536 T T T Re
   0.8391012984893749    0.4195506492446874    0.6722070501079018 T T T Re
   0.8391012984893749    0.9195506492446874    0.6007784786793304 F F F Re
   0.3217974030212504    0.4195506492446874    0.6722070501079018 T T T Re
   0.3217974030212503    0.9195506492446874    0.6007784786793304 F F F Re
   0.3333333333333334    0.1666666666666667    0.7083333333333333 T T T Rh
   0.3333333333333333    0.6666666666666667    0.6369047619047619 T T T Rh
   0.6666666666666669    0.3333333333333334    0.6130952380952381 T T T Rh
   0.6666666666666669    0.8333333333333333    0.6845238095238095 T T T Rh
