Sc6 Ag6
1.0
   3.4390305432323216    0.0000000000000000   -3.4390305432323212
  -0.0000000000000002    3.4390305432323220   -3.4390305432323216
   0.0000000000000000    0.0000000000000000   48.1464276052525051
Sc Ag Sc Ag Sc Ag Sc Ag Sc Ag Sc Ag
1 1 1 1 1 1 1 1 1 1 1 1
Selective dynamics
direct
   0.5000000000000000    0.5000000000000001    0.3035714285714285 T T T Sc
   0.0000000000000000    0.0000000000000000    0.3392857142857142 T T T Ag
   0.5000000000000000    0.5000000000000001    0.3750000000000000 T T T Sc
   0.0000000000000000    0.0000000000000000    0.4107142857142857 T T T Ag
   0.5000000000000000    0.5000000000000001    0.4464285714285714 F F F Sc
   0.0000000000000000    0.0000000000000000    0.4821428571428571 F F F Ag
   0.5000000000000000    0.5000000000000001    0.5178571428571428 F F F Sc
   0.0000000000000000    0.0000000000000000    0.5535714285714286 F F F Ag
   0.5000000000000000    0.5000000000000001    0.5892857142857142 T T T Sc
   0.0000000000000000    0.0000000000000000    0.6250000000000000 T T T Ag
   0.5000000000000000    0.5000000000000001    0.6607142857142857 T T T Sc
   0.0000000000000000    0.0000000000000000    0.6964285714285714 T T T Ag
