Bi64 Pd32
1.0
  12.9205097203630057    0.0000000000000000    8.6515691124509448
  15.6582018064370878   11.2275860132941858    0.0000000000000012
   0.0000000000000000    0.0000000000000000   43.2578455622547224
Bi Pd Bi Pd Bi Pd Bi Pd
16 8 16 8 16 8 16 8
Selective dynamics
direct
   0.1826197490244068    0.6575651361667042    0.3384760501951187 T T T Bi
   0.6826197490244068    0.1575651361667041    0.3384760501951187 T T T Bi
   0.8173802509755932    0.8424348638332958    0.3615239498048814 T T T Bi
   0.3173802509755933    0.3424348638332959    0.3615239498048814 T T T Bi
   0.0314362729465234    0.8965369636417229    0.3187127454106954 T T T Bi
   0.5314362729465235    0.3965369636417228    0.3187127454106953 T T T Bi
   0.9685637270534765    0.6034630363582771    0.3812872545893047 T T T Bi
   0.4685637270534765    0.1034630363582771    0.3812872545893047 T T T Bi
   0.6826197490244067    0.6575651361667041    0.3884760501951187 T T T Bi
   0.1826197490244068    0.1575651361667041    0.3884760501951187 T T T Bi
   0.3173802509755933    0.8424348638332958    0.3115239498048814 T T T Bi
   0.8173802509755934    0.3424348638332958    0.3115239498048814 T T T Bi
   0.5314362729465236    0.8965369636417228    0.3687127454106953 T T T Bi
   0.0314362729465236    0.3965369636417228    0.3687127454106953 T T T Bi
   0.4685637270534764    0.6034630363582771    0.3312872545893047 T T T Bi
   0.9685637270534766    0.1034630363582771    0.3312872545893047 T T T Bi
   0.8614431500777475    0.9159165761599597    0.3027113699844505 T T T Pd
   0.3614431500777475    0.4159165761599597    0.3027113699844505 T T T Pd
   0.1385568499222525    0.5840834238400402    0.3972886300155495 T T T Pd
   0.6385568499222525    0.0840834238400402    0.3972886300155495 T T T Pd
   0.3614431500777476    0.9159165761599597    0.3527113699844505 T T T Pd
   0.8614431500777477    0.4159165761599597    0.3527113699844505 T T T Pd
   0.6385568499222524    0.5840834238400402    0.3472886300155495 T T T Pd
   0.1385568499222525    0.0840834238400402    0.3472886300155495 T T T Pd
   0.1826197490244068    0.6575651361667042    0.4384760501951187 F F F Bi
   0.6826197490244068    0.1575651361667041    0.4384760501951187 F F F Bi
   0.8173802509755932    0.8424348638332958    0.4615239498048814 F F F Bi
   0.3173802509755933    0.3424348638332959    0.4615239498048814 F F F Bi
   0.0314362729465234    0.8965369636417229    0.4187127454106954 F F F Bi
   0.5314362729465235    0.3965369636417228    0.4187127454106954 F F F Bi
   0.9685637270534765    0.6034630363582771    0.4812872545893048 F F F Bi
   0.4685637270534765    0.1034630363582771    0.4812872545893048 F F F Bi
   0.6826197490244067    0.6575651361667041    0.4884760501951187 F F F Bi
   0.1826197490244068    0.1575651361667041    0.4884760501951187 F F F Bi
   0.3173802509755933    0.8424348638332958    0.4115239498048814 F F F Bi
   0.8173802509755934    0.3424348638332958    0.4115239498048814 F F F Bi
   0.5314362729465236    0.8965369636417228    0.4687127454106953 F F F Bi
   0.0314362729465236    0.3965369636417228    0.4687127454106953 F F F Bi
   0.4685637270534764    0.6034630363582771    0.4312872545893048 F F F Bi
   0.9685637270534766    0.1034630363582771    0.4312872545893047 F F F Bi
   0.8614431500777475    0.9159165761599597    0.4027113699844505 T T T Pd
   0.3614431500777475    0.4159165761599597    0.4027113699844506 T T T Pd
   0.1385568499222525    0.5840834238400402    0.4972886300155496 F F F Pd
   0.6385568499222525    0.0840834238400402    0.4972886300155496 F F F Pd
   0.3614431500777476    0.9159165761599597    0.4527113699844505 F F F Pd
   0.8614431500777477    0.4159165761599597    0.4527113699844505 F F F Pd
   0.6385568499222524    0.5840834238400402    0.4472886300155495 F F F Pd
   0.1385568499222525    0.0840834238400402    0.4472886300155495 F F F Pd
   0.1826197490244068    0.6575651361667042    0.5384760501951187 F F F Bi
   0.6826197490244068    0.1575651361667041    0.5384760501951187 F F F Bi
   0.8173802509755932    0.8424348638332958    0.5615239498048814 F F F Bi
   0.3173802509755933    0.3424348638332959    0.5615239498048814 F F F Bi
   0.0314362729465234    0.8965369636417229    0.5187127454106953 F F F Bi
   0.5314362729465235    0.3965369636417228    0.5187127454106953 F F F Bi
   0.9685637270534765    0.6034630363582771    0.5812872545893047 F F F Bi
   0.4685637270534765    0.1034630363582771    0.5812872545893047 F F F Bi
   0.6826197490244067    0.6575651361667041    0.5884760501951187 F F F Bi
   0.1826197490244068    0.1575651361667041    0.5884760501951187 F F F Bi
   0.3173802509755933    0.8424348638332958    0.5115239498048814 F F F Bi
   0.8173802509755934    0.3424348638332958    0.5115239498048814 F F F Bi
   0.5314362729465236    0.8965369636417228    0.5687127454106953 F F F Bi
   0.0314362729465236    0.3965369636417228    0.5687127454106953 F F F Bi
   0.4685637270534764    0.6034630363582771    0.5312872545893048 F F F Bi
   0.9685637270534766    0.1034630363582771    0.5312872545893047 F F F Bi
   0.8614431500777475    0.9159165761599597    0.5027113699844505 F F F Pd
   0.3614431500777475    0.4159165761599597    0.5027113699844505 F F F Pd
   0.1385568499222525    0.5840834238400402    0.5972886300155495 T T T Pd
   0.6385568499222525    0.0840834238400402    0.5972886300155495 T T T Pd
   0.3614431500777476    0.9159165761599597    0.5527113699844506 F F F Pd
   0.8614431500777477    0.4159165761599597    0.5527113699844506 F F F Pd
   0.6385568499222524    0.5840834238400402    0.5472886300155495 F F F Pd
   0.1385568499222525    0.0840834238400402    0.5472886300155495 F F F Pd
   0.1826197490244068    0.6575651361667042    0.6384760501951187 T T T Bi
   0.6826197490244068    0.1575651361667041    0.6384760501951187 T T T Bi
   0.8173802509755932    0.8424348638332958    0.6615239498048814 T T T Bi
   0.3173802509755933    0.3424348638332959    0.6615239498048814 T T T Bi
   0.0314362729465234    0.8965369636417229    0.6187127454106953 T T T Bi
   0.5314362729465235    0.3965369636417228    0.6187127454106953 T T T Bi
   0.9685637270534765    0.6034630363582771    0.6812872545893047 T T T Bi
   0.4685637270534765    0.1034630363582771    0.6812872545893047 T T T Bi
   0.6826197490244067    0.6575651361667041    0.6884760501951187 T T T Bi
   0.1826197490244068    0.1575651361667041    0.6884760501951187 T T T Bi
   0.3173802509755933    0.8424348638332958    0.6115239498048813 T T T Bi
   0.8173802509755934    0.3424348638332958    0.6115239498048813 T T T Bi
   0.5314362729465236    0.8965369636417228    0.6687127454106954 T T T Bi
   0.0314362729465236    0.3965369636417228    0.6687127454106954 T T T Bi
   0.4685637270534764    0.6034630363582771    0.6312872545893047 T T T Bi
   0.9685637270534766    0.1034630363582771    0.6312872545893047 T T T Bi
   0.8614431500777475    0.9159165761599597    0.6027113699844505 T T T Pd
   0.3614431500777475    0.4159165761599597    0.6027113699844505 T T T Pd
   0.1385568499222525    0.5840834238400402    0.6972886300155495 T T T Pd
   0.6385568499222525    0.0840834238400402    0.6972886300155495 T T T Pd
   0.3614431500777476    0.9159165761599597    0.6527113699844505 T T T Pd
   0.8614431500777477    0.4159165761599597    0.6527113699844505 T T T Pd
   0.6385568499222524    0.5840834238400402    0.6472886300155496 T T T Pd
   0.1385568499222525    0.0840834238400402    0.6472886300155496 T T T Pd
