Zr12 Ni12
1.0
   3.3034862269939809    0.0000000000000000    0.0000000000000002
  -0.0000000000000028    9.9723760763341822    4.0794515896430648
   0.0000000000000000    0.0000000000000000   28.5561611275014648
Zr Ni Zr Ni Zr Ni
4 4 4 4 4 4
Selective dynamics
direct
   0.5000000000000000    0.8609539585615649    0.4127208630626336 T T T Zr
   0.0000000000000000    0.6390460414384350    0.3729934226516521 T T T Zr
   0.0000000000000000    0.3609539585615650    0.3412922916340621 T T T Zr
   0.5000000000000000    0.1390460414384349    0.3015648512230807 T T T Zr
   0.5000000000000000    0.5831065218409198    0.3095562111655829 T T T Ni
   0.0000000000000000    0.9168934781590801    0.3333009316915600 T T T Ni
   0.0000000000000000    0.0831065218409199    0.3809847825941542 T T T Ni
   0.5000000000000000    0.4168934781590801    0.4047295031201314 T T T Ni
   0.5000000000000000    0.8609539585615649    0.5555780059197765 F F F Zr
   0.0000000000000000    0.6390460414384350    0.5158505655087950 F F F Zr
   0.0000000000000000    0.3609539585615650    0.4841494344912050 F F F Zr
   0.5000000000000000    0.1390460414384349    0.4444219940802235 F F F Zr
   0.5000000000000000    0.5831065218409198    0.4524133540227257 F F F Ni
   0.0000000000000000    0.9168934781590801    0.4761580745487028 F F F Ni
   0.0000000000000000    0.0831065218409199    0.5238419254512972 F F F Ni
   0.5000000000000000    0.4168934781590801    0.5475866459772742 F F F Ni
   0.5000000000000000    0.8609539585615649    0.6984351487769193 T T T Zr
   0.0000000000000000    0.6390460414384350    0.6587077083659378 T T T Zr
   0.0000000000000000    0.3609539585615650    0.6270065773483477 T T T Zr
   0.5000000000000000    0.1390460414384349    0.5872791369373664 T T T Zr
   0.5000000000000000    0.5831065218409198    0.5952704968798685 T T T Ni
   0.0000000000000000    0.9168934781590801    0.6190152174058456 T T T Ni
   0.0000000000000000    0.0831065218409199    0.6666990683084399 T T T Ni
   0.5000000000000000    0.4168934781590801    0.6904437888344170 T T T Ni
