Hf30 Te24
1.0
  10.7619353665398769    0.0000000000000000    0.0000000000000007
  -0.0000000000000030   10.7619353665398769    3.7753780320827524
   0.0000000000000000    0.0000000000000000   30.2030242566620259
Hf Te Hf Te Hf Te
10 8 10 8 10 8
Selective dynamics
direct
   0.8104457108725568    0.1317081741796072    0.3099253671164380 T T T Hf
   0.6317081741796073    0.6895542891274431    0.4276946027479585 F F F Hf
   0.3682918258203927    0.3104457108725570    0.3500831750298193 T T T Hf
   0.1895542891274431    0.8682918258203927    0.3428524106613398 T T T Hf
   0.0000000000000000    0.0000000000000000    0.3888888888888889 T T T Hf
   0.3104457108725569    0.6317081741796073    0.3099253671164380 T T T Hf
   0.1317081741796073    0.1895542891274432    0.4276946027479585 F F F Hf
   0.8682918258203927    0.8104457108725569    0.3500831750298193 T T T Hf
   0.6895542891274431    0.3682918258203927    0.3428524106613398 T T T Hf
   0.5000000000000000    0.5000000000000000    0.3888888888888890 T T T Hf
   0.5518206560338683    0.2142310670134790    0.4246100055122041 F F F Te
   0.7142310670134790    0.9481793439661317    0.3953664708931224 T T T Te
   0.2857689329865210    0.0518206560338683    0.3824113068846554 T T T Te
   0.4481793439661316    0.7857689329865210    0.3531677722655738 T T T Te
   0.0518206560338683    0.7142310670134790    0.4246100055122040 F F F Te
   0.2142310670134790    0.4481793439661317    0.3953664708931224 T T T Te
   0.7857689329865210    0.5518206560338683    0.3824113068846554 T T T Te
   0.9481793439661317    0.2857689329865208    0.3531677722655738 T T T Te
   0.8104457108725568    0.1317081741796072    0.4349253671164380 F F F Hf
   0.6317081741796073    0.6895542891274431    0.5526946027479585 F F F Hf
   0.3682918258203927    0.3104457108725570    0.4750831750298193 F F F Hf
   0.1895542891274431    0.8682918258203927    0.4678524106613398 F F F Hf
   0.0000000000000000    0.0000000000000000    0.5138888888888888 F F F Hf
   0.3104457108725569    0.6317081741796073    0.4349253671164380 F F F Hf
   0.1317081741796073    0.1895542891274432    0.5526946027479585 F F F Hf
   0.8682918258203927    0.8104457108725569    0.4750831750298193 F F F Hf
   0.6895542891274431    0.3682918258203927    0.4678524106613398 F F F Hf
   0.5000000000000000    0.5000000000000000    0.5138888888888890 F F F Hf
   0.5518206560338683    0.2142310670134790    0.5496100055122041 F F F Te
   0.7142310670134790    0.9481793439661317    0.5203664708931224 F F F Te
   0.2857689329865210    0.0518206560338683    0.5074113068846553 F F F Te
   0.4481793439661316    0.7857689329865210    0.4781677722655738 F F F Te
   0.0518206560338683    0.7142310670134790    0.5496100055122040 F F F Te
   0.2142310670134790    0.4481793439661317    0.5203664708931224 F F F Te
   0.7857689329865210    0.5518206560338683    0.5074113068846553 F F F Te
   0.9481793439661317    0.2857689329865208    0.4781677722655738 F F F Te
   0.8104457108725568    0.1317081741796072    0.5599253671164379 F F F Hf
   0.6317081741796073    0.6895542891274431    0.6776946027479585 T T T Hf
   0.3682918258203927    0.3104457108725570    0.6000831750298192 T T T Hf
   0.1895542891274431    0.8682918258203927    0.5928524106613398 T T T Hf
   0.0000000000000000    0.0000000000000000    0.6388888888888888 T T T Hf
   0.3104457108725569    0.6317081741796073    0.5599253671164379 F F F Hf
   0.1317081741796073    0.1895542891274432    0.6776946027479585 T T T Hf
   0.8682918258203927    0.8104457108725569    0.6000831750298192 T T T Hf
   0.6895542891274431    0.3682918258203927    0.5928524106613398 T T T Hf
   0.5000000000000000    0.5000000000000000    0.6388888888888888 T T T Hf
   0.5518206560338683    0.2142310670134790    0.6746100055122040 T T T Te
   0.7142310670134790    0.9481793439661317    0.6453664708931224 T T T Te
   0.2857689329865210    0.0518206560338683    0.6324113068846553 T T T Te
   0.4481793439661316    0.7857689329865210    0.6031677722655737 T T T Te
   0.0518206560338683    0.7142310670134790    0.6746100055122040 T T T Te
   0.2142310670134790    0.4481793439661317    0.6453664708931224 T T T Te
   0.7857689329865210    0.5518206560338683    0.6324113068846553 T T T Te
   0.9481793439661317    0.2857689329865208    0.6031677722655737 T T T Te
