Ga24 Ni40
1.0
   6.7805429895131732    0.0000000000000000    0.0000000000000004
  -0.0000000000000021    7.5424769047908509    7.5036146979068841
   0.0000000000000000    0.0000000000000000   37.5180734895344230
Ga Ni Ga Ni Ga Ni Ga Ni
6 10 6 10 6 10 6 10
Selective dynamics
direct
   0.5000000000000000    0.2187771542143011    0.3812445691571398 T T T Ga
   0.5000000000000000    0.7812228457856989    0.3687554308428603 T T T Ga
   0.0000000000000000    0.0000000000000000    0.3750000000000001 T T T Ga
   0.0000000000000000    0.7187771542143011    0.3812445691571398 T T T Ga
   0.0000000000000000    0.2812228457856988    0.3687554308428603 T T T Ga
   0.5000000000000001    0.4999999999999999    0.3750000000000001 T T T Ga
   0.2251999858385787    0.0000000000000000    0.3250000000000001 T T T Ni
   0.7748000141614213    0.0000000000000000    0.3250000000000001 T T T Ni
   0.2500000000000000    0.2500000000000000    0.3250000000000001 T T T Ni
   0.5000000000000000    0.0000000000000000    0.3750000000000001 T T T Ni
   0.2500000000000000    0.7500000000000000    0.3250000000000001 T T T Ni
   0.7251999858385787    0.4999999999999999    0.3250000000000001 T T T Ni
   0.2748000141614213    0.4999999999999999    0.3250000000000001 T T T Ni
   0.7500000000000000    0.7500000000000000    0.3250000000000000 T T T Ni
   0.0000000000000000    0.4999999999999999    0.3750000000000001 T T T Ni
   0.7500000000000000    0.2500000000000000    0.3250000000000001 T T T Ni
   0.5000000000000000    0.2187771542143011    0.4812445691571398 F F F Ga
   0.5000000000000000    0.7812228457856989    0.4687554308428603 F F F Ga
   0.0000000000000000    0.0000000000000000    0.4750000000000000 F F F Ga
   0.0000000000000000    0.7187771542143011    0.4812445691571398 F F F Ga
   0.0000000000000000    0.2812228457856988    0.4687554308428603 F F F Ga
   0.5000000000000001    0.4999999999999999    0.4750000000000000 F F F Ga
   0.2251999858385787    0.0000000000000000    0.4250000000000000 T T T Ni
   0.7748000141614213    0.0000000000000000    0.4250000000000000 T T T Ni
   0.2500000000000000    0.2500000000000000    0.4250000000000000 T T T Ni
   0.5000000000000000    0.0000000000000000    0.4750000000000000 F F F Ni
   0.2500000000000000    0.7500000000000000    0.4250000000000000 T T T Ni
   0.7251999858385787    0.4999999999999999    0.4250000000000000 T T T Ni
   0.2748000141614213    0.4999999999999999    0.4250000000000000 T T T Ni
   0.7500000000000000    0.7500000000000000    0.4250000000000000 T T T Ni
   0.0000000000000000    0.4999999999999999    0.4750000000000000 F F F Ni
   0.7500000000000000    0.2500000000000000    0.4250000000000000 T T T Ni
   0.5000000000000000    0.2187771542143011    0.5812445691571398 T T T Ga
   0.5000000000000000    0.7812228457856989    0.5687554308428603 T T T Ga
   0.0000000000000000    0.0000000000000000    0.5750000000000001 T T T Ga
   0.0000000000000000    0.7187771542143011    0.5812445691571398 T T T Ga
   0.0000000000000000    0.2812228457856988    0.5687554308428603 T T T Ga
   0.5000000000000001    0.4999999999999999    0.5750000000000001 T T T Ga
   0.2251999858385787    0.0000000000000000    0.5250000000000000 F F F Ni
   0.7748000141614213    0.0000000000000000    0.5250000000000000 F F F Ni
   0.2500000000000000    0.2500000000000000    0.5250000000000000 F F F Ni
   0.5000000000000000    0.0000000000000000    0.5750000000000001 T T T Ni
   0.2500000000000000    0.7500000000000000    0.5250000000000000 F F F Ni
   0.7251999858385787    0.4999999999999999    0.5250000000000000 F F F Ni
   0.2748000141614213    0.4999999999999999    0.5250000000000000 F F F Ni
   0.7500000000000000    0.7500000000000000    0.5250000000000000 F F F Ni
   0.0000000000000000    0.4999999999999999    0.5750000000000001 T T T Ni
   0.7500000000000000    0.2500000000000000    0.5250000000000000 F F F Ni
   0.5000000000000000    0.2187771542143011    0.6812445691571398 T T T Ga
   0.5000000000000000    0.7812228457856989    0.6687554308428603 T T T Ga
   0.0000000000000000    0.0000000000000000    0.6750000000000000 T T T Ga
   0.0000000000000000    0.7187771542143011    0.6812445691571398 T T T Ga
   0.0000000000000000    0.2812228457856988    0.6687554308428603 T T T Ga
   0.5000000000000001    0.4999999999999999    0.6750000000000000 T T T Ga
   0.2251999858385787    0.0000000000000000    0.6250000000000000 T T T Ni
   0.7748000141614213    0.0000000000000000    0.6250000000000000 T T T Ni
   0.2500000000000000    0.2500000000000000    0.6250000000000000 T T T Ni
   0.5000000000000000    0.0000000000000000    0.6750000000000000 T T T Ni
   0.2500000000000000    0.7500000000000000    0.6250000000000000 T T T Ni
   0.7251999858385787    0.4999999999999999    0.6250000000000000 T T T Ni
   0.2748000141614213    0.4999999999999999    0.6250000000000000 T T T Ni
   0.7500000000000000    0.7500000000000000    0.6250000000000000 T T T Ni
   0.0000000000000000    0.4999999999999999    0.6750000000000000 T T T Ni
   0.7500000000000000    0.2500000000000000    0.6250000000000000 T T T Ni
