Ga12 Ni20
1.0
   3.7518073489534425    0.0000000000000000    0.0000000000000002
   0.0000000000000012    7.5424769047908446   -6.7805429895131777
   0.0000000000000000    0.0000000000000000   33.9027149475658689
Ga Ni Ga Ni
6 10 6 10
Selective dynamics
direct
   0.5000000000000000    0.7812228457856989    0.3062445691571398 T T T Ga
   0.5000000000000000    0.2187771542143011    0.3937554308428602 T T T Ga
   0.0000000000000000    0.0000000000000000    0.4500000000000000 F F F Ga
   0.5000000000000000    0.2812228457856989    0.3062445691571398 T T T Ga
   0.5000000000000000    0.7187771542143011    0.3937554308428602 T T T Ga
   0.0000000000000000    0.5000000000000000    0.4500000000000000 F F F Ga
   0.5000000000000000    0.0000000000000000    0.4950399971677157 F F F Ni
   0.5000000000000000    0.0000000000000000    0.4049600028322843 T T T Ni
   0.0000000000000000    0.7500000000000000    0.4500000000000000 F F F Ni
   0.0000000000000000    0.0000000000000000    0.3500000000000000 T T T Ni
   0.0000000000000000    0.2500000000000000    0.3500000000000000 T T T Ni
   0.5000000000000000    0.5000000000000000    0.4950399971677157 F F F Ni
   0.5000000000000000    0.5000000000000000    0.4049600028322843 T T T Ni
   0.0000000000000000    0.2500000000000000    0.4500000000000000 F F F Ni
   0.0000000000000000    0.5000000000000000    0.3500000000000000 T T T Ni
   0.0000000000000000    0.7500000000000000    0.3500000000000000 T T T Ni
   0.5000000000000000    0.7812228457856989    0.5062445691571398 F F F Ga
   0.5000000000000000    0.2187771542143011    0.5937554308428603 T T T Ga
   0.0000000000000000    0.0000000000000000    0.6500000000000000 T T T Ga
   0.5000000000000000    0.2812228457856989    0.5062445691571398 F F F Ga
   0.5000000000000000    0.7187771542143011    0.5937554308428603 T T T Ga
   0.0000000000000000    0.5000000000000000    0.6500000000000000 T T T Ga
   0.5000000000000000    0.0000000000000000    0.6950399971677157 T T T Ni
   0.5000000000000000    0.0000000000000000    0.6049600028322843 T T T Ni
   0.0000000000000000    0.7500000000000000    0.6500000000000000 T T T Ni
   0.0000000000000000    0.0000000000000000    0.5500000000000000 F F F Ni
   0.0000000000000000    0.2500000000000000    0.5500000000000000 F F F Ni
   0.5000000000000000    0.5000000000000000    0.6950399971677157 T T T Ni
   0.5000000000000000    0.5000000000000000    0.6049600028322843 T T T Ni
   0.0000000000000000    0.2500000000000000    0.6500000000000000 T T T Ni
   0.0000000000000000    0.5000000000000000    0.5500000000000000 F F F Ni
   0.0000000000000000    0.7500000000000000    0.5500000000000000 F F F Ni
