Bi12 Rh12
1.0
   4.1716726826270705    0.0000000000000000    0.0000000000000003
   4.1716726826270722    7.2255490388572419    5.7292339901842810
   0.0000000000000000    0.0000000000000000   40.1046379312899575
Bi Rh Bi Rh Bi Rh
4 4 4 4 4 4
Selective dynamics
direct
   0.3333333333333333    0.1666666666666667    0.3333333333333333 T T T Bi
   0.3333333333333333    0.6666666666666667    0.4047619047619048 T T T Bi
   0.6666666666666667    0.3333333333333333    0.3809523809523809 T T T Bi
   0.6666666666666667    0.8333333333333333    0.3095238095238095 T T T Bi
   0.0000000000000000    0.5000000000000000    0.3214285714285714 T T T Rh
   0.0000000000000000    0.0000000000000000    0.3928571428571428 T T T Rh
   0.0000000000000000    0.5000000000000000    0.3928571428571428 T T T Rh
   0.0000000000000000    0.0000000000000000    0.3214285714285714 T T T Rh
   0.3333333333333333    0.1666666666666667    0.4761904761904762 F F F Bi
   0.3333333333333333    0.6666666666666667    0.5476190476190476 F F F Bi
   0.6666666666666667    0.3333333333333333    0.5238095238095237 F F F Bi
   0.6666666666666667    0.8333333333333333    0.4523809523809523 F F F Bi
   0.0000000000000000    0.5000000000000000    0.4642857142857142 F F F Rh
   0.0000000000000000    0.0000000000000000    0.5357142857142857 F F F Rh
   0.0000000000000000    0.5000000000000000    0.5357142857142857 F F F Rh
   0.0000000000000000    0.0000000000000000    0.4642857142857142 F F F Rh
   0.3333333333333333    0.1666666666666667    0.6190476190476191 T T T Bi
   0.3333333333333333    0.6666666666666667    0.6904761904761905 T T T Bi
   0.6666666666666667    0.3333333333333333    0.6666666666666666 T T T Bi
   0.6666666666666667    0.8333333333333333    0.5952380952380952 T T T Bi
   0.0000000000000000    0.5000000000000000    0.6071428571428571 T T T Rh
   0.0000000000000000    0.0000000000000000    0.6785714285714286 T T T Rh
   0.0000000000000000    0.5000000000000000    0.6785714285714286 T T T Rh
   0.0000000000000000    0.0000000000000000    0.6071428571428571 T T T Rh
