Zr24 Co8
1.0
   3.2574870406440830    0.0000000000000000    0.0000000000000002
  -0.0000000000000030   10.7474945317763790    9.0494367408557981
   0.0000000000000000    0.0000000000000000   45.2471837042789957
Zr Co Zr Co
12 4 12 4
Selective dynamics
direct
   0.0000000000000000    0.4156546726957516    0.4168690654608497 F F F Zr
   0.4999999999999999    0.0843453273042485    0.3831309345391503 T T T Zr
   0.0000000000000000    0.1346554892795737    0.4341887558667538 F F F Zr
   0.5000000000000000    0.3653445107204263    0.3658112441332462 T T T Zr
   0.5000000000000000    0.3653445107204263    0.4880509515785832 F F F Zr
   0.0000000000000000    0.1346554892795737    0.3119490484214167 T T T Zr
   0.5000000000000000    0.9156546726957515    0.3168690654608497 T T T Zr
   0.0000000000000000    0.5843453273042485    0.4831309345391503 F F F Zr
   0.5000000000000000    0.6346554892795737    0.3341887558667537 T T T Zr
   0.0000000000000000    0.8653445107204264    0.4658112441332461 F F F Zr
   0.0000000000000000    0.8653445107204264    0.3880509515785832 T T T Zr
   0.5000000000000000    0.6346554892795737    0.4119490484214167 F F F Zr
   0.5000000000000000    0.2239985018150854    0.4552002996369829 F F F Co
   0.0000000000000000    0.2760014981849146    0.3447997003630170 T T T Co
   0.0000000000000000    0.7239985018150854    0.3552002996369829 T T T Co
   0.5000000000000000    0.7760014981849146    0.4447997003630171 F F F Co
   0.0000000000000000    0.4156546726957516    0.6168690654608497 T T T Zr
   0.4999999999999999    0.0843453273042485    0.5831309345391502 F F F Zr
   0.0000000000000000    0.1346554892795737    0.6341887558667538 T T T Zr
   0.5000000000000000    0.3653445107204263    0.5658112441332461 F F F Zr
   0.5000000000000000    0.3653445107204263    0.6880509515785833 T T T Zr
   0.0000000000000000    0.1346554892795737    0.5119490484214168 F F F Zr
   0.5000000000000000    0.9156546726957515    0.5168690654608497 F F F Zr
   0.0000000000000000    0.5843453273042485    0.6831309345391503 T T T Zr
   0.5000000000000000    0.6346554892795737    0.5341887558667537 F F F Zr
   0.0000000000000000    0.8653445107204264    0.6658112441332462 T T T Zr
   0.0000000000000000    0.8653445107204264    0.5880509515785832 F F F Zr
   0.5000000000000000    0.6346554892795737    0.6119490484214167 T T T Zr
   0.5000000000000000    0.2239985018150854    0.6552002996369830 T T T Co
   0.0000000000000000    0.2760014981849146    0.5447997003630171 F F F Co
   0.0000000000000000    0.7239985018150854    0.5552002996369829 F F F Co
   0.5000000000000000    0.7760014981849146    0.6447997003630170 T T T Co
