Sn24 Pt12
1.0
   6.5547828937127397    0.0000000000000000   -6.5547828937127388
  -0.0000000000000004    6.5547828937127415   -6.5547828937127406
   0.0000000000000000    0.0000000000000000   45.8834802559891841
Sn Pt Sn Pt Sn Pt
8 4 8 4 8 4
Selective dynamics
direct
   0.2500000000000000    0.7500000000000001    0.2976190476190476 T T T Sn
   0.7500000000000000    0.7500000000000001    0.3690476190476190 T T T Sn
   0.7500000000000000    0.2500000000000001    0.2976190476190476 T T T Sn
   0.2500000000000000    0.2500000000000001    0.3690476190476190 T T T Sn
   0.2500000000000000    0.2500000000000001    0.2976190476190476 T T T Sn
   0.7500000000000000    0.2500000000000002    0.3690476190476191 T T T Sn
   0.7500000000000000    0.7500000000000002    0.2976190476190477 T T T Sn
   0.2500000000000000    0.7500000000000001    0.3690476190476190 T T T Sn
   0.0000000000000000    0.0000000000000000    0.4047619047619048 T T T Pt
   0.5000000000000000    0.5000000000000000    0.4047619047619048 T T T Pt
   0.0000000000000000    0.5000000000000000    0.4047619047619048 T T T Pt
   0.5000000000000000    0.0000000000000001    0.4047619047619048 T T T Pt
   0.2500000000000000    0.7500000000000001    0.4404761904761905 F F F Sn
   0.7500000000000000    0.7500000000000001    0.5119047619047619 F F F Sn
   0.7500000000000000    0.2500000000000001    0.4404761904761905 F F F Sn
   0.2500000000000000    0.2500000000000001    0.5119047619047619 F F F Sn
   0.2500000000000000    0.2500000000000001    0.4404761904761905 F F F Sn
   0.7500000000000000    0.2500000000000002    0.5119047619047619 F F F Sn
   0.7500000000000000    0.7500000000000002    0.4404761904761905 F F F Sn
   0.2500000000000000    0.7500000000000001    0.5119047619047619 F F F Sn
   0.0000000000000000    0.0000000000000000    0.5476190476190476 F F F Pt
   0.5000000000000000    0.5000000000000000    0.5476190476190476 F F F Pt
   0.0000000000000000    0.5000000000000000    0.5476190476190476 F F F Pt
   0.5000000000000000    0.0000000000000001    0.5476190476190476 F F F Pt
   0.2500000000000000    0.7500000000000001    0.5833333333333333 T T T Sn
   0.7500000000000000    0.7500000000000001    0.6547619047619047 T T T Sn
   0.7500000000000000    0.2500000000000001    0.5833333333333333 T T T Sn
   0.2500000000000000    0.2500000000000001    0.6547619047619047 T T T Sn
   0.2500000000000000    0.2500000000000001    0.5833333333333333 T T T Sn
   0.7500000000000000    0.2500000000000002    0.6547619047619048 T T T Sn
   0.7500000000000000    0.7500000000000002    0.5833333333333334 T T T Sn
   0.2500000000000000    0.7500000000000001    0.6547619047619047 T T T Sn
   0.0000000000000000    0.0000000000000000    0.6904761904761905 T T T Pt
   0.5000000000000000    0.5000000000000000    0.6904761904761905 T T T Pt
   0.0000000000000000    0.5000000000000000    0.6904761904761905 T T T Pt
   0.5000000000000000    0.0000000000000001    0.6904761904761905 T T T Pt
