Ba16 Au16
1.0
   5.0178189629270680    0.0000000000000000    0.0000000000000003
  -0.0000000000000037   13.0168876358665475    8.4672564258907919
   0.0000000000000000    0.0000000000000000   42.3362821294539486
Ba Au Ba Au
8 8 8 8
Selective dynamics
direct
   0.7500000000000000    0.4302217300906613    0.4646956374348796 F F F Ba
   0.7500000000000000    0.9302217300906613    0.3646956374348796 T T T Ba
   0.7500000000000000    0.3197782699093388    0.3867843294711442 T T T Ba
   0.7500000000000000    0.8197782699093388    0.4867843294711441 F F F Ba
   0.2500000000000000    0.0697782699093388    0.4103043625651203 F F F Ba
   0.2500000000000001    0.5697782699093389    0.3103043625651203 T T T Ba
   0.2500000000000000    0.1802217300906612    0.4882156705288558 F F F Ba
   0.2500000000000001    0.6802217300906612    0.3882156705288559 T T T Ba
   0.7500000000000000    0.1811808356363435    0.3435648424022567 T T T Au
   0.7500000000000000    0.6811808356363436    0.4435648424022567 F F F Au
   0.2500000000000001    0.4311808356363436    0.4089628233432059 F F F Au
   0.2500000000000000    0.9311808356363436    0.3089628233432059 T T T Au
   0.7500000000000000    0.0688191643636565    0.4660371766567941 F F F Au
   0.7500000000000000    0.5688191643636564    0.3660371766567941 T T T Au
   0.2500000000000000    0.3188191643636564    0.3314351575977433 T T T Au
   0.2500000000000000    0.8188191643636565    0.4314351575977433 F F F Au
   0.7500000000000000    0.4302217300906613    0.6646956374348797 T T T Ba
   0.7500000000000000    0.9302217300906613    0.5646956374348797 F F F Ba
   0.7500000000000000    0.3197782699093388    0.5867843294711441 F F F Ba
   0.7500000000000000    0.8197782699093388    0.6867843294711442 T T T Ba
   0.2500000000000000    0.0697782699093388    0.6103043625651203 T T T Ba
   0.2500000000000001    0.5697782699093389    0.5103043625651202 F F F Ba
   0.2500000000000000    0.1802217300906612    0.6882156705288558 T T T Ba
   0.2500000000000001    0.6802217300906612    0.5882156705288558 F F F Ba
   0.7500000000000000    0.1811808356363435    0.5435648424022567 F F F Au
   0.7500000000000000    0.6811808356363436    0.6435648424022566 T T T Au
   0.2500000000000001    0.4311808356363436    0.6089628233432058 T T T Au
   0.2500000000000000    0.9311808356363436    0.5089628233432059 F F F Au
   0.7500000000000000    0.0688191643636565    0.6660371766567941 T T T Au
   0.7500000000000000    0.5688191643636564    0.5660371766567941 F F F Au
   0.2500000000000000    0.3188191643636564    0.5314351575977433 F F F Au
   0.2500000000000000    0.8188191643636565    0.6314351575977433 T T T Au
