Nb24 Sb48
1.0
  10.3442706479072779    0.0000000000000000    7.3427995821817325
  14.5593798046947036    7.2814054969783868    0.0000000000000010
   0.0000000000000000    0.0000000000000000   51.3995970752721405
Nb Sb Nb Sb Nb Sb Nb Sb Nb Sb Nb Sb
4 8 4 8 4 8 4 8 4 8 4 8
Selective dynamics
direct
   0.8413682583336324    0.8100401824795364    0.3262331059523382 T T T Nb
   0.1586317416663673    0.1899598175204639    0.3523383226190904 T T T Nb
   0.3413682583336324    0.8100401824795364    0.2905188202380525 T T T Nb
   0.6586317416663674    0.1899598175204638    0.3166240369048046 T T T Nb
   0.0163375340907039    0.8885291161900960    0.3012374951298994 T T T Sb
   0.9836624659092956    0.1114708838099043    0.3059053620129578 T T T Sb
   0.3154986143959472    0.5355232878030698    0.2942144836577218 T T T Sb
   0.6845013856040525    0.4644767121969304    0.3129283734851353 T T T Sb
   0.5163375340907039    0.8885291161900960    0.3369517808441851 T T T Sb
   0.4836624659092957    0.1114708838099042    0.3416196477272435 T T T Sb
   0.8154986143959471    0.5355232878030699    0.3299287693720075 T T T Sb
   0.1845013856040526    0.4644767121969304    0.3486426591994211 T T T Sb
   0.8413682583336324    0.8100401824795364    0.3976616773809096 T T T Nb
   0.1586317416663673    0.1899598175204639    0.4237668940476618 F F F Nb
   0.3413682583336324    0.8100401824795364    0.3619473916666239 T T T Nb
   0.6586317416663674    0.1899598175204638    0.3880526083333761 T T T Nb
   0.0163375340907039    0.8885291161900960    0.3726660665584708 T T T Sb
   0.9836624659092956    0.1114708838099043    0.3773339334415292 T T T Sb
   0.3154986143959472    0.5355232878030698    0.3656430550862932 T T T Sb
   0.6845013856040525    0.4644767121969304    0.3843569449137068 T T T Sb
   0.5163375340907039    0.8885291161900960    0.4083803522727565 F F F Sb
   0.4836624659092957    0.1114708838099042    0.4130482191558149 F F F Sb
   0.8154986143959471    0.5355232878030699    0.4013573408005789 F F F Sb
   0.1845013856040526    0.4644767121969304    0.4200712306279925 F F F Sb
   0.8413682583336324    0.8100401824795364    0.4690902488094810 F F F Nb
   0.1586317416663673    0.1899598175204639    0.4951954654762332 F F F Nb
   0.3413682583336324    0.8100401824795364    0.4333759630951953 F F F Nb
   0.6586317416663674    0.1899598175204638    0.4594811797619475 F F F Nb
   0.0163375340907039    0.8885291161900960    0.4440946379870423 F F F Sb
   0.9836624659092956    0.1114708838099043    0.4487625048701006 F F F Sb
   0.3154986143959472    0.5355232878030698    0.4370716265148646 F F F Sb
   0.6845013856040525    0.4644767121969304    0.4557855163422782 F F F Sb
   0.5163375340907039    0.8885291161900960    0.4798089237013280 F F F Sb
   0.4836624659092957    0.1114708838099042    0.4844767905843863 F F F Sb
   0.8154986143959471    0.5355232878030699    0.4727859122291504 F F F Sb
   0.1845013856040526    0.4644767121969304    0.4914998020565639 F F F Sb
   0.8413682583336324    0.8100401824795364    0.5405188202380524 F F F Nb
   0.1586317416663673    0.1899598175204639    0.5666240369048046 F F F Nb
   0.3413682583336324    0.8100401824795364    0.5048045345237667 F F F Nb
   0.6586317416663674    0.1899598175204638    0.5309097511905190 F F F Nb
   0.0163375340907039    0.8885291161900960    0.5155232094156137 F F F Sb
   0.9836624659092956    0.1114708838099043    0.5201910762986720 F F F Sb
   0.3154986143959472    0.5355232878030698    0.5085001979434360 F F F Sb
   0.6845013856040525    0.4644767121969304    0.5272140877708495 F F F Sb
   0.5163375340907039    0.8885291161900960    0.5512374951298994 F F F Sb
   0.4836624659092957    0.1114708838099042    0.5559053620129577 F F F Sb
   0.8154986143959471    0.5355232878030699    0.5442144836577218 F F F Sb
   0.1845013856040526    0.4644767121969304    0.5629283734851354 F F F Sb
   0.8413682583336324    0.8100401824795364    0.6119473916666238 T T T Nb
   0.1586317416663673    0.1899598175204639    0.6380526083333761 T T T Nb
   0.3413682583336324    0.8100401824795364    0.5762331059523382 F F F Nb
   0.6586317416663674    0.1899598175204638    0.6023383226190904 T T T Nb
   0.0163375340907039    0.8885291161900960    0.5869517808441851 F F F Sb
   0.9836624659092956    0.1114708838099043    0.5916196477272435 F F F Sb
   0.3154986143959472    0.5355232878030698    0.5799287693720074 F F F Sb
   0.6845013856040525    0.4644767121969304    0.5986426591994209 F F F Sb
   0.5163375340907039    0.8885291161900960    0.6226660665584709 T T T Sb
   0.4836624659092957    0.1114708838099042    0.6273339334415291 T T T Sb
   0.8154986143959471    0.5355232878030699    0.6156430550862932 T T T Sb
   0.1845013856040526    0.4644767121969304    0.6343569449137068 T T T Sb
   0.8413682583336324    0.8100401824795364    0.6833759630951953 T T T Nb
   0.1586317416663673    0.1899598175204639    0.7094811797619475 T T T Nb
   0.3413682583336324    0.8100401824795364    0.6476616773809096 T T T Nb
   0.6586317416663674    0.1899598175204638    0.6737668940476618 T T T Nb
   0.0163375340907039    0.8885291161900960    0.6583803522727565 T T T Sb
   0.9836624659092956    0.1114708838099043    0.6630482191558149 T T T Sb
   0.3154986143959472    0.5355232878030698    0.6513573408005789 T T T Sb
   0.6845013856040525    0.4644767121969304    0.6700712306279925 T T T Sb
   0.5163375340907039    0.8885291161900960    0.6940946379870423 T T T Sb
   0.4836624659092957    0.1114708838099042    0.6987625048701006 T T T Sb
   0.8154986143959471    0.5355232878030699    0.6870716265148646 T T T Sb
   0.1845013856040526    0.4644767121969304    0.7057855163422782 T T T Sb
