Te36 Pt27
1.0
   3.4969338594529789    0.0000000000000000   -2.0189557050934952
   0.0000000000000059   36.6835566452305599    0.0000000000000022
   0.0000000000000000    0.0000000000000000   32.3032912814959090
Te Pt Te Pt Te Pt
12 9 12 9 12 9
Selective dynamics
direct
   0.0000000000000000    0.0533339883714727    0.4166666666666667 T T T Te
   0.3333333333333334    0.2799993449618606    0.3750000000000000 T T T Te
   0.0000000000000000    0.2043573248582292    0.4166666666666667 T T T Te
   0.3333333333333334    0.1289760084751042    0.3750000000000000 T T T Te
   0.3333333333333334    0.3866673217048060    0.3750000000000000 T T T Te
   0.6666666666666665    0.6133326782951940    0.3333333333333333 T T T Te
   0.3333333333333334    0.5376906581915625    0.3750000000000000 T T T Te
   0.6666666666666665    0.4623093418084375    0.3333333333333333 T T T Te
   0.6666666666666666    0.7200006550381394    0.3333333333333334 T T T Te
   0.0000000000000000    0.9466660116285274    0.4166666666666667 T T T Te
   0.6666666666666666    0.8710239915248958    0.3333333333333334 T T T Te
   0.0000000000000000    0.7956426751417708    0.4166666666666667 T T T Te
   0.6666666666666666    0.0200975879090232    0.3333333333333334 T T T Pt
   0.6666666666666665    0.1666666666666667    0.3333333333333333 T T T Pt
   0.6666666666666667    0.3132357454243101    0.3333333333333333 T T T Pt
   0.0000000000000000    0.3534309212423565    0.4166666666666667 T T T Pt
   0.9999999999999998    0.5000000000000000    0.4166666666666666 T T T Pt
   0.0000000000000000    0.6465690787576435    0.4166666666666667 T T T Pt
   0.3333333333333332    0.6867642545756898    0.3750000000000000 T T T Pt
   0.3333333333333330    0.8333333333333333    0.3750000000000000 T T T Pt
   0.3333333333333334    0.9799024120909768    0.3750000000000000 T T T Pt
   0.0000000000000000    0.0533339883714727    0.5416666666666667 F F F Te
   0.3333333333333334    0.2799993449618606    0.5000000000000000 F F F Te
   0.0000000000000000    0.2043573248582292    0.5416666666666667 F F F Te
   0.3333333333333334    0.1289760084751042    0.5000000000000000 F F F Te
   0.3333333333333334    0.3866673217048060    0.5000000000000000 F F F Te
   0.6666666666666665    0.6133326782951940    0.4583333333333333 F F F Te
   0.3333333333333334    0.5376906581915625    0.5000000000000000 F F F Te
   0.6666666666666665    0.4623093418084375    0.4583333333333333 F F F Te
   0.6666666666666666    0.7200006550381394    0.4583333333333334 F F F Te
   0.0000000000000000    0.9466660116285274    0.5416666666666667 F F F Te
   0.6666666666666666    0.8710239915248958    0.4583333333333334 F F F Te
   0.0000000000000000    0.7956426751417708    0.5416666666666667 F F F Te
   0.6666666666666666    0.0200975879090232    0.4583333333333334 F F F Pt
   0.6666666666666665    0.1666666666666667    0.4583333333333333 F F F Pt
   0.6666666666666667    0.3132357454243101    0.4583333333333333 F F F Pt
   0.0000000000000000    0.3534309212423565    0.5416666666666667 F F F Pt
   0.9999999999999998    0.5000000000000000    0.5416666666666666 F F F Pt
   0.0000000000000000    0.6465690787576435    0.5416666666666667 F F F Pt
   0.3333333333333332    0.6867642545756898    0.5000000000000000 F F F Pt
   0.3333333333333330    0.8333333333333333    0.5000000000000000 F F F Pt
   0.3333333333333334    0.9799024120909768    0.5000000000000000 F F F Pt
   0.0000000000000000    0.0533339883714727    0.6666666666666667 T T T Te
   0.3333333333333334    0.2799993449618606    0.6250000000000000 T T T Te
   0.0000000000000000    0.2043573248582292    0.6666666666666667 T T T Te
   0.3333333333333334    0.1289760084751042    0.6250000000000000 T T T Te
   0.3333333333333334    0.3866673217048060    0.6250000000000000 T T T Te
   0.6666666666666665    0.6133326782951940    0.5833333333333333 T T T Te
   0.3333333333333334    0.5376906581915625    0.6250000000000000 T T T Te
   0.6666666666666665    0.4623093418084375    0.5833333333333333 T T T Te
   0.6666666666666666    0.7200006550381394    0.5833333333333334 T T T Te
   0.0000000000000000    0.9466660116285274    0.6666666666666667 T T T Te
   0.6666666666666666    0.8710239915248958    0.5833333333333334 T T T Te
   0.0000000000000000    0.7956426751417708    0.6666666666666667 T T T Te
   0.6666666666666666    0.0200975879090232    0.5833333333333334 T T T Pt
   0.6666666666666665    0.1666666666666667    0.5833333333333333 T T T Pt
   0.6666666666666667    0.3132357454243101    0.5833333333333333 T T T Pt
   0.0000000000000000    0.3534309212423565    0.6666666666666667 T T T Pt
   0.9999999999999998    0.5000000000000000    0.6666666666666666 T T T Pt
   0.0000000000000000    0.6465690787576435    0.6666666666666667 T T T Pt
   0.3333333333333332    0.6867642545756898    0.6250000000000000 T T T Pt
   0.3333333333333330    0.8333333333333333    0.6250000000000000 T T T Pt
   0.3333333333333334    0.9799024120909768    0.6250000000000000 T T T Pt
