Te36 Pt27
1.0
   3.4969338594529789    0.0000000000000000   -2.0189557050934952
  -0.0000000000000185   36.6835566452305670   -4.0379114101869913
   0.0000000000000000    0.0000000000000000   32.3032912814959090
Te Pt Te Pt Te Pt
12 9 12 9 12 9
Selective dynamics
direct
   0.0000000000000000    0.0533339883714727    0.3905953199750055 T T T Te
   0.3333333333333334    0.2799993449618606    0.3772618228821373 T T T Te
   0.0000000000000000    0.2043573248582292    0.4094732370358500 T T T Te
   0.3333333333333334    0.1289760084751041    0.3583839058212928 T T T Te
   0.3333333333333334    0.3866673217048060    0.3905953199750055 T T T Te
   0.6666666666666665    0.6133326782951940    0.3772618228821373 T T T Te
   0.3333333333333334    0.5376906581915625    0.4094732370358500 T T T Te
   0.6666666666666665    0.4623093418084375    0.3583839058212928 T T T Te
   0.6666666666666666    0.7200006550381394    0.3905953199750055 T T T Te
   0.0000000000000000    0.9466660116285274    0.3772618228821373 T T T Te
   0.6666666666666666    0.8710239915248958    0.4094732370358501 T T T Te
   0.0000000000000000    0.7956426751417708    0.3583839058212928 T T T Te
   0.6666666666666666    0.0200975879090232    0.4281074365838660 T T T Pt
   0.6666666666666665    0.1666666666666667    0.3214285714285714 T T T Pt
   0.6666666666666667    0.3132357454243100    0.3397497062732768 T T T Pt
   0.0000000000000000    0.3534309212423565    0.4281074365838660 T T T Pt
   0.9999999999999998    0.4999999999999999    0.3214285714285714 T T T Pt
   0.0000000000000000    0.6465690787576435    0.3397497062732768 T T T Pt
   0.3333333333333332    0.6867642545756898    0.4281074365838660 T T T Pt
   0.3333333333333330    0.8333333333333333    0.3214285714285714 T T T Pt
   0.3333333333333334    0.9799024120909767    0.3397497062732768 T T T Pt
   0.0000000000000000    0.0533339883714727    0.5155953199750055 F F F Te
   0.3333333333333334    0.2799993449618606    0.5022618228821374 F F F Te
   0.0000000000000000    0.2043573248582292    0.5344732370358500 F F F Te
   0.3333333333333334    0.1289760084751041    0.4833839058212928 F F F Te
   0.3333333333333334    0.3866673217048060    0.5155953199750055 F F F Te
   0.6666666666666665    0.6133326782951940    0.5022618228821374 F F F Te
   0.3333333333333334    0.5376906581915625    0.5344732370358500 F F F Te
   0.6666666666666665    0.4623093418084375    0.4833839058212928 F F F Te
   0.6666666666666666    0.7200006550381394    0.5155953199750055 F F F Te
   0.0000000000000000    0.9466660116285274    0.5022618228821374 F F F Te
   0.6666666666666666    0.8710239915248958    0.5344732370358500 F F F Te
   0.0000000000000000    0.7956426751417708    0.4833839058212928 F F F Te
   0.6666666666666666    0.0200975879090232    0.5531074365838660 F F F Pt
   0.6666666666666665    0.1666666666666667    0.4464285714285714 F F F Pt
   0.6666666666666667    0.3132357454243100    0.4647497062732768 F F F Pt
   0.0000000000000000    0.3534309212423565    0.5531074365838660 F F F Pt
   0.9999999999999998    0.4999999999999999    0.4464285714285714 F F F Pt
   0.0000000000000000    0.6465690787576435    0.4647497062732768 F F F Pt
   0.3333333333333332    0.6867642545756898    0.5531074365838660 F F F Pt
   0.3333333333333330    0.8333333333333333    0.4464285714285714 F F F Pt
   0.3333333333333334    0.9799024120909767    0.4647497062732768 F F F Pt
   0.0000000000000000    0.0533339883714727    0.6405953199750055 T T T Te
   0.3333333333333334    0.2799993449618606    0.6272618228821374 T T T Te
   0.0000000000000000    0.2043573248582292    0.6594732370358500 T T T Te
   0.3333333333333334    0.1289760084751041    0.6083839058212928 T T T Te
   0.3333333333333334    0.3866673217048060    0.6405953199750055 T T T Te
   0.6666666666666665    0.6133326782951940    0.6272618228821374 T T T Te
   0.3333333333333334    0.5376906581915625    0.6594732370358500 T T T Te
   0.6666666666666665    0.4623093418084375    0.6083839058212928 T T T Te
   0.6666666666666666    0.7200006550381394    0.6405953199750055 T T T Te
   0.0000000000000000    0.9466660116285274    0.6272618228821374 T T T Te
   0.6666666666666666    0.8710239915248958    0.6594732370358500 T T T Te
   0.0000000000000000    0.7956426751417708    0.6083839058212928 T T T Te
   0.6666666666666666    0.0200975879090232    0.6781074365838660 T T T Pt
   0.6666666666666665    0.1666666666666667    0.5714285714285714 T T T Pt
   0.6666666666666667    0.3132357454243100    0.5897497062732768 T T T Pt
   0.0000000000000000    0.3534309212423565    0.6781074365838660 T T T Pt
   0.9999999999999998    0.4999999999999999    0.5714285714285714 T T T Pt
   0.0000000000000000    0.6465690787576435    0.5897497062732768 T T T Pt
   0.3333333333333332    0.6867642545756898    0.6781074365838660 T T T Pt
   0.3333333333333330    0.8333333333333333    0.5714285714285714 T T T Pt
   0.3333333333333334    0.9799024120909767    0.5897497062732768 T T T Pt
