Ba24 Ag24
1.0
   6.7467173642006308    0.0000000000000000    0.0000000000000004
   0.0000000000000028   17.5622906769165930   -5.0099204346098629
   0.0000000000000000    0.0000000000000000   35.0694430422690218
Ba Ag Ba Ag Ba Ag
8 8 8 8 8 8
Selective dynamics
direct
   0.1308607239072686    0.0902281271446306    0.3253897324492329 T T T Ba
   0.1308607239072686    0.5902281271446306    0.3968183038778043 F F F Ba
   0.8691392760927314    0.4097718728553695    0.2996102675507670 T T T Ba
   0.8691392760927314    0.9097718728553695    0.3710388389793385 T T T Ba
   0.6308607239072686    0.1597718728553694    0.4067531246936242 F F F Ba
   0.6308607239072686    0.6597718728553694    0.3353245532650527 T T T Ba
   0.3691392760927314    0.3402281271446306    0.3611040181635186 T T T Ba
   0.3691392760927314    0.8402281271446306    0.2896754467349472 T T T Ba
   0.6137831799401781    0.0169147098330349    0.3149163871190049 T T T Ag
   0.6137831799401781    0.5169147098330349    0.3863449585475763 F F F Ag
   0.3862168200598219    0.4830852901669651    0.3100836128809950 T T T Ag
   0.3862168200598219    0.9830852901669650    0.3815121843095664 F F F Ag
   0.1137831799401781    0.2330852901669652    0.4172264700238521 F F F Ag
   0.1137831799401781    0.7330852901669652    0.3457978985952807 T T T Ag
   0.8862168200598218    0.2669147098330349    0.3506306728332906 T T T Ag
   0.8862168200598218    0.7669147098330349    0.4220592442618621 F F F Ag
   0.1308607239072686    0.0902281271446306    0.4682468753063758 F F F Ba
   0.1308607239072686    0.5902281271446306    0.5396754467349472 F F F Ba
   0.8691392760927314    0.4097718728553695    0.4424674104079098 F F F Ba
   0.8691392760927314    0.9097718728553695    0.5138959818364813 F F F Ba
   0.6308607239072686    0.1597718728553694    0.5496102675507670 F F F Ba
   0.6308607239072686    0.6597718728553694    0.4781816961221956 F F F Ba
   0.3691392760927314    0.3402281271446306    0.5039611610206615 F F F Ba
   0.3691392760927314    0.8402281271446306    0.4325325895920901 F F F Ba
   0.6137831799401781    0.0169147098330349    0.4577735299761478 F F F Ag
   0.6137831799401781    0.5169147098330349    0.5292021014047192 F F F Ag
   0.3862168200598219    0.4830852901669651    0.4529407557381379 F F F Ag
   0.3862168200598219    0.9830852901669650    0.5243693271667093 F F F Ag
   0.1137831799401781    0.2330852901669652    0.5600836128809950 F F F Ag
   0.1137831799401781    0.7330852901669652    0.4886550414524236 F F F Ag
   0.8862168200598218    0.2669147098330349    0.4934878156904335 F F F Ag
   0.8862168200598218    0.7669147098330349    0.5649163871190049 F F F Ag
   0.1308607239072686    0.0902281271446306    0.6111040181635186 F F F Ba
   0.1308607239072686    0.5902281271446306    0.6825325895920900 T T T Ba
   0.8691392760927314    0.4097718728553695    0.5853245532650527 F F F Ba
   0.8691392760927314    0.9097718728553695    0.6567531246936242 T T T Ba
   0.6308607239072686    0.1597718728553694    0.6924674104079098 T T T Ba
   0.6308607239072686    0.6597718728553694    0.6210388389793384 T T T Ba
   0.3691392760927314    0.3402281271446306    0.6468183038778044 T T T Ba
   0.3691392760927314    0.8402281271446306    0.5753897324492329 F F F Ba
   0.6137831799401781    0.0169147098330349    0.6006306728332906 F F F Ag
   0.6137831799401781    0.5169147098330349    0.6720592442618620 T T T Ag
   0.3862168200598219    0.4830852901669651    0.5957978985952807 F F F Ag
   0.3862168200598219    0.9830852901669650    0.6672264700238522 T T T Ag
   0.1137831799401781    0.2330852901669652    0.7029407557381377 T T T Ag
   0.1137831799401781    0.7330852901669652    0.6315121843095663 T T T Ag
   0.8862168200598218    0.2669147098330349    0.6363449585475763 T T T Ag
   0.8862168200598218    0.7669147098330349    0.7077735299761478 T T T Ag
