Ba8 Ag8
1.0
   5.0099204346098603    0.0000000000000000    0.0000000000000003
   0.0000000000000014    8.7811453384583000   -6.7467173642006282
   0.0000000000000000    0.0000000000000000   33.7335868210031578
Ba Ag Ba Ag
4 4 4 4
Selective dynamics
direct
   0.7500000000000000    0.8195437457107387    0.3627366043606940 T T T Ba
   0.2500000000000000    0.1804562542892610    0.4872633956393059 F F F Ba
   0.2499999999999999    0.6804562542892612    0.4349191060763986 F F F Ba
   0.7500000000000000    0.3195437457107388    0.4150808939236015 T T T Ba
   0.7500000000000000    0.9661705803339301    0.4954774800787504 F F F Ag
   0.2500000000000000    0.0338294196660698    0.3545225199212496 T T T Ag
   0.2500000000000000    0.5338294196660698    0.3090092479451784 T T T Ag
   0.7500000000000000    0.4661705803339301    0.3409907520548217 T T T Ag
   0.7500000000000000    0.8195437457107387    0.5627366043606941 F F F Ba
   0.2500000000000000    0.1804562542892610    0.6872633956393059 T T T Ba
   0.2499999999999999    0.6804562542892612    0.6349191060763986 T T T Ba
   0.7500000000000000    0.3195437457107388    0.6150808939236014 T T T Ba
   0.7500000000000000    0.9661705803339301    0.6954774800787504 T T T Ag
   0.2500000000000000    0.0338294196660698    0.5545225199212496 F F F Ag
   0.2500000000000000    0.5338294196660698    0.5090092479451784 F F F Ag
   0.7500000000000000    0.4661705803339301    0.5409907520548216 F F F Ag
