Zr32 Sc64
1.0
  23.6862526998832976    0.0000000000000000    3.2802242054555806
  13.5910034709739680    7.4308276678810454    0.0000000000000009
   0.0000000000000000    0.0000000000000000   29.5220178491002052
Zr Sc Zr Sc Zr Sc Zr Sc
8 16 8 16 8 16 8 16
Selective dynamics
direct
   0.9164332084578827    0.1923186701090529    0.3426185323935687 T T T Zr
   0.4164332084578827    0.1923186701090529    0.2870629768380131 T T T Zr
   0.8335667915421174    0.8076813298909471    0.2962703564953204 T T T Zr
   0.3335667915421174    0.8076813298909471    0.3518259120508759 T T T Zr
   0.1664332084578826    0.1923186701090529    0.3703963101713464 T T T Zr
   0.6664332084578826    0.1923186701090529    0.3148407546157909 T T T Zr
   0.0835667915421175    0.8076813298909471    0.3240481342730981 T T T Zr
   0.5835667915421174    0.8076813298909471    0.3796036898286537 T T T Zr
   0.6643631423398650    0.8628596882519801    0.3150707619622373 T T T Sc
   0.1643631423398650    0.8628596882519801    0.3706263175177928 T T T Sc
   0.0856368576601351    0.1371403117480199    0.3238181269266517 T T T Sc
   0.5856368576601351    0.1371403117480199    0.3793736824822073 T T T Sc
   0.8300798339621444    0.4730433328293984    0.2966577962264285 T T T Sc
   0.3300798339621442    0.4730433328293984    0.3522133517819840 T T T Sc
   0.9199201660378559    0.5269566671706016    0.3422310926624605 T T T Sc
   0.4199201660378558    0.5269566671706016    0.2866755371069050 T T T Sc
   0.9143631423398652    0.8628596882519801    0.3428485397400151 T T T Sc
   0.4143631423398650    0.8628596882519801    0.2872929841844595 T T T Sc
   0.3356368576601350    0.1371403117480199    0.3515959047044295 T T T Sc
   0.8356368576601350    0.1371403117480199    0.2960403491488739 T T T Sc
   0.0800798339621443    0.4730433328293984    0.3244355740042063 T T T Sc
   0.5800798339621442    0.4730433328293984    0.3799911295597618 T T T Sc
   0.1699201660378558    0.5269566671706016    0.3700088704402383 T T T Sc
   0.6699201660378558    0.5269566671706016    0.3144533148846828 T T T Sc
   0.9164332084578827    0.1923186701090529    0.4537296435046798 F F F Zr
   0.4164332084578827    0.1923186701090529    0.3981740879491242 F F F Zr
   0.8335667915421174    0.8076813298909471    0.4073814676064315 F F F Zr
   0.3335667915421174    0.8076813298909471    0.4629370231619870 F F F Zr
   0.1664332084578826    0.1923186701090529    0.4815074212824575 F F F Zr
   0.6664332084578826    0.1923186701090529    0.4259518657269020 F F F Zr
   0.0835667915421175    0.8076813298909471    0.4351592453842092 F F F Zr
   0.5835667915421174    0.8076813298909471    0.4907148009397648 F F F Zr
   0.6643631423398650    0.8628596882519801    0.4261818730733484 F F F Sc
   0.1643631423398650    0.8628596882519801    0.4817374286289040 F F F Sc
   0.0856368576601351    0.1371403117480199    0.4349292380377628 F F F Sc
   0.5856368576601351    0.1371403117480199    0.4904847935933184 F F F Sc
   0.8300798339621444    0.4730433328293984    0.4077689073375396 F F F Sc
   0.3300798339621442    0.4730433328293984    0.4633244628930951 F F F Sc
   0.9199201660378559    0.5269566671706016    0.4533422037735716 F F F Sc
   0.4199201660378558    0.5269566671706016    0.3977866482180161 F F F Sc
   0.9143631423398652    0.8628596882519801    0.4539596508511261 F F F Sc
   0.4143631423398650    0.8628596882519801    0.3984040952955706 F F F Sc
   0.3356368576601350    0.1371403117480199    0.4627070158155406 F F F Sc
   0.8356368576601350    0.1371403117480199    0.4071514602599851 F F F Sc
   0.0800798339621443    0.4730433328293984    0.4355466851153174 F F F Sc
   0.5800798339621442    0.4730433328293984    0.4911022406708729 F F F Sc
   0.1699201660378558    0.5269566671706016    0.4811199815513494 F F F Sc
   0.6699201660378558    0.5269566671706016    0.4255644259957939 F F F Sc
   0.9164332084578827    0.1923186701090529    0.5648407546157909 F F F Zr
   0.4164332084578827    0.1923186701090529    0.5092851990602353 F F F Zr
   0.8335667915421174    0.8076813298909471    0.5184925787175425 F F F Zr
   0.3335667915421174    0.8076813298909471    0.5740481342730981 F F F Zr
   0.1664332084578826    0.1923186701090529    0.5926185323935687 F F F Zr
   0.6664332084578826    0.1923186701090529    0.5370629768380131 F F F Zr
   0.0835667915421175    0.8076813298909471    0.5462703564953203 F F F Zr
   0.5835667915421174    0.8076813298909471    0.6018259120508759 F F F Zr
   0.6643631423398650    0.8628596882519801    0.5372929841844595 F F F Sc
   0.1643631423398650    0.8628596882519801    0.5928485397400151 F F F Sc
   0.0856368576601351    0.1371403117480199    0.5460403491488739 F F F Sc
   0.5856368576601351    0.1371403117480199    0.6015959047044295 F F F Sc
   0.8300798339621444    0.4730433328293984    0.5188800184486506 F F F Sc
   0.3300798339621442    0.4730433328293984    0.5744355740042062 F F F Sc
   0.9199201660378559    0.5269566671706016    0.5644533148846826 F F F Sc
   0.4199201660378558    0.5269566671706016    0.5088977593291272 F F F Sc
   0.9143631423398652    0.8628596882519801    0.5650707619622373 F F F Sc
   0.4143631423398650    0.8628596882519801    0.5095152064066817 F F F Sc
   0.3356368576601350    0.1371403117480199    0.5738181269266517 F F F Sc
   0.8356368576601350    0.1371403117480199    0.5182625713710962 F F F Sc
   0.0800798339621443    0.4730433328293984    0.5466577962264285 F F F Sc
   0.5800798339621442    0.4730433328293984    0.6022133517819841 F F F Sc
   0.1699201660378558    0.5269566671706016    0.5922310926624605 F F F Sc
   0.6699201660378558    0.5269566671706016    0.5366755371069050 F F F Sc
   0.9164332084578827    0.1923186701090529    0.6759518657269019 T T T Zr
   0.4164332084578827    0.1923186701090529    0.6203963101713463 T T T Zr
   0.8335667915421174    0.8076813298909471    0.6296036898286537 T T T Zr
   0.3335667915421174    0.8076813298909471    0.6851592453842092 T T T Zr
   0.1664332084578826    0.1923186701090529    0.7037296435046798 T T T Zr
   0.6664332084578826    0.1923186701090529    0.6481740879491242 T T T Zr
   0.0835667915421175    0.8076813298909471    0.6573814676064313 T T T Zr
   0.5835667915421174    0.8076813298909471    0.7129370231619869 T T T Zr
   0.6643631423398650    0.8628596882519801    0.6484040952955705 T T T Sc
   0.1643631423398650    0.8628596882519801    0.7039596508511261 T T T Sc
   0.0856368576601351    0.1371403117480199    0.6571514602599851 T T T Sc
   0.5856368576601351    0.1371403117480199    0.7127070158155406 T T T Sc
   0.8300798339621444    0.4730433328293984    0.6299911295597618 T T T Sc
   0.3300798339621442    0.4730433328293984    0.6855466851153174 T T T Sc
   0.9199201660378559    0.5269566671706016    0.6755644259957938 T T T Sc
   0.4199201660378558    0.5269566671706016    0.6200088704402382 T T T Sc
   0.9143631423398652    0.8628596882519801    0.6761818730733483 T T T Sc
   0.4143631423398650    0.8628596882519801    0.6206263175177928 T T T Sc
   0.3356368576601350    0.1371403117480199    0.6849292380377628 T T T Sc
   0.8356368576601350    0.1371403117480199    0.6293736824822073 T T T Sc
   0.0800798339621443    0.4730433328293984    0.6577689073375396 T T T Sc
   0.5800798339621442    0.4730433328293984    0.7133244628930951 T T T Sc
   0.1699201660378558    0.5269566671706016    0.7033422037735716 T T T Sc
   0.6699201660378558    0.5269566671706016    0.6477866482180161 T T T Sc
