Zr16 Sc32
1.0
   3.2802242054555784    0.0000000000000000    0.0000000000000002
  -0.0000000000000014   23.0569874778602575   13.0570857400390370
   0.0000000000000000    0.0000000000000000   38.1681392852647079
Zr Sc Zr Sc
8 16 8 16
Selective dynamics
direct
   0.5000000000000000    0.0125925435124090    0.3109452253193287 T T T Zr
   0.5000000000000000    0.5125925435124090    0.4109452253193288 F F F Zr
   0.0000000000000000    0.2374074564875910    0.3890547746806712 T T T Zr
   0.0000000000000000    0.7374074564875910    0.4890547746806712 F F F Zr
   0.0000000000000000    0.2625925435124090    0.4609452253193287 F F F Zr
   0.0000000000000000    0.7625925435124090    0.3609452253193287 T T T Zr
   0.5000000000000000    0.4874074564875909    0.3390547746806712 T T T Zr
   0.5000000000000000    0.9874074564875910    0.4390547746806712 F F F Zr
   0.0000000000000000    0.0957929864658551    0.4284133403572249 F F F Sc
   0.0000000000000000    0.5957929864658551    0.3284133403572250 T T T Sc
   0.5000000000000000    0.1542070135341449    0.4715866596427750 F F F Sc
   0.5000000000000000    0.6542070135341449    0.3715866596427749 T T T Sc
   0.0000000000000000    0.0666015003768434    0.3562883664905109 T T T Sc
   0.0000000000000000    0.5666015003768434    0.4562883664905110 F F F Sc
   0.5000000000000000    0.1833984996231566    0.3437116335094890 T T T Sc
   0.5000000000000000    0.6833984996231566    0.4437116335094889 F F F Sc
   0.5000000000000000    0.3457929864658550    0.3784133403572250 T T T Sc
   0.5000000000000000    0.8457929864658551    0.4784133403572249 F F F Sc
   0.0000000000000000    0.4042070135341449    0.4215866596427750 F F F Sc
   0.0000000000000000    0.9042070135341449    0.3215866596427749 T T T Sc
   0.5000000000000000    0.3166015003768434    0.3062883664905109 T T T Sc
   0.5000000000000000    0.8166015003768434    0.4062883664905109 F F F Sc
   0.0000000000000000    0.4333984996231566    0.4937116335094890 F F F Sc
   0.0000000000000000    0.9333984996231566    0.3937116335094890 T T T Sc
   0.5000000000000000    0.0125925435124090    0.5109452253193287 F F F Zr
   0.5000000000000000    0.5125925435124090    0.6109452253193287 T T T Zr
   0.0000000000000000    0.2374074564875910    0.5890547746806711 F F F Zr
   0.0000000000000000    0.7374074564875910    0.6890547746806712 T T T Zr
   0.0000000000000000    0.2625925435124090    0.6609452253193288 T T T Zr
   0.0000000000000000    0.7625925435124090    0.5609452253193288 F F F Zr
   0.5000000000000000    0.4874074564875909    0.5390547746806712 F F F Zr
   0.5000000000000000    0.9874074564875910    0.6390547746806712 T T T Zr
   0.0000000000000000    0.0957929864658551    0.6284133403572250 T T T Sc
   0.0000000000000000    0.5957929864658551    0.5284133403572250 F F F Sc
   0.5000000000000000    0.1542070135341449    0.6715866596427750 T T T Sc
   0.5000000000000000    0.6542070135341449    0.5715866596427750 F F F Sc
   0.0000000000000000    0.0666015003768434    0.5562883664905109 F F F Sc
   0.0000000000000000    0.5666015003768434    0.6562883664905109 T T T Sc
   0.5000000000000000    0.1833984996231566    0.5437116335094889 F F F Sc
   0.5000000000000000    0.6833984996231566    0.6437116335094890 T T T Sc
   0.5000000000000000    0.3457929864658550    0.5784133403572249 F F F Sc
   0.5000000000000000    0.8457929864658551    0.6784133403572250 T T T Sc
   0.0000000000000000    0.4042070135341449    0.6215866596427749 T T T Sc
   0.0000000000000000    0.9042070135341449    0.5215866596427750 F F F Sc
   0.5000000000000000    0.3166015003768434    0.5062883664905109 F F F Sc
   0.5000000000000000    0.8166015003768434    0.6062883664905110 T T T Sc
   0.0000000000000000    0.4333984996231566    0.6937116335094889 T T T Sc
   0.0000000000000000    0.9333984996231566    0.5937116335094890 F F F Sc
