Zr16 Sc32
1.0
   3.2802242054555784    0.0000000000000000    0.0000000000000002
   0.0000000000000024   14.8616553357620855  -15.3388805920062925
   0.0000000000000000    0.0000000000000000   47.3725053997665952
Zr Sc Zr Sc
8 16 8 16
Selective dynamics
direct
   0.5000000000000000    0.0961593350545265    0.2677435620074270 T T T Zr
   0.5000000000000000    0.5961593350545266    0.3927435620074271 F F F Zr
   0.0000000000000000    0.4038406649454735    0.4822564379925729 F F F Zr
   0.0000000000000000    0.9038406649454735    0.3572564379925729 T T T Zr
   0.0000000000000000    0.0961593350545265    0.3927435620074270 F F F Zr
   0.0000000000000000    0.5961593350545265    0.2677435620074271 T T T Zr
   0.5000000000000000    0.4038406649454735    0.3572564379925728 T T T Zr
   0.5000000000000000    0.9038406649454735    0.4822564379925729 F F F Zr
   0.0000000000000000    0.4314298441259901    0.3099609677985700 T T T Sc
   0.0000000000000000    0.9314298441259901    0.4349609677985700 F F F Sc
   0.5000000000000000    0.0685701558740100    0.4400390322014300 F F F Sc
   0.5000000000000000    0.5685701558740101    0.3150390322014300 T T T Sc
   0.0000000000000000    0.2365216664146992    0.2758296664152531 T T T Sc
   0.0000000000000000    0.7365216664146992    0.4008296664152530 F F F Sc
   0.5000000000000000    0.2634783335853009    0.4741703335847469 F F F Sc
   0.5000000000000000    0.7634783335853009    0.3491703335847469 T T T Sc
   0.5000000000000000    0.4314298441259901    0.4349609677985700 F F F Sc
   0.5000000000000000    0.9314298441259901    0.3099609677985700 T T T Sc
   0.0000000000000000    0.0685701558740099    0.3150390322014300 T T T Sc
   0.0000000000000000    0.5685701558740099    0.4400390322014300 F F F Sc
   0.5000000000000000    0.2365216664146992    0.4008296664152531 F F F Sc
   0.5000000000000000    0.7365216664146992    0.2758296664152531 T T T Sc
   0.0000000000000000    0.2634783335853008    0.3491703335847469 T T T Sc
   0.0000000000000000    0.7634783335853009    0.4741703335847469 F F F Sc
   0.5000000000000000    0.0961593350545265    0.5177435620074271 F F F Zr
   0.5000000000000000    0.5961593350545266    0.6427435620074271 T T T Zr
   0.0000000000000000    0.4038406649454735    0.7322564379925729 T T T Zr
   0.0000000000000000    0.9038406649454735    0.6072564379925729 F F F Zr
   0.0000000000000000    0.0961593350545265    0.6427435620074271 T T T Zr
   0.0000000000000000    0.5961593350545265    0.5177435620074271 F F F Zr
   0.5000000000000000    0.4038406649454735    0.6072564379925729 F F F Zr
   0.5000000000000000    0.9038406649454735    0.7322564379925729 T T T Zr
   0.0000000000000000    0.4314298441259901    0.5599609677985700 F F F Sc
   0.0000000000000000    0.9314298441259901    0.6849609677985700 T T T Sc
   0.5000000000000000    0.0685701558740100    0.6900390322014300 T T T Sc
   0.5000000000000000    0.5685701558740101    0.5650390322014300 F F F Sc
   0.0000000000000000    0.2365216664146992    0.5258296664152531 F F F Sc
   0.0000000000000000    0.7365216664146992    0.6508296664152531 T T T Sc
   0.5000000000000000    0.2634783335853009    0.7241703335847469 T T T Sc
   0.5000000000000000    0.7634783335853009    0.5991703335847469 F F F Sc
   0.5000000000000000    0.4314298441259901    0.6849609677985700 T T T Sc
   0.5000000000000000    0.9314298441259901    0.5599609677985700 F F F Sc
   0.0000000000000000    0.0685701558740099    0.5650390322014300 F F F Sc
   0.0000000000000000    0.5685701558740099    0.6900390322014300 T T T Sc
   0.5000000000000000    0.2365216664146992    0.6508296664152531 T T T Sc
   0.5000000000000000    0.7365216664146992    0.5258296664152531 F F F Sc
   0.0000000000000000    0.2634783335853008    0.5991703335847469 F F F Sc
   0.0000000000000000    0.7634783335853009    0.7241703335847469 T T T Sc
