Si24 Pd48
1.0
   5.6485229314917964    0.0000000000000000   -9.7835287050616806
   0.0000000000000058    7.0469647711935366   -6.5223524700411204
   0.0000000000000000    0.0000000000000000   65.2235247004112182
Si Pd Si Pd Si Pd Si Pd
6 12 6 12 6 12 6 12
Selective dynamics
direct
   0.3333333333333333    0.0000000000000000    0.3694444444444444 T T T Si
   0.3333333333333333    0.4999999999999999    0.3194444444444444 T T T Si
   0.6666666666666666    0.0000000000000000    0.3694444444444444 T T T Si
   0.6666666666666666    0.4999999999999999    0.3194444444444444 T T T Si
   0.0000000000000000    0.2500000000000000    0.3944444444444444 T T T Si
   0.0000000000000000    0.7500000000000000    0.3444444444444444 T T T Si
   0.7352479574303460    0.0000000000000000    0.3164940359305136 T T T Pd
   0.7352479574303460    0.4999999999999999    0.3664940359305136 T T T Pd
   0.0000000000000000    0.0000000000000000    0.3959196487014098 T T T Pd
   0.0000000000000000    0.5000000000000000    0.3459196487014098 T T T Pd
   0.2647520425696542    0.0000000000000000    0.3959196487014098 T T T Pd
   0.2647520425696542    0.5000000000000000    0.3459196487014098 T T T Pd
   0.3934422379372933    0.2500000000000000    0.3731328920319030 T T T Pd
   0.3934422379372933    0.7500000000000000    0.3231328920319031 T T T Pd
   0.0000000000000001    0.2500000000000000    0.3551002206507151 T T T Pd
   0.0000000000000001    0.7500000000000000    0.3051002206507151 T T T Pd
   0.6065577620627068    0.2500000000000000    0.3551002206507151 T T T Pd
   0.6065577620627068    0.7500000000000000    0.3051002206507151 T T T Pd
   0.3333333333333333    0.0000000000000000    0.4694444444444444 F F F Si
   0.3333333333333333    0.4999999999999999    0.4194444444444444 F F F Si
   0.6666666666666666    0.0000000000000000    0.4694444444444444 F F F Si
   0.6666666666666666    0.4999999999999999    0.4194444444444444 F F F Si
   0.0000000000000000    0.2500000000000000    0.4944444444444444 F F F Si
   0.0000000000000000    0.7500000000000000    0.4444444444444444 F F F Si
   0.7352479574303460    0.0000000000000000    0.4164940359305136 F F F Pd
   0.7352479574303460    0.4999999999999999    0.4664940359305136 F F F Pd
   0.0000000000000000    0.0000000000000000    0.4959196487014098 F F F Pd
   0.0000000000000000    0.5000000000000000    0.4459196487014098 F F F Pd
   0.2647520425696542    0.0000000000000000    0.4959196487014098 F F F Pd
   0.2647520425696542    0.5000000000000000    0.4459196487014098 F F F Pd
   0.3934422379372933    0.2500000000000000    0.4731328920319031 F F F Pd
   0.3934422379372933    0.7500000000000000    0.4231328920319031 F F F Pd
   0.0000000000000001    0.2500000000000000    0.4551002206507151 F F F Pd
   0.0000000000000001    0.7500000000000000    0.4051002206507151 T T T Pd
   0.6065577620627068    0.2500000000000000    0.4551002206507151 F F F Pd
   0.6065577620627068    0.7500000000000000    0.4051002206507151 T T T Pd
   0.3333333333333333    0.0000000000000000    0.5694444444444444 F F F Si
   0.3333333333333333    0.4999999999999999    0.5194444444444444 F F F Si
   0.6666666666666666    0.0000000000000000    0.5694444444444444 F F F Si
   0.6666666666666666    0.4999999999999999    0.5194444444444444 F F F Si
   0.0000000000000000    0.2500000000000000    0.5944444444444444 F F F Si
   0.0000000000000000    0.7500000000000000    0.5444444444444444 F F F Si
   0.7352479574303460    0.0000000000000000    0.5164940359305137 F F F Pd
   0.7352479574303460    0.4999999999999999    0.5664940359305136 F F F Pd
   0.0000000000000000    0.0000000000000000    0.5959196487014098 T T T Pd
   0.0000000000000000    0.5000000000000000    0.5459196487014099 F F F Pd
   0.2647520425696542    0.0000000000000000    0.5959196487014098 T T T Pd
   0.2647520425696542    0.5000000000000000    0.5459196487014099 F F F Pd
   0.3934422379372933    0.2500000000000000    0.5731328920319031 F F F Pd
   0.3934422379372933    0.7500000000000000    0.5231328920319032 F F F Pd
   0.0000000000000001    0.2500000000000000    0.5551002206507152 F F F Pd
   0.0000000000000001    0.7500000000000000    0.5051002206507151 F F F Pd
   0.6065577620627068    0.2500000000000000    0.5551002206507152 F F F Pd
   0.6065577620627068    0.7500000000000000    0.5051002206507151 F F F Pd
   0.3333333333333333    0.0000000000000000    0.6694444444444444 T T T Si
   0.3333333333333333    0.4999999999999999    0.6194444444444445 T T T Si
   0.6666666666666666    0.0000000000000000    0.6694444444444444 T T T Si
   0.6666666666666666    0.4999999999999999    0.6194444444444445 T T T Si
   0.0000000000000000    0.2500000000000000    0.6944444444444444 T T T Si
   0.0000000000000000    0.7500000000000000    0.6444444444444444 T T T Si
   0.7352479574303460    0.0000000000000000    0.6164940359305136 T T T Pd
   0.7352479574303460    0.4999999999999999    0.6664940359305136 T T T Pd
   0.0000000000000000    0.0000000000000000    0.6959196487014099 T T T Pd
   0.0000000000000000    0.5000000000000000    0.6459196487014098 T T T Pd
   0.2647520425696542    0.0000000000000000    0.6959196487014099 T T T Pd
   0.2647520425696542    0.5000000000000000    0.6459196487014098 T T T Pd
   0.3934422379372933    0.2500000000000000    0.6731328920319031 T T T Pd
   0.3934422379372933    0.7500000000000000    0.6231328920319030 T T T Pd
   0.0000000000000001    0.2500000000000000    0.6551002206507150 T T T Pd
   0.0000000000000001    0.7500000000000000    0.6051002206507151 T T T Pd
   0.6065577620627068    0.2500000000000000    0.6551002206507150 T T T Pd
   0.6065577620627068    0.7500000000000000    0.6051002206507151 T T T Pd
