Sc4 Zn12
1.0
   5.1290279555040694    0.0000000000000000   -2.9612456707913917
   0.0000000000000007    4.3907291921049749    0.0000000000000003
   0.0000000000000000    0.0000000000000000   29.6124567079139069
Sc Zn Sc Zn
2 6 2 6
Selective dynamics
direct
   0.3333333333333334    0.2500000000000000    0.3833333333333333 T T T Sc
   0.6666666666666667    0.7500000000000000    0.3166666666666667 T T T Sc
   0.8416073465170157    0.2500000000000000    0.3866429386068063 T T T Zn
   0.8416073465170157    0.2500000000000000    0.4816785306965968 F F F Zn
   0.1583926534829843    0.7500000000000000    0.3133570613931937 T T T Zn
   0.1583926534829842    0.7500000000000000    0.4183214693034031 T T T Zn
   0.6832146930340315    0.7500000000000000    0.4183214693034031 T T T Zn
   0.3167853069659685    0.2500000000000000    0.4816785306965968 F F F Zn
   0.3333333333333334    0.2500000000000000    0.5833333333333333 T T T Sc
   0.6666666666666667    0.7500000000000000    0.5166666666666666 F F F Sc
   0.8416073465170157    0.2500000000000000    0.5866429386068063 T T T Zn
   0.8416073465170157    0.2500000000000000    0.6816785306965969 T T T Zn
   0.1583926534829843    0.7500000000000000    0.5133570613931937 F F F Zn
   0.1583926534829842    0.7500000000000000    0.6183214693034031 T T T Zn
   0.6832146930340315    0.7500000000000000    0.6183214693034031 T T T Zn
   0.3167853069659685    0.2500000000000000    0.6816785306965969 T T T Zn
