Ta12 Pd12
1.0
   4.6830654461312564    0.0000000000000000    0.0000000000000003
   4.6830654461312564    4.6830654461312564    6.0938792130866402
   0.0000000000000000    0.0000000000000000   48.7510337046931213
Ta Pd Ta Pd Ta Pd
4 4 4 4 4 4
Selective dynamics
direct
   0.4999999999999999    0.2499999999999999    0.3570660046930865 T T T Ta
   0.4999999999999999    0.7500000000000000    0.4195660046930865 T T T Ta
   0.0000000000000000    0.2500000000000000    0.3929339953069135 T T T Ta
   0.0000000000000000    0.7500000000000000    0.3304339953069135 T T T Ta
   0.4999999999999999    0.2499999999999999    0.4211021645979072 T T T Pd
   0.4999999999999999    0.7500000000000000    0.3586021645979072 T T T Pd
   0.0000000000000000    0.2500000000000000    0.3288978354020928 T T T Pd
   0.0000000000000000    0.7500000000000000    0.3913978354020928 T T T Pd
   0.4999999999999999    0.2499999999999999    0.4820660046930865 F F F Ta
   0.4999999999999999    0.7500000000000000    0.5445660046930865 F F F Ta
   0.0000000000000000    0.2500000000000000    0.5179339953069135 F F F Ta
   0.0000000000000000    0.7500000000000000    0.4554339953069135 F F F Ta
   0.4999999999999999    0.2499999999999999    0.5461021645979072 F F F Pd
   0.4999999999999999    0.7500000000000000    0.4836021645979072 F F F Pd
   0.0000000000000000    0.2500000000000000    0.4538978354020928 F F F Pd
   0.0000000000000000    0.7500000000000000    0.5163978354020928 F F F Pd
   0.4999999999999999    0.2499999999999999    0.6070660046930865 T T T Ta
   0.4999999999999999    0.7500000000000000    0.6695660046930865 T T T Ta
   0.0000000000000000    0.2500000000000000    0.6429339953069135 T T T Ta
   0.0000000000000000    0.7500000000000000    0.5804339953069135 T T T Ta
   0.4999999999999999    0.2499999999999999    0.6711021645979072 T T T Pd
   0.4999999999999999    0.7500000000000000    0.6086021645979072 T T T Pd
   0.0000000000000000    0.2500000000000000    0.5788978354020928 T T T Pd
   0.0000000000000000    0.7500000000000000    0.6413978354020928 T T T Pd
