Re12 Ru36
1.0
   5.4697347418108784    0.0000000000000000    0.0000000000000003
   5.4697347418108802    9.4738584767410750    4.3251714663671210
   0.0000000000000000    0.0000000000000000   30.2762002645698409
Re Ru Re Ru Re Ru
4 12 4 12 4 12
Selective dynamics
direct
   0.6666666666666667    0.3333333333333334    0.3095238095238095 T T T Re
   0.6666666666666666    0.8333333333333334    0.3809523809523809 T T T Re
   0.3333333333333334    0.1666666666666666    0.4047619047619048 T T T Re
   0.3333333333333334    0.6666666666666666    0.3333333333333333 T T T Re
   0.8326628022502334    0.4163314011251167    0.3690955141249833 T T T Ru
   0.8326628022502334    0.9163314011251167    0.2976669426964119 T T T Ru
   0.3346743954995333    0.4163314011251167    0.3690955141249833 T T T Ru
   0.3346743954995333    0.9163314011251167    0.2976669426964119 T T T Ru
   0.8326628022502334    0.1673371977497667    0.4046661146071762 T T T Ru
   0.8326628022502334    0.6673371977497666    0.3332375431786048 T T T Ru
   0.1673371977497666    0.0836685988748833    0.3451902001607309 T T T Ru
   0.1673371977497666    0.5836685988748833    0.4166187715893024 F F F Ru
   0.6653256045004668    0.0836685988748833    0.3451902001607309 T T T Ru
   0.6653256045004668    0.5836685988748833    0.4166187715893024 F F F Ru
   0.1673371977497667    0.3326628022502334    0.3096195996785381 T T T Ru
   0.1673371977497667    0.8326628022502334    0.3810481711071095 T T T Ru
   0.6666666666666667    0.3333333333333334    0.4523809523809523 F F F Re
   0.6666666666666666    0.8333333333333334    0.5238095238095237 F F F Re
   0.3333333333333334    0.1666666666666666    0.5476190476190476 F F F Re
   0.3333333333333334    0.6666666666666666    0.4761904761904762 F F F Re
   0.8326628022502334    0.4163314011251167    0.5119526569821262 F F F Ru
   0.8326628022502334    0.9163314011251167    0.4405240855535547 F F F Ru
   0.3346743954995333    0.4163314011251167    0.5119526569821262 F F F Ru
   0.3346743954995333    0.9163314011251167    0.4405240855535547 F F F Ru
   0.8326628022502334    0.1673371977497667    0.5475232574643190 F F F Ru
   0.8326628022502334    0.6673371977497666    0.4760946860357476 F F F Ru
   0.1673371977497666    0.0836685988748833    0.4880473430178738 F F F Ru
   0.1673371977497666    0.5836685988748833    0.5594759144464452 F F F Ru
   0.6653256045004668    0.0836685988748833    0.4880473430178738 F F F Ru
   0.6653256045004668    0.5836685988748833    0.5594759144464452 F F F Ru
   0.1673371977497667    0.3326628022502334    0.4524767425356809 F F F Ru
   0.1673371977497667    0.8326628022502334    0.5239053139642523 F F F Ru
   0.6666666666666667    0.3333333333333334    0.5952380952380951 T T T Re
   0.6666666666666666    0.8333333333333334    0.6666666666666666 T T T Re
   0.3333333333333334    0.1666666666666666    0.6904761904761905 T T T Re
   0.3333333333333334    0.6666666666666666    0.6190476190476191 T T T Re
   0.8326628022502334    0.4163314011251167    0.6548097998392690 T T T Ru
   0.8326628022502334    0.9163314011251167    0.5833812284106976 F F F Ru
   0.3346743954995333    0.4163314011251167    0.6548097998392690 T T T Ru
   0.3346743954995333    0.9163314011251167    0.5833812284106976 F F F Ru
   0.8326628022502334    0.1673371977497667    0.6903804003214619 T T T Ru
   0.8326628022502334    0.6673371977497666    0.6189518288928905 T T T Ru
   0.1673371977497666    0.0836685988748833    0.6309044858750166 T T T Ru
   0.1673371977497666    0.5836685988748833    0.7023330573035881 T T T Ru
   0.6653256045004668    0.0836685988748833    0.6309044858750166 T T T Ru
   0.6653256045004668    0.5836685988748833    0.7023330573035881 T T T Ru
   0.1673371977497667    0.3326628022502334    0.5953338853928238 T T T Ru
   0.1673371977497667    0.8326628022502334    0.6667624568213952 T T T Ru
