Y24 Pt24
1.0
   9.0683820078309250    0.0000000000000000    5.5843757218308347
   4.5341910039154607    7.0470752396182990    0.0000000000000005
   0.0000000000000000    0.0000000000000000   39.0906300528158468
Y Pt Y Pt Y Pt
8 8 8 8 8 8
Selective dynamics
direct
   0.2840539296459212    0.1818921407081575    0.3276377995077522 T T T Y
   0.7840539296459212    0.1818921407081575    0.3990663709363237 F F F Y
   0.7159460703540785    0.8181078592918425    0.3687907719208192 T T T Y
   0.2159460703540786    0.8181078592918425    0.4402193433493906 F F F Y
   0.9659460703540788    0.3181078592918424    0.3016532079780155 T T T Y
   0.4659460703540788    0.3181078592918424    0.3730817794065869 T T T Y
   0.0340539296459212    0.6818921407081574    0.3947753634505560 T T T Y
   0.5340539296459212    0.6818921407081574    0.3233467920219845 T T T Y
   0.3535971461483598    0.0428057077032804    0.3910246877707918 T T T Pt
   0.8535971461483598    0.0428057077032804    0.3195961163422203 T T T Pt
   0.6464028538516401    0.9571942922967195    0.3054038836577797 T T T Pt
   0.1464028538516401    0.9571942922967195    0.3768324550863511 T T T Pt
   0.8964028538516401    0.4571942922967196    0.3849095866703232 T T T Pt
   0.3964028538516401    0.4571942922967196    0.3134810152417517 T T T Pt
   0.1035971461483597    0.5428057077032804    0.3115189847582483 T T T Pt
   0.6035971461483598    0.5428057077032804    0.3829475561868197 T T T Pt
   0.2840539296459212    0.1818921407081575    0.4704949423648951 F F F Y
   0.7840539296459212    0.1818921407081575    0.5419235137934666 F F F Y
   0.7159460703540785    0.8181078592918425    0.5116479147779620 F F F Y
   0.2159460703540786    0.8181078592918425    0.5830764862065335 F F F Y
   0.9659460703540788    0.3181078592918424    0.4445103508351583 F F F Y
   0.4659460703540788    0.3181078592918424    0.5159389222637297 F F F Y
   0.0340539296459212    0.6818921407081574    0.5376325063076988 F F F Y
   0.5340539296459212    0.6818921407081574    0.4662039348791274 F F F Y
   0.3535971461483598    0.0428057077032804    0.5338818306279347 F F F Pt
   0.8535971461483598    0.0428057077032804    0.4624532591993632 F F F Pt
   0.6464028538516401    0.9571942922967195    0.4482610265149225 F F F Pt
   0.1464028538516401    0.9571942922967195    0.5196895979434939 F F F Pt
   0.8964028538516401    0.4571942922967196    0.5277667295274659 F F F Pt
   0.3964028538516401    0.4571942922967196    0.4563381580988946 F F F Pt
   0.1035971461483597    0.5428057077032804    0.4543761276153911 F F F Pt
   0.6035971461483598    0.5428057077032804    0.5258046990439627 F F F Pt
   0.2840539296459212    0.1818921407081575    0.6133520852220380 F F F Y
   0.7840539296459212    0.1818921407081575    0.6847806566506094 T T T Y
   0.7159460703540785    0.8181078592918425    0.6545050576351049 T T T Y
   0.2159460703540786    0.8181078592918425    0.7259336290636763 T T T Y
   0.9659460703540788    0.3181078592918424    0.5873674936923012 F F F Y
   0.4659460703540788    0.3181078592918424    0.6587960651208726 T T T Y
   0.0340539296459212    0.6818921407081574    0.6804896491648417 T T T Y
   0.5340539296459212    0.6818921407081574    0.6090610777362702 F F F Y
   0.3535971461483598    0.0428057077032804    0.6767389734850775 T T T Pt
   0.8535971461483598    0.0428057077032804    0.6053104020565061 F F F Pt
   0.6464028538516401    0.9571942922967195    0.5911181693720654 F F F Pt
   0.1464028538516401    0.9571942922967195    0.6625467408006368 T T T Pt
   0.8964028538516401    0.4571942922967196    0.6706238723846089 T T T Pt
   0.3964028538516401    0.4571942922967196    0.5991953009560373 F F F Pt
   0.1035971461483597    0.5428057077032804    0.5972332704725341 F F F Pt
   0.6035971461483598    0.5428057077032804    0.6686618419011054 T T T Pt
