Hf16 Sb16
1.0
   5.6321329515124026    0.0000000000000000   -5.6321329515124017
  -0.0000000000000003    5.6321329515124035   -5.6321329515124026
   0.0000000000000000    0.0000000000000000   50.6891965636116240
Hf Sb Hf Sb Hf Sb Hf Sb
4 4 4 4 4 4 4 4
Selective dynamics
direct
   0.8557566672076433    0.6442433327923567    0.3173062963564048 T T T Hf
   0.6442433327923567    0.3557566672076434    0.3173062963564048 T T T Hf
   0.3557566672076434    0.8557566672076434    0.3173062963564048 T T T Hf
   0.1442433327923567    0.1442433327923567    0.3814144442641189 T T T Hf
   0.1562521130557144    0.3437478869442856    0.3506946792284127 T T T Sb
   0.3437478869442856    0.6562521130557144    0.3506946792284127 T T T Sb
   0.6562521130557144    0.1562521130557144    0.3506946792284127 T T T Sb
   0.8437478869442856    0.8437478869442857    0.2812492956480952 T T T Sb
   0.8557566672076433    0.6442433327923567    0.4284174074675159 F F F Hf
   0.6442433327923567    0.3557566672076434    0.4284174074675159 F F F Hf
   0.3557566672076434    0.8557566672076434    0.4284174074675159 F F F Hf
   0.1442433327923567    0.1442433327923567    0.4925255553752300 F F F Hf
   0.1562521130557144    0.3437478869442856    0.4618057903395238 F F F Sb
   0.3437478869442856    0.6562521130557144    0.4618057903395238 F F F Sb
   0.6562521130557144    0.1562521130557144    0.4618057903395238 F F F Sb
   0.8437478869442856    0.8437478869442857    0.3923604067592063 F F F Sb
   0.8557566672076433    0.6442433327923567    0.5395285185786270 F F F Hf
   0.6442433327923567    0.3557566672076434    0.5395285185786270 F F F Hf
   0.3557566672076434    0.8557566672076434    0.5395285185786270 F F F Hf
   0.1442433327923567    0.1442433327923567    0.6036366664863411 F F F Hf
   0.1562521130557144    0.3437478869442856    0.5729169014506350 F F F Sb
   0.3437478869442856    0.6562521130557144    0.5729169014506350 F F F Sb
   0.6562521130557144    0.1562521130557144    0.5729169014506350 F F F Sb
   0.8437478869442856    0.8437478869442857    0.5034715178703174 F F F Sb
   0.8557566672076433    0.6442433327923567    0.6506396296897381 T T T Hf
   0.6442433327923567    0.3557566672076434    0.6506396296897381 T T T Hf
   0.3557566672076434    0.8557566672076434    0.6506396296897381 T T T Hf
   0.1442433327923567    0.1442433327923567    0.7147477775974522 T T T Hf
   0.1562521130557144    0.3437478869442856    0.6840280125617461 T T T Sb
   0.3437478869442856    0.6562521130557144    0.6840280125617461 T T T Sb
   0.6562521130557144    0.1562521130557144    0.6840280125617461 T T T Sb
   0.8437478869442856    0.8437478869442857    0.6145826289814285 T T T Sb
