Si8 Ni24
1.0
   3.5063711337787997    0.0000000000000000    0.0000000000000002
   0.0000000000000011    7.0127422675575986   -3.5063711337787993
   0.0000000000000000    0.0000000000000000   31.5573402040091970
Si Ni Si Ni Si Ni Si Ni
2 6 2 6 2 6 2 6
Selective dynamics
direct
   0.0000000000000000    0.5000000000000000    0.3194444444444444 T T T Si
   0.0000000000000000    0.0000000000000000    0.3750000000000000 T T T Si
   0.5000000000000000    0.2500000000000000    0.2916666666666667 T T T Ni
   0.5000000000000000    0.7500000000000000    0.3472222222222222 T T T Ni
   0.0000000000000000    0.2500000000000000    0.3472222222222222 T T T Ni
   0.0000000000000000    0.7500000000000000    0.2916666666666667 T T T Ni
   0.5000000000000000    0.5000000000000000    0.3750000000000000 T T T Ni
   0.5000000000000000    0.0000000000000000    0.3194444444444444 T T T Ni
   0.0000000000000000    0.5000000000000000    0.4305555555555556 F F F Si
   0.0000000000000000    0.0000000000000000    0.4861111111111111 F F F Si
   0.5000000000000000    0.2500000000000000    0.4027777777777778 F F F Ni
   0.5000000000000000    0.7500000000000000    0.4583333333333334 F F F Ni
   0.0000000000000000    0.2500000000000000    0.4583333333333334 F F F Ni
   0.0000000000000000    0.7500000000000000    0.4027777777777778 F F F Ni
   0.5000000000000000    0.5000000000000000    0.4861111111111111 F F F Ni
   0.5000000000000000    0.0000000000000000    0.4305555555555556 F F F Ni
   0.0000000000000000    0.5000000000000000    0.5416666666666666 F F F Si
   0.0000000000000000    0.0000000000000000    0.5972222222222222 F F F Si
   0.5000000000000000    0.2500000000000000    0.5138888888888888 F F F Ni
   0.5000000000000000    0.7500000000000000    0.5694444444444444 F F F Ni
   0.0000000000000000    0.2500000000000000    0.5694444444444444 F F F Ni
   0.0000000000000000    0.7500000000000000    0.5138888888888888 F F F Ni
   0.5000000000000000    0.5000000000000000    0.5972222222222222 F F F Ni
   0.5000000000000000    0.0000000000000000    0.5416666666666666 F F F Ni
   0.0000000000000000    0.5000000000000000    0.6527777777777778 T T T Si
   0.0000000000000000    0.0000000000000000    0.7083333333333333 T T T Si
   0.5000000000000000    0.2500000000000000    0.6250000000000000 T T T Ni
   0.5000000000000000    0.7500000000000000    0.6805555555555556 T T T Ni
   0.0000000000000000    0.2500000000000000    0.6805555555555556 T T T Ni
   0.0000000000000000    0.7500000000000000    0.6250000000000000 T T T Ni
   0.5000000000000000    0.5000000000000000    0.7083333333333333 T T T Ni
   0.5000000000000000    0.0000000000000000    0.6527777777777778 T T T Ni
