Ti32 Rh16
1.0
   6.1320279273257148    0.0000000000000000   -3.0660139636628574
  -0.0000000000000006    9.8441949668506634   -3.0660139636628574
   0.0000000000000000    0.0000000000000000   30.6601396366285783
Ti Rh Ti Rh Ti Rh Ti Rh
8 4 8 4 8 4 8 4
Selective dynamics
direct
   0.2500000000000000    0.1619100791078480    0.3870243412441182 T T T Ti
   0.7500000000000000    0.1619100791078480    0.3370243412441182 T T T Ti
   0.0000000000000000    0.3380899208921520    0.3296423254225486 T T T Ti
   0.5000000000000000    0.3380899208921520    0.3796423254225486 T T T Ti
   0.0000000000000000    0.6619100791078480    0.3620243412441182 T T T Ti
   0.5000000000000000    0.6619100791078480    0.3120243412441182 T T T Ti
   0.2500000000000000    0.8380899208921521    0.3546423254225486 T T T Ti
   0.7500000000000000    0.8380899208921521    0.3046423254225485 T T T Ti
   0.0000000000000000    0.0000000000000000    0.3958333333333334 T T T Rh
   0.5000000000000000    0.0000000000000000    0.3458333333333334 T T T Rh
   0.2500000000000000    0.5000000000000000    0.3208333333333334 T T T Rh
   0.7500000000000000    0.5000000000000000    0.3708333333333333 T T T Rh
   0.2500000000000000    0.1619100791078480    0.4870243412441182 F F F Ti
   0.7500000000000000    0.1619100791078480    0.4370243412441182 F F F Ti
   0.0000000000000000    0.3380899208921520    0.4296423254225485 F F F Ti
   0.5000000000000000    0.3380899208921520    0.4796423254225486 F F F Ti
   0.0000000000000000    0.6619100791078480    0.4620243412441182 F F F Ti
   0.5000000000000000    0.6619100791078480    0.4120243412441182 T T T Ti
   0.2500000000000000    0.8380899208921521    0.4546423254225486 F F F Ti
   0.7500000000000000    0.8380899208921521    0.4046423254225486 T T T Ti
   0.0000000000000000    0.0000000000000000    0.4958333333333333 F F F Rh
   0.5000000000000000    0.0000000000000000    0.4458333333333334 F F F Rh
   0.2500000000000000    0.5000000000000000    0.4208333333333334 F F F Rh
   0.7500000000000000    0.5000000000000000    0.4708333333333334 F F F Rh
   0.2500000000000000    0.1619100791078480    0.5870243412441182 T T T Ti
   0.7500000000000000    0.1619100791078480    0.5370243412441182 F F F Ti
   0.0000000000000000    0.3380899208921520    0.5296423254225486 F F F Ti
   0.5000000000000000    0.3380899208921520    0.5796423254225486 F F F Ti
   0.0000000000000000    0.6619100791078480    0.5620243412441182 F F F Ti
   0.5000000000000000    0.6619100791078480    0.5120243412441182 F F F Ti
   0.2500000000000000    0.8380899208921521    0.5546423254225485 F F F Ti
   0.7500000000000000    0.8380899208921521    0.5046423254225486 F F F Ti
   0.0000000000000000    0.0000000000000000    0.5958333333333334 T T T Rh
   0.5000000000000000    0.0000000000000000    0.5458333333333334 F F F Rh
   0.2500000000000000    0.5000000000000000    0.5208333333333334 F F F Rh
   0.7500000000000000    0.5000000000000000    0.5708333333333334 F F F Rh
   0.2500000000000000    0.1619100791078480    0.6870243412441182 T T T Ti
   0.7500000000000000    0.1619100791078480    0.6370243412441181 T T T Ti
   0.0000000000000000    0.3380899208921520    0.6296423254225485 T T T Ti
   0.5000000000000000    0.3380899208921520    0.6796423254225485 T T T Ti
   0.0000000000000000    0.6619100791078480    0.6620243412441182 T T T Ti
   0.5000000000000000    0.6619100791078480    0.6120243412441182 T T T Ti
   0.2500000000000000    0.8380899208921521    0.6546423254225486 T T T Ti
   0.7500000000000000    0.8380899208921521    0.6046423254225486 T T T Ti
   0.0000000000000000    0.0000000000000000    0.6958333333333333 T T T Rh
   0.5000000000000000    0.0000000000000000    0.6458333333333334 T T T Rh
   0.2500000000000000    0.5000000000000000    0.6208333333333333 T T T Rh
   0.7500000000000000    0.5000000000000000    0.6708333333333334 T T T Rh
