In24 Pd16
1.0
   5.6218118239851451    0.0000000000000000    0.0000000000000003
   0.0000000000000013    7.9840248195866437   -9.2191577576100059
   0.0000000000000000    0.0000000000000000   41.4862099092450194
In Pd In Pd In Pd In Pd
6 4 6 4 6 4 6 4
Selective dynamics
direct
   0.0000000000000000    0.5000000000000000    0.3277777777777778 T T T In
   0.0000000000000000    0.0000000000000000    0.3833333333333334 T T T In
   0.3550157703116237    0.1666666666666667    0.3648148148148148 T T T In
   0.3550157703116237    0.6666666666666667    0.3092592592592593 T T T In
   0.6449842296883763    0.3333333333333334    0.3462962962962963 T T T In
   0.6449842296883763    0.8333333333333333    0.2907407407407407 T T T In
   0.8500511550939764    0.1666666666666667    0.3648148148148148 T T T Pd
   0.8500511550939764    0.6666666666666667    0.3092592592592593 T T T Pd
   0.1499488449060237    0.3333333333333334    0.3462962962962963 T T T Pd
   0.1499488449060237    0.8333333333333333    0.2907407407407407 T T T Pd
   0.0000000000000000    0.5000000000000000    0.4388888888888889 F F F In
   0.0000000000000000    0.0000000000000000    0.4944444444444445 F F F In
   0.3550157703116237    0.1666666666666667    0.4759259259259259 F F F In
   0.3550157703116237    0.6666666666666667    0.4203703703703704 F F F In
   0.6449842296883763    0.3333333333333334    0.4574074074074074 F F F In
   0.6449842296883763    0.8333333333333333    0.4018518518518518 F F F In
   0.8500511550939764    0.1666666666666667    0.4759259259259259 F F F Pd
   0.8500511550939764    0.6666666666666667    0.4203703703703704 F F F Pd
   0.1499488449060237    0.3333333333333334    0.4574074074074074 F F F Pd
   0.1499488449060237    0.8333333333333333    0.4018518518518518 F F F Pd
   0.0000000000000000    0.5000000000000000    0.5500000000000000 F F F In
   0.0000000000000000    0.0000000000000000    0.6055555555555556 F F F In
   0.3550157703116237    0.1666666666666667    0.5870370370370370 F F F In
   0.3550157703116237    0.6666666666666667    0.5314814814814814 F F F In
   0.6449842296883763    0.3333333333333334    0.5685185185185185 F F F In
   0.6449842296883763    0.8333333333333333    0.5129629629629630 F F F In
   0.8500511550939764    0.1666666666666667    0.5870370370370370 F F F Pd
   0.8500511550939764    0.6666666666666667    0.5314814814814814 F F F Pd
   0.1499488449060237    0.3333333333333334    0.5685185185185185 F F F Pd
   0.1499488449060237    0.8333333333333333    0.5129629629629630 F F F Pd
   0.0000000000000000    0.5000000000000000    0.6611111111111112 T T T In
   0.0000000000000000    0.0000000000000000    0.7166666666666667 T T T In
   0.3550157703116237    0.1666666666666667    0.6981481481481482 T T T In
   0.3550157703116237    0.6666666666666667    0.6425925925925926 T T T In
   0.6449842296883763    0.3333333333333334    0.6796296296296296 T T T In
   0.6449842296883763    0.8333333333333333    0.6240740740740740 T T T In
   0.8500511550939764    0.1666666666666667    0.6981481481481482 T T T Pd
   0.8500511550939764    0.6666666666666667    0.6425925925925926 T T T Pd
   0.1499488449060237    0.3333333333333334    0.6796296296296296 T T T Pd
   0.1499488449060237    0.8333333333333333    0.6240740740740740 T T T Pd
