Na18 Cd6
1.0
   7.0501669341610604    0.0000000000000000    0.0000000000000004
   3.5250834670805324    6.1056236659045311    5.6781497742174141
   0.0000000000000000    0.0000000000000000   39.7470484195219029
Na Cd Na Cd Na Cd
6 2 6 2 6 2
Selective dynamics
direct
   0.1735161278228877    0.6529677443542246    0.4067188936636822 T T T Na
   0.1735161278228877    0.1735161278228877    0.3323548388824447 T T T Na
   0.6529677443542244    0.1735161278228877    0.3323548388824447 T T T Na
   0.8264838721771123    0.3470322556457756    0.3789953920506035 T T T Na
   0.8264838721771123    0.8264838721771123    0.3105023039746983 T T T Na
   0.3470322556457754    0.8264838721771123    0.3105023039746983 T T T Na
   0.3333333333333334    0.3333333333333334    0.3809523809523810 T T T Cd
   0.6666666666666667    0.6666666666666665    0.4047619047619048 T T T Cd
   0.1735161278228877    0.6529677443542246    0.5495760365208251 F F F Na
   0.1735161278228877    0.1735161278228877    0.4752119817395875 F F F Na
   0.6529677443542244    0.1735161278228877    0.4752119817395875 F F F Na
   0.8264838721771123    0.3470322556457756    0.5218525349077464 F F F Na
   0.8264838721771123    0.8264838721771123    0.4533594468318412 F F F Na
   0.3470322556457754    0.8264838721771123    0.4533594468318412 F F F Na
   0.3333333333333334    0.3333333333333334    0.5238095238095238 F F F Cd
   0.6666666666666667    0.6666666666666665    0.5476190476190477 F F F Cd
   0.1735161278228877    0.6529677443542246    0.6924331793779679 T T T Na
   0.1735161278228877    0.1735161278228877    0.6180691245967304 T T T Na
   0.6529677443542244    0.1735161278228877    0.6180691245967304 T T T Na
   0.8264838721771123    0.3470322556457756    0.6647096777648892 T T T Na
   0.8264838721771123    0.8264838721771123    0.5962165896889839 T T T Na
   0.3470322556457754    0.8264838721771123    0.5962165896889839 T T T Na
   0.3333333333333334    0.3333333333333334    0.6666666666666667 T T T Cd
   0.6666666666666667    0.6666666666666665    0.6904761904761905 T T T Cd
