Ca16 Cd32
1.0
  10.0169481914842340    0.0000000000000000    7.5114521892507478
   5.0084740957421161    8.5666133147616534    0.0000000000000006
   0.0000000000000000    0.0000000000000000   37.5572609462537486
Ca Cd Ca Cd
8 16 8 16
Selective dynamics
direct
   0.2315572878987062    0.0368854242025876    0.4036885424202588 T T T Ca
   0.7315572878987062    0.0368854242025876    0.3036885424202588 T T T Ca
   0.7684427121012938    0.9631145757974123    0.3963114575797413 T T T Ca
   0.2684427121012938    0.9631145757974124    0.4963114575797413 F F F Ca
   0.2315572878987063    0.5368854242025876    0.3036885424202588 T T T Ca
   0.7315572878987062    0.5368854242025876    0.4036885424202588 T T T Ca
   0.2684427121012937    0.4631145757974124    0.3963114575797412 T T T Ca
   0.7684427121012938    0.4631145757974125    0.4963114575797413 F F F Ca
   0.4174584950991171    0.1650830098017657    0.3083025074637523 T T T Cd
   0.9174584950991171    0.1650830098017657    0.4083025074637522 T T T Cd
   0.0825415049008828    0.8349169901982343    0.3916974925362479 T T T Cd
   0.5825415049008829    0.8349169901982343    0.4916974925362478 F F F Cd
   0.0825415049008828    0.3349169901982343    0.3752859055033991 T T T Cd
   0.5825415049008829    0.3349169901982343    0.4752859055033991 F F F Cd
   0.9174584950991171    0.6650830098017657    0.4247140944966010 F F F Cd
   0.4174584950991171    0.6650830098017658    0.3247140944966010 T T T Cd
   0.9174584950991171    0.6650830098017657    0.3083025074637523 T T T Cd
   0.4174584950991170    0.6650830098017657    0.4083025074637522 T T T Cd
   0.0825415049008828    0.3349169901982343    0.4916974925362478 F F F Cd
   0.5825415049008829    0.3349169901982343    0.3916974925362478 T T T Cd
   0.0825415049008830    0.8349169901982343    0.4752859055033991 F F F Cd
   0.5825415049008829    0.8349169901982343    0.3752859055033991 T T T Cd
   0.4174584950991171    0.1650830098017657    0.4247140944966010 F F F Cd
   0.9174584950991171    0.1650830098017657    0.3247140944966009 T T T Cd
   0.2315572878987062    0.0368854242025876    0.6036885424202587 T T T Ca
   0.7315572878987062    0.0368854242025876    0.5036885424202587 F F F Ca
   0.7684427121012938    0.9631145757974123    0.5963114575797412 T T T Ca
   0.2684427121012938    0.9631145757974124    0.6963114575797413 T T T Ca
   0.2315572878987063    0.5368854242025876    0.5036885424202588 F F F Ca
   0.7315572878987062    0.5368854242025876    0.6036885424202588 T T T Ca
   0.2684427121012937    0.4631145757974124    0.5963114575797412 T T T Ca
   0.7684427121012938    0.4631145757974125    0.6963114575797413 T T T Ca
   0.4174584950991171    0.1650830098017657    0.5083025074637523 F F F Cd
   0.9174584950991171    0.1650830098017657    0.6083025074637523 T T T Cd
   0.0825415049008828    0.8349169901982343    0.5916974925362478 T T T Cd
   0.5825415049008829    0.8349169901982343    0.6916974925362478 T T T Cd
   0.0825415049008828    0.3349169901982343    0.5752859055033991 F F F Cd
   0.5825415049008829    0.3349169901982343    0.6752859055033991 T T T Cd
   0.9174584950991171    0.6650830098017657    0.6247140944966010 T T T Cd
   0.4174584950991171    0.6650830098017658    0.5247140944966010 F F F Cd
   0.9174584950991171    0.6650830098017657    0.5083025074637523 F F F Cd
   0.4174584950991170    0.6650830098017657    0.6083025074637523 T T T Cd
   0.0825415049008828    0.3349169901982343    0.6916974925362478 T T T Cd
   0.5825415049008829    0.3349169901982343    0.5916974925362478 T T T Cd
   0.0825415049008830    0.8349169901982343    0.6752859055033991 T T T Cd
   0.5825415049008829    0.8349169901982343    0.5752859055033991 F F F Cd
   0.4174584950991171    0.1650830098017657    0.6247140944966010 T T T Cd
   0.9174584950991171    0.1650830098017657    0.5247140944966009 F F F Cd
