Al5 Ir5
1.0
   3.0148795357220659    0.0000000000000000    0.0000000000000002
  -0.0000000000000002    3.0148795357220659    3.0148795357220655
   0.0000000000000000    0.0000000000000000   39.1934339643868555
Al Ir Al Ir Al Ir Al Ir Al Ir
1 1 1 1 1 1 1 1 1 1
Selective dynamics
direct
   0.0000000000000000    0.0000000000000000    0.3461538461538461 T T T Al
   0.5000000000000000    0.5000000000000000    0.3461538461538461 T T T Ir
   0.0000000000000000    0.0000000000000000    0.4230769230769230 T T T Al
   0.5000000000000000    0.5000000000000000    0.4230769230769230 T T T Ir
   0.0000000000000000    0.0000000000000000    0.5000000000000000 F F F Al
   0.5000000000000000    0.5000000000000000    0.5000000000000000 F F F Ir
   0.0000000000000000    0.0000000000000000    0.5769230769230769 T T T Al
   0.5000000000000000    0.5000000000000000    0.5769230769230769 T T T Ir
   0.0000000000000000    0.0000000000000000    0.6538461538461537 T T T Al
   0.5000000000000000    0.5000000000000000    0.6538461538461537 T T T Ir
