Co32 As32
1.0
   5.2824174720341501    0.0000000000000000   -3.4872745353615482
   0.0000000000000019   11.6862700794579162   -3.4872745353615526
   0.0000000000000000    0.0000000000000000   34.8727453536155068
Co As Co As Co As Co As
8 8 8 8 8 8 8 8
Selective dynamics
direct
   0.4995139821476435    0.3493803587769247    0.3473894340924568 T T T Co
   0.4995139821476435    0.8493803587769249    0.3973894340924568 T T T Co
   0.9995139821476436    0.4006196412230754    0.3025133623370719 T T T Co
   0.9995139821476436    0.9006196412230754    0.3525133623370719 T T T Co
   0.5004860178523565    0.1506196412230754    0.3776105659075432 T T T Co
   0.5004860178523565    0.6506196412230754    0.3276105659075432 T T T Co
   0.0004860178523565    0.0993803587769247    0.3224866376629281 T T T Co
   0.0004860178523565    0.5993803587769246    0.3724866376629281 T T T Co
   0.7992093067241051    0.2055126185452406    0.3629721925269346 T T T As
   0.7992093067241051    0.7055126185452406    0.3129721925269345 T T T As
   0.7007906932758949    0.4555126185452406    0.3281303311821135 T T T As
   0.7007906932758949    0.9555126185452406    0.3781303311821135 T T T As
   0.2007906932758949    0.2944873814547596    0.3620278074730655 T T T As
   0.2007906932758949    0.7944873814547596    0.3120278074730654 T T T As
   0.2992093067241051    0.0444873814547595    0.3968696688178864 T T T As
   0.2992093067241051    0.5444873814547596    0.3468696688178864 T T T As
   0.4995139821476435    0.3493803587769247    0.4473894340924568 F F F Co
   0.4995139821476435    0.8493803587769249    0.4973894340924568 F F F Co
   0.9995139821476436    0.4006196412230754    0.4025133623370719 T T T Co
   0.9995139821476436    0.9006196412230754    0.4525133623370719 F F F Co
   0.5004860178523565    0.1506196412230754    0.4776105659075432 F F F Co
   0.5004860178523565    0.6506196412230754    0.4276105659075432 F F F Co
   0.0004860178523565    0.0993803587769247    0.4224866376629281 F F F Co
   0.0004860178523565    0.5993803587769246    0.4724866376629281 F F F Co
   0.7992093067241051    0.2055126185452406    0.4629721925269346 F F F As
   0.7992093067241051    0.7055126185452406    0.4129721925269346 F F F As
   0.7007906932758949    0.4555126185452406    0.4281303311821135 F F F As
   0.7007906932758949    0.9555126185452406    0.4781303311821136 F F F As
   0.2007906932758949    0.2944873814547596    0.4620278074730654 F F F As
   0.2007906932758949    0.7944873814547596    0.4120278074730654 F F F As
   0.2992093067241051    0.0444873814547595    0.4968696688178865 F F F As
   0.2992093067241051    0.5444873814547596    0.4468696688178865 F F F As
   0.4995139821476435    0.3493803587769247    0.5473894340924568 F F F Co
   0.4995139821476435    0.8493803587769249    0.5973894340924568 T T T Co
   0.9995139821476436    0.4006196412230754    0.5025133623370719 F F F Co
   0.9995139821476436    0.9006196412230754    0.5525133623370719 F F F Co
   0.5004860178523565    0.1506196412230754    0.5776105659075432 F F F Co
   0.5004860178523565    0.6506196412230754    0.5276105659075432 F F F Co
   0.0004860178523565    0.0993803587769247    0.5224866376629281 F F F Co
   0.0004860178523565    0.5993803587769246    0.5724866376629281 F F F Co
   0.7992093067241051    0.2055126185452406    0.5629721925269345 F F F As
   0.7992093067241051    0.7055126185452406    0.5129721925269346 F F F As
   0.7007906932758949    0.4555126185452406    0.5281303311821135 F F F As
   0.7007906932758949    0.9555126185452406    0.5781303311821135 F F F As
   0.2007906932758949    0.2944873814547596    0.5620278074730655 F F F As
   0.2007906932758949    0.7944873814547596    0.5120278074730654 F F F As
   0.2992093067241051    0.0444873814547595    0.5968696688178865 T T T As
   0.2992093067241051    0.5444873814547596    0.5468696688178865 F F F As
   0.4995139821476435    0.3493803587769247    0.6473894340924569 T T T Co
   0.4995139821476435    0.8493803587769249    0.6973894340924568 T T T Co
   0.9995139821476436    0.4006196412230754    0.6025133623370720 T T T Co
   0.9995139821476436    0.9006196412230754    0.6525133623370718 T T T Co
   0.5004860178523565    0.1506196412230754    0.6776105659075431 T T T Co
   0.5004860178523565    0.6506196412230754    0.6276105659075432 T T T Co
   0.0004860178523565    0.0993803587769247    0.6224866376629281 T T T Co
   0.0004860178523565    0.5993803587769246    0.6724866376629282 T T T Co
   0.7992093067241051    0.2055126185452406    0.6629721925269345 T T T As
   0.7992093067241051    0.7055126185452406    0.6129721925269345 T T T As
   0.7007906932758949    0.4555126185452406    0.6281303311821136 T T T As
   0.7007906932758949    0.9555126185452406    0.6781303311821135 T T T As
   0.2007906932758949    0.2944873814547596    0.6620278074730654 T T T As
   0.2007906932758949    0.7944873814547596    0.6120278074730654 T T T As
   0.2992093067241051    0.0444873814547595    0.6968696688178865 T T T As
   0.2992093067241051    0.5444873814547596    0.6468696688178864 T T T As
