Ni24 Mo8
1.0
   5.0299143963558315    0.0000000000000000    0.0000000000000003
   0.0000000000000007    4.4660633615172660   -4.2391416034010492
   0.0000000000000000    0.0000000000000000   38.1522744306094452
Ni Mo Ni Mo Ni Mo Ni Mo
6 2 6 2 6 2 6 2
Selective dynamics
direct
   0.2485782083524125    0.1598582754616943    0.3233175861624105 T T T Ni
   0.2514217916475875    0.8401417245383058    0.3433490805042562 T T T Ni
   0.0000000000000000    0.6653601438405090    0.3794844604267232 T T T Ni
   0.5000000000000000    0.3346398561594910    0.2871822062399434 T T T Ni
   0.7485782083524124    0.8401417245383058    0.3433490805042562 T T T Ni
   0.7514217916475875    0.1598582754616943    0.3233175861624105 T T T Ni
   0.5000000000000000    0.6544971029759310    0.3782774558862146 T T T Mo
   0.0000000000000000    0.3455028970240690    0.2883892107804522 T T T Mo
   0.2485782083524125    0.1598582754616943    0.4344286972735216 F F F Ni
   0.2514217916475875    0.8401417245383058    0.4544601916153673 F F F Ni
   0.0000000000000000    0.6653601438405090    0.4905955715378343 F F F Ni
   0.5000000000000000    0.3346398561594910    0.3982933173510546 F F F Ni
   0.7485782083524124    0.8401417245383058    0.4544601916153673 F F F Ni
   0.7514217916475875    0.1598582754616943    0.4344286972735216 F F F Ni
   0.5000000000000000    0.6544971029759310    0.4893885669973257 F F F Mo
   0.0000000000000000    0.3455028970240690    0.3995003218915633 F F F Mo
   0.2485782083524125    0.1598582754616943    0.5455398083846327 F F F Ni
   0.2514217916475875    0.8401417245383058    0.5655713027264784 F F F Ni
   0.0000000000000000    0.6653601438405090    0.6017066826489454 F F F Ni
   0.5000000000000000    0.3346398561594910    0.5094044284621657 F F F Ni
   0.7485782083524124    0.8401417245383058    0.5655713027264784 F F F Ni
   0.7514217916475875    0.1598582754616943    0.5455398083846327 F F F Ni
   0.5000000000000000    0.6544971029759310    0.6004996781084369 F F F Mo
   0.0000000000000000    0.3455028970240690    0.5106114330026743 F F F Mo
   0.2485782083524125    0.1598582754616943    0.6566509194957437 T T T Ni
   0.2514217916475875    0.8401417245383058    0.6766824138375895 T T T Ni
   0.0000000000000000    0.6653601438405090    0.7128177937600566 T T T Ni
   0.5000000000000000    0.3346398561594910    0.6205155395732768 T T T Ni
   0.7485782083524124    0.8401417245383058    0.6766824138375895 T T T Ni
   0.7514217916475875    0.1598582754616943    0.6566509194957437 T T T Ni
   0.5000000000000000    0.6544971029759310    0.7116107892195479 T T T Mo
   0.0000000000000000    0.3455028970240690    0.6217225441137855 T T T Mo
