Y6 Al18
1.0
   6.2943674797046789    0.0000000000000000    0.0000000000000004
   3.1471837398523403    5.4510821381788830    4.5910248653700334
   0.0000000000000000    0.0000000000000000   36.7281989229602601
Y Al Y Al Y Al
2 6 2 6 2 6
Selective dynamics
direct
   0.3333333333333334    0.3333333333333334    0.4114583333333334 T T T Y
   0.6666666666666666    0.6666666666666667    0.3072916666666667 T T T Y
   0.1466349386742713    0.7067301226514573    0.4272837346685679 F F F Al
   0.1466349386742714    0.1466349386742714    0.3722956326657161 T T T Al
   0.7067301226514572    0.1466349386742715    0.3722956326657161 T T T Al
   0.8533650613257286    0.2932698773485427    0.4164662653314322 F F F Al
   0.8533650613257286    0.8533650613257286    0.3464543673342840 T T T Al
   0.2932698773485427    0.8533650613257286    0.3464543673342840 T T T Al
   0.3333333333333334    0.3333333333333334    0.5364583333333334 F F F Y
   0.6666666666666666    0.6666666666666667    0.4322916666666667 F F F Y
   0.1466349386742713    0.7067301226514573    0.5522837346685678 F F F Al
   0.1466349386742714    0.1466349386742714    0.4972956326657161 F F F Al
   0.7067301226514572    0.1466349386742715    0.4972956326657161 F F F Al
   0.8533650613257286    0.2932698773485427    0.5414662653314322 F F F Al
   0.8533650613257286    0.8533650613257286    0.4714543673342840 F F F Al
   0.2932698773485427    0.8533650613257286    0.4714543673342840 F F F Al
   0.3333333333333334    0.3333333333333334    0.6614583333333334 T T T Y
   0.6666666666666666    0.6666666666666667    0.5572916666666667 F F F Y
   0.1466349386742713    0.7067301226514573    0.6772837346685678 T T T Al
   0.1466349386742714    0.1466349386742714    0.6222956326657161 T T T Al
   0.7067301226514572    0.1466349386742715    0.6222956326657161 T T T Al
   0.8533650613257286    0.2932698773485427    0.6664662653314322 T T T Al
   0.8533650613257286    0.8533650613257286    0.5964543673342839 T T T Al
   0.2932698773485427    0.8533650613257286    0.5964543673342839 T T T Al
