Ba16 Zn8
1.0
  15.0449091580245096    0.0000000000000000    0.0000000000000009
   0.0000000000000007    4.1867096082097257   -4.1867096082097257
   0.0000000000000000    0.0000000000000000   41.8670960820972624
Ba Zn Ba Zn Ba Zn Ba Zn
4 2 4 2 4 2 4 2
Selective dynamics
direct
   0.8718119508928304    0.5000000000000000    0.3500000000000000 T T T Ba
   0.6281880491071696    0.0000000000000000    0.3500000000000000 T T T Ba
   0.3718119508928304    0.0000000000000000    0.3500000000000000 T T T Ba
   0.1281880491071696    0.5000000000000000    0.3500000000000000 T T T Ba
   0.0000000000000000    0.0000000000000000    0.3500000000000000 T T T Zn
   0.5000000000000000    0.5000000000000000    0.3500000000000000 T T T Zn
   0.8718119508928304    0.5000000000000000    0.4500000000000001 T T T Ba
   0.6281880491071696    0.0000000000000000    0.4500000000000001 T T T Ba
   0.3718119508928304    0.0000000000000000    0.4500000000000001 T T T Ba
   0.1281880491071696    0.5000000000000000    0.4500000000000001 T T T Ba
   0.0000000000000000    0.0000000000000000    0.4500000000000001 T T T Zn
   0.5000000000000000    0.5000000000000000    0.4500000000000001 T T T Zn
   0.8718119508928304    0.5000000000000000    0.5500000000000000 T T T Ba
   0.6281880491071696    0.0000000000000000    0.5500000000000000 T T T Ba
   0.3718119508928304    0.0000000000000000    0.5500000000000000 T T T Ba
   0.1281880491071696    0.5000000000000000    0.5500000000000000 T T T Ba
   0.0000000000000000    0.0000000000000000    0.5500000000000000 T T T Zn
   0.5000000000000000    0.5000000000000000    0.5500000000000000 T T T Zn
   0.8718119508928304    0.5000000000000000    0.6500000000000000 T T T Ba
   0.6281880491071696    0.0000000000000000    0.6500000000000000 T T T Ba
   0.3718119508928304    0.0000000000000000    0.6500000000000000 T T T Ba
   0.1281880491071696    0.5000000000000000    0.6500000000000000 T T T Ba
   0.0000000000000000    0.0000000000000000    0.6500000000000000 T T T Zn
   0.5000000000000000    0.5000000000000000    0.6500000000000000 T T T Zn
