Ta8 Os24
1.0
   3.9307982266353259    0.0000000000000000   -3.9307982266353250
   0.0000000000000013    7.8615964532706499   -3.9307982266353250
   0.0000000000000000    0.0000000000000000   39.3079822663532568
Ta Os Ta Os Ta Os Ta Os
2 6 2 6 2 6 2 6
Selective dynamics
direct
   0.0000000000000000    0.0000000000000000    0.3875000000000000 T T T Ta
   0.0000000000000000    0.5000000000000000    0.3375000000000000 T T T Ta
   0.5000000000000000    0.2500000000000001    0.3625000000000000 T T T Os
   0.5000000000000000    0.7500000000000000    0.3125000000000000 T T T Os
   0.0000000000000000    0.2500000000000001    0.3625000000000000 T T T Os
   0.0000000000000000    0.7500000000000000    0.3125000000000000 T T T Os
   0.5000000000000000    0.0000000000000000    0.3875000000000000 T T T Os
   0.5000000000000000    0.5000000000000001    0.3375000000000000 T T T Os
   0.0000000000000000    0.0000000000000000    0.4875000000000000 F F F Ta
   0.0000000000000000    0.5000000000000000    0.4375000000000000 F F F Ta
   0.5000000000000000    0.2500000000000001    0.4625000000000000 F F F Os
   0.5000000000000000    0.7500000000000000    0.4125000000000000 T T T Os
   0.0000000000000000    0.2500000000000001    0.4625000000000000 F F F Os
   0.0000000000000000    0.7500000000000000    0.4125000000000000 T T T Os
   0.5000000000000000    0.0000000000000000    0.4875000000000000 F F F Os
   0.5000000000000000    0.5000000000000001    0.4375000000000000 F F F Os
   0.0000000000000000    0.0000000000000000    0.5874999999999999 T T T Ta
   0.0000000000000000    0.5000000000000000    0.5375000000000000 F F F Ta
   0.5000000000000000    0.2500000000000001    0.5625000000000000 F F F Os
   0.5000000000000000    0.7500000000000000    0.5125000000000000 F F F Os
   0.0000000000000000    0.2500000000000001    0.5625000000000000 F F F Os
   0.0000000000000000    0.7500000000000000    0.5125000000000000 F F F Os
   0.5000000000000000    0.0000000000000000    0.5874999999999999 T T T Os
   0.5000000000000000    0.5000000000000001    0.5375000000000000 F F F Os
   0.0000000000000000    0.0000000000000000    0.6875000000000000 T T T Ta
   0.0000000000000000    0.5000000000000000    0.6375000000000000 T T T Ta
   0.5000000000000000    0.2500000000000001    0.6625000000000000 T T T Os
   0.5000000000000000    0.7500000000000000    0.6125000000000000 T T T Os
   0.0000000000000000    0.2500000000000001    0.6625000000000000 T T T Os
   0.0000000000000000    0.7500000000000000    0.6125000000000000 T T T Os
   0.5000000000000000    0.0000000000000000    0.6875000000000000 T T T Os
   0.5000000000000000    0.5000000000000001    0.6375000000000000 T T T Os
