V32 As32
1.0
   5.8667702978116694    0.0000000000000000   -3.3410962246739233
   0.0000000000000020   12.5428454386134440   -3.3410962246739264
   0.0000000000000000    0.0000000000000000   33.4109622467392526
V As V As V As V As
8 8 8 8 8 8 8 8
Selective dynamics
direct
   0.0049104506965989    0.0912910024825954    0.3096201453179194 T T T V
   0.0049104506965989    0.5912910024825954    0.3596201453179194 T T T V
   0.9950895493034010    0.4087089975174047    0.3903798546820806 T T T V
   0.9950895493034010    0.9087089975174047    0.3403798546820805 T T T V
   0.4950895493034011    0.3412910024825954    0.3336380551785996 T T T V
   0.4950895493034011    0.8412910024825955    0.3836380551785996 T T T V
   0.5049104506965989    0.1587089975174047    0.3663619448214003 T T T V
   0.5049104506965989    0.6587089975174047    0.3163619448214003 T T T V
   0.1933539713968955    0.2869859263311908    0.3480339897728086 T T T As
   0.1933539713968955    0.7869859263311907    0.3980339897728086 T T T As
   0.8066460286031045    0.2130140736688093    0.3519660102271914 T T T As
   0.8066460286031045    0.7130140736688093    0.3019660102271914 T T T As
   0.3066460286031045    0.0369859263311908    0.3843631954934296 T T T As
   0.3066460286031045    0.5369859263311908    0.3343631954934295 T T T As
   0.6933539713968955    0.4630140736688093    0.3156368045065704 T T T As
   0.6933539713968955    0.9630140736688092    0.3656368045065704 T T T As
   0.0049104506965989    0.0912910024825954    0.4096201453179195 F F F V
   0.0049104506965989    0.5912910024825954    0.4596201453179194 F F F V
   0.9950895493034010    0.4087089975174047    0.4903798546820806 F F F V
   0.9950895493034010    0.9087089975174047    0.4403798546820806 F F F V
   0.4950895493034011    0.3412910024825954    0.4336380551785997 F F F V
   0.4950895493034011    0.8412910024825955    0.4836380551785996 F F F V
   0.5049104506965989    0.1587089975174047    0.4663619448214004 F F F V
   0.5049104506965989    0.6587089975174047    0.4163619448214003 F F F V
   0.1933539713968955    0.2869859263311908    0.4480339897728086 F F F As
   0.1933539713968955    0.7869859263311907    0.4980339897728086 F F F As
   0.8066460286031045    0.2130140736688093    0.4519660102271914 F F F As
   0.8066460286031045    0.7130140736688093    0.4019660102271914 T T T As
   0.3066460286031045    0.0369859263311908    0.4843631954934295 F F F As
   0.3066460286031045    0.5369859263311908    0.4343631954934296 F F F As
   0.6933539713968955    0.4630140736688093    0.4156368045065705 F F F As
   0.6933539713968955    0.9630140736688092    0.4656368045065705 F F F As
   0.0049104506965989    0.0912910024825954    0.5096201453179194 F F F V
   0.0049104506965989    0.5912910024825954    0.5596201453179195 F F F V
   0.9950895493034010    0.4087089975174047    0.5903798546820807 F F F V
   0.9950895493034010    0.9087089975174047    0.5403798546820806 F F F V
   0.4950895493034011    0.3412910024825954    0.5336380551785996 F F F V
   0.4950895493034011    0.8412910024825955    0.5836380551785996 F F F V
   0.5049104506965989    0.1587089975174047    0.5663619448214003 F F F V
   0.5049104506965989    0.6587089975174047    0.5163619448214003 F F F V
   0.1933539713968955    0.2869859263311908    0.5480339897728086 F F F As
   0.1933539713968955    0.7869859263311907    0.5980339897728086 T T T As
   0.8066460286031045    0.2130140736688093    0.5519660102271914 F F F As
   0.8066460286031045    0.7130140736688093    0.5019660102271913 F F F As
   0.3066460286031045    0.0369859263311908    0.5843631954934296 F F F As
   0.3066460286031045    0.5369859263311908    0.5343631954934296 F F F As
   0.6933539713968955    0.4630140736688093    0.5156368045065705 F F F As
   0.6933539713968955    0.9630140736688092    0.5656368045065705 F F F As
   0.0049104506965989    0.0912910024825954    0.6096201453179194 T T T V
   0.0049104506965989    0.5912910024825954    0.6596201453179193 T T T V
   0.9950895493034010    0.4087089975174047    0.6903798546820805 T T T V
   0.9950895493034010    0.9087089975174047    0.6403798546820805 T T T V
   0.4950895493034011    0.3412910024825954    0.6336380551785996 T T T V
   0.4950895493034011    0.8412910024825955    0.6836380551785997 T T T V
   0.5049104506965989    0.1587089975174047    0.6663619448214003 T T T V
   0.5049104506965989    0.6587089975174047    0.6163619448214004 T T T V
   0.1933539713968955    0.2869859263311908    0.6480339897728087 T T T As
   0.1933539713968955    0.7869859263311907    0.6980339897728086 T T T As
   0.8066460286031045    0.2130140736688093    0.6519660102271914 T T T As
   0.8066460286031045    0.7130140736688093    0.6019660102271913 T T T As
   0.3066460286031045    0.0369859263311908    0.6843631954934295 T T T As
   0.3066460286031045    0.5369859263311908    0.6343631954934295 T T T As
   0.6933539713968955    0.4630140736688093    0.6156368045065704 T T T As
   0.6933539713968955    0.9630140736688092    0.6656368045065704 T T T As
