V8 As8
1.0
   3.3410962246739251    0.0000000000000000    0.0000000000000002
   0.0000000000000010    6.2714227193067220    0.0000000000000004
   0.0000000000000000    0.0000000000000000   29.3338514890583433
V As V As
4 4 4 4
Selective dynamics
direct
   0.7500000000000000    0.8174179950348093    0.4490179098606802 F F F V
   0.2500000000000002    0.1825820049651907    0.4509820901393198 F F F V
   0.2500000000000001    0.3174179950348092    0.3509820901393197 T T T V
   0.7500000000000000    0.6825820049651907    0.3490179098606802 T T T V
   0.7500000000000000    0.4260281473376184    0.4113292057206209 T T T As
   0.2500000000000001    0.5739718526623816    0.4886707942793791 F F F As
   0.2500000000000001    0.9260281473376184    0.3886707942793791 T T T As
   0.7500000000000000    0.0739718526623816    0.3113292057206209 T T T As
   0.7500000000000000    0.8174179950348093    0.6490179098606803 T T T V
   0.2500000000000002    0.1825820049651907    0.6509820901393197 T T T V
   0.2500000000000001    0.3174179950348092    0.5509820901393198 F F F V
   0.7500000000000000    0.6825820049651907    0.5490179098606802 F F F V
   0.7500000000000000    0.4260281473376184    0.6113292057206210 T T T As
   0.2500000000000001    0.5739718526623816    0.6886707942793791 T T T As
   0.2500000000000001    0.9260281473376184    0.5886707942793792 T T T As
   0.7500000000000000    0.0739718526623816    0.5113292057206209 F F F As
