Ti8 Sb16
1.0
   6.7320423437323509    0.0000000000000000    0.0000000000000004
   0.0000000000000009    5.7932058060341891    0.0000000000000004
   0.0000000000000000    0.0000000000000000   33.6602117186617562
Ti Sb Ti Sb
4 8 4 8
Selective dynamics
direct
   0.0000000000000000    0.2500000000000000    0.4833333333333333 F F F Ti
   0.0000000000000000    0.7500000000000000    0.4833333333333333 F F F Ti
   0.4999999999999999    0.7500000000000000    0.3833333333333333 T T T Ti
   0.4999999999999999    0.2500000000000000    0.3833333333333333 T T T Ti
   0.1528142132023228    0.4999999999999999    0.3527704906928688 T T T Sb
   0.3471857867976771    0.5000000000000000    0.4527704906928687 F F F Sb
   0.3471857867976771    0.0000000000000000    0.3138961759737979 T T T Sb
   0.1528142132023228    0.0000000000000000    0.4138961759737979 F F F Sb
   0.6528142132023228    0.0000000000000000    0.4527704906928687 F F F Sb
   0.8471857867976771    0.0000000000000000    0.3527704906928688 T T T Sb
   0.8471857867976771    0.4999999999999999    0.4138961759737979 F F F Sb
   0.6528142132023228    0.5000000000000000    0.3138961759737978 T T T Sb
   0.0000000000000000    0.2500000000000000    0.6833333333333333 T T T Ti
   0.0000000000000000    0.7500000000000000    0.6833333333333333 T T T Ti
   0.4999999999999999    0.7500000000000000    0.5833333333333333 F F F Ti
   0.4999999999999999    0.2500000000000000    0.5833333333333333 F F F Ti
   0.1528142132023228    0.4999999999999999    0.5527704906928688 F F F Sb
   0.3471857867976771    0.5000000000000000    0.6527704906928687 T T T Sb
   0.3471857867976771    0.0000000000000000    0.5138961759737979 F F F Sb
   0.1528142132023228    0.0000000000000000    0.6138961759737979 T T T Sb
   0.6528142132023228    0.0000000000000000    0.6527704906928687 T T T Sb
   0.8471857867976771    0.0000000000000000    0.5527704906928688 F F F Sb
   0.8471857867976771    0.4999999999999999    0.6138961759737979 T T T Sb
   0.6528142132023228    0.5000000000000000    0.5138961759737979 F F F Sb
