Ti24 Sb48
1.0
   6.7320423437323509    0.0000000000000000   -6.7320423437323500
   0.0000000000000070   11.5864116120683800   -6.7320423437323464
   0.0000000000000000    0.0000000000000000   47.1242964061264544
Ti Sb Ti Sb Ti Sb
8 16 8 16 8 16
Selective dynamics
direct
   0.0000000000000000    0.1250000000000000    0.2916666666666667 T T T Ti
   0.0000000000000000    0.6249999999999999    0.3630952380952381 T T T Ti
   0.0000000000000000    0.3750000000000000    0.3273809523809524 T T T Ti
   0.0000000000000000    0.8750000000000000    0.3988095238095238 F F F Ti
   0.4999999999999999    0.3750000000000000    0.3273809523809524 T T T Ti
   0.4999999999999999    0.8750000000000000    0.3988095238095238 F F F Ti
   0.4999999999999999    0.1250000000000000    0.2916666666666667 T T T Ti
   0.4999999999999999    0.6250000000000000    0.3630952380952381 T T T Ti
   0.1528142132023228    0.2500000000000000    0.3809523809523810 T T T Sb
   0.1528142132023228    0.7500000000000000    0.3095238095238095 T T T Sb
   0.3471857867976771    0.2500000000000000    0.3372911771802887 T T T Sb
   0.3471857867976771    0.7500000000000000    0.4087197486088602 F F F Sb
   0.3471857867976771    0.0000000000000000    0.3452380952380953 T T T Sb
   0.3471857867976771    0.5000000000000000    0.4166666666666667 F F F Sb
   0.1528142132023228    0.0000000000000000    0.3888992990101875 T T T Sb
   0.1528142132023228    0.4999999999999999    0.3174707275816160 T T T Sb
   0.6528142132023228    0.0000000000000000    0.3452380952380952 T T T Sb
   0.6528142132023228    0.5000000000000000    0.4166666666666666 F F F Sb
   0.8471857867976771    0.0000000000000001    0.3015768914660030 T T T Sb
   0.8471857867976771    0.5000000000000001    0.3730054628945745 T T T Sb
   0.8471857867976771    0.2500000000000001    0.3809523809523809 T T T Sb
   0.8471857867976771    0.7500000000000000    0.3095238095238095 T T T Sb
   0.6528142132023228    0.2500000000000001    0.4246135847244732 F F F Sb
   0.6528142132023228    0.7500000000000001    0.3531850132959017 T T T Sb
   0.0000000000000000    0.1250000000000000    0.4345238095238095 F F F Ti
   0.0000000000000000    0.6249999999999999    0.5059523809523809 F F F Ti
   0.0000000000000000    0.3750000000000000    0.4702380952380952 F F F Ti
   0.0000000000000000    0.8750000000000000    0.5416666666666667 F F F Ti
   0.4999999999999999    0.3750000000000000    0.4702380952380952 F F F Ti
   0.4999999999999999    0.8750000000000000    0.5416666666666667 F F F Ti
   0.4999999999999999    0.1250000000000000    0.4345238095238095 F F F Ti
   0.4999999999999999    0.6250000000000000    0.5059523809523809 F F F Ti
   0.1528142132023228    0.2500000000000000    0.5238095238095238 F F F Sb
   0.1528142132023228    0.7500000000000000    0.4523809523809524 F F F Sb
   0.3471857867976771    0.2500000000000000    0.4801483200374316 F F F Sb
   0.3471857867976771    0.7500000000000000    0.5515768914660031 F F F Sb
   0.3471857867976771    0.0000000000000000    0.4880952380952381 F F F Sb
   0.3471857867976771    0.5000000000000000    0.5595238095238095 F F F Sb
   0.1528142132023228    0.0000000000000000    0.5317564418673304 F F F Sb
   0.1528142132023228    0.4999999999999999    0.4603278704387589 F F F Sb
   0.6528142132023228    0.0000000000000000    0.4880952380952381 F F F Sb
   0.6528142132023228    0.5000000000000000    0.5595238095238095 F F F Sb
   0.8471857867976771    0.0000000000000001    0.4444340343231459 F F F Sb
   0.8471857867976771    0.5000000000000001    0.5158626057517173 F F F Sb
   0.8471857867976771    0.2500000000000001    0.5238095238095238 F F F Sb
   0.8471857867976771    0.7500000000000000    0.4523809523809524 F F F Sb
   0.6528142132023228    0.2500000000000001    0.5674707275816160 F F F Sb
   0.6528142132023228    0.7500000000000001    0.4960421561530446 F F F Sb
   0.0000000000000000    0.1250000000000000    0.5773809523809523 F F F Ti
   0.0000000000000000    0.6249999999999999    0.6488095238095237 T T T Ti
   0.0000000000000000    0.3750000000000000    0.6130952380952381 T T T Ti
   0.0000000000000000    0.8750000000000000    0.6845238095238095 T T T Ti
   0.4999999999999999    0.3750000000000000    0.6130952380952381 T T T Ti
   0.4999999999999999    0.8750000000000000    0.6845238095238095 T T T Ti
   0.4999999999999999    0.1250000000000000    0.5773809523809523 F F F Ti
   0.4999999999999999    0.6250000000000000    0.6488095238095238 T T T Ti
   0.1528142132023228    0.2500000000000000    0.6666666666666667 T T T Sb
   0.1528142132023228    0.7500000000000000    0.5952380952380952 F F F Sb
   0.3471857867976771    0.2500000000000000    0.6230054628945745 T T T Sb
   0.3471857867976771    0.7500000000000000    0.6944340343231459 T T T Sb
   0.3471857867976771    0.0000000000000000    0.6309523809523809 T T T Sb
   0.3471857867976771    0.5000000000000000    0.7023809523809523 T T T Sb
   0.1528142132023228    0.0000000000000000    0.6746135847244732 T T T Sb
   0.1528142132023228    0.4999999999999999    0.6031850132959018 F F F Sb
   0.6528142132023228    0.0000000000000000    0.6309523809523809 T T T Sb
   0.6528142132023228    0.5000000000000000    0.7023809523809523 T T T Sb
   0.8471857867976771    0.0000000000000001    0.5872911771802887 F F F Sb
   0.8471857867976771    0.5000000000000001    0.6587197486088602 T T T Sb
   0.8471857867976771    0.2500000000000001    0.6666666666666667 T T T Sb
   0.8471857867976771    0.7500000000000000    0.5952380952380952 F F F Sb
   0.6528142132023228    0.2500000000000001    0.7103278704387589 T T T Sb
   0.6528142132023228    0.7500000000000001    0.6388992990101874 T T T Sb
