Ca16 Ni32
1.0
   7.2021257267550141    0.0000000000000000    0.0000000000000004
   0.0000000000000012    7.2021257267550141   -7.2021257267550123
   0.0000000000000000    0.0000000000000000   36.0106286337750703
Ca Ni Ca Ni
8 16 8 16
Selective dynamics
direct
   0.0000000000000000    0.0000000000000000    0.4666666666666666 F F F Ca
   0.2500000000000001    0.2500000000000001    0.4666666666666666 F F F Ca
   0.5000000000000000    0.5000000000000000    0.3666666666666666 T T T Ca
   0.7500000000000000    0.7500000000000000    0.3666666666666666 T T T Ca
   0.5000000000000000    0.0000000000000000    0.3666666666666666 T T T Ca
   0.7500000000000000    0.2500000000000001    0.3666666666666666 T T T Ca
   0.0000000000000000    0.5000000000000000    0.4666666666666666 F F F Ca
   0.2500000000000001    0.7500000000000000    0.4666666666666667 F F F Ca
   0.3750000000000001    0.8750000000000000    0.4166666666666666 T T T Ni
   0.1250000000000000    0.1250000000000001    0.3666666666666666 T T T Ni
   0.1250000000000001    0.8750000000000000    0.3666666666666666 T T T Ni
   0.3750000000000000    0.1250000000000001    0.3166666666666667 T T T Ni
   0.8750000000000000    0.3750000000000001    0.3166666666666667 T T T Ni
   0.6250000000000000    0.6250000000000000    0.4666666666666667 F F F Ni
   0.6250000000000000    0.3750000000000001    0.4666666666666666 F F F Ni
   0.8750000000000000    0.6250000000000000    0.4166666666666666 T T T Ni
   0.8750000000000000    0.8750000000000000    0.3166666666666667 T T T Ni
   0.6250000000000000    0.1250000000000001    0.4666666666666666 F F F Ni
   0.6250000000000000    0.8750000000000000    0.4666666666666666 F F F Ni
   0.8750000000000000    0.1250000000000001    0.4166666666666666 T T T Ni
   0.3750000000000000    0.3750000000000001    0.4166666666666666 T T T Ni
   0.1250000000000001    0.6250000000000000    0.3666666666666666 T T T Ni
   0.1250000000000000    0.3750000000000001    0.3666666666666666 T T T Ni
   0.3750000000000001    0.6250000000000000    0.3166666666666667 T T T Ni
   0.0000000000000000    0.0000000000000000    0.6666666666666666 T T T Ca
   0.2500000000000001    0.2500000000000001    0.6666666666666666 T T T Ca
   0.5000000000000000    0.5000000000000000    0.5666666666666667 T T T Ca
   0.7500000000000000    0.7500000000000000    0.5666666666666667 T T T Ca
   0.5000000000000000    0.0000000000000000    0.5666666666666667 T T T Ca
   0.7500000000000000    0.2500000000000001    0.5666666666666667 T T T Ca
   0.0000000000000000    0.5000000000000000    0.6666666666666666 T T T Ca
   0.2500000000000001    0.7500000000000000    0.6666666666666666 T T T Ca
   0.3750000000000001    0.8750000000000000    0.6166666666666666 T T T Ni
   0.1250000000000000    0.1250000000000001    0.5666666666666667 T T T Ni
   0.1250000000000001    0.8750000000000000    0.5666666666666667 T T T Ni
   0.3750000000000000    0.1250000000000001    0.5166666666666666 F F F Ni
   0.8750000000000000    0.3750000000000001    0.5166666666666666 F F F Ni
   0.6250000000000000    0.6250000000000000    0.6666666666666666 T T T Ni
   0.6250000000000000    0.3750000000000001    0.6666666666666666 T T T Ni
   0.8750000000000000    0.6250000000000000    0.6166666666666667 T T T Ni
   0.8750000000000000    0.8750000000000000    0.5166666666666666 F F F Ni
   0.6250000000000000    0.1250000000000001    0.6666666666666666 T T T Ni
   0.6250000000000000    0.8750000000000000    0.6666666666666666 T T T Ni
   0.8750000000000000    0.1250000000000001    0.6166666666666667 T T T Ni
   0.3750000000000000    0.3750000000000001    0.6166666666666666 T T T Ni
   0.1250000000000001    0.6250000000000000    0.5666666666666667 T T T Ni
   0.1250000000000000    0.3750000000000001    0.5666666666666667 T T T Ni
   0.3750000000000001    0.6250000000000000    0.5166666666666666 F F F Ni
