Re36 Pt12
1.0
   4.8329786212582686    0.0000000000000000   -2.7903215079711692
  -0.0000000000000025    8.8544082076786079   -5.5806430159423375
   0.0000000000000000    0.0000000000000000   39.0645011115963428
Re Pt Re Pt Re Pt
12 4 12 4 12 4
Selective dynamics
direct
   0.1587309896312021    0.3750000000000000    0.3489231398946292 T T T Re
   0.1587309896312021    0.8750000000000000    0.4203517113232006 F F F Re
   0.1587309896312021    0.3750000000000000    0.4237527157669711 F F F Re
   0.1587309896312021    0.8750000000000000    0.3523241443383996 T T T Re
   0.6825380207375956    0.3750000000000000    0.4237527157669711 F F F Re
   0.6825380207375956    0.8750000000000000    0.3523241443383996 T T T Re
   0.8412690103687978    0.1250000000000000    0.3653625743910851 T T T Re
   0.8412690103687978    0.6250000000000000    0.2939340029625137 T T T Re
   0.8412690103687978    0.1250000000000000    0.2905329985187431 T T T Re
   0.8412690103687978    0.6250000000000000    0.3619615699473145 T T T Re
   0.3174619792624043    0.1250000000000000    0.2905329985187431 T T T Re
   0.3174619792624043    0.6250000000000000    0.3619615699473145 T T T Re
   0.3333333333333333    0.1250000000000000    0.3630952380952381 T T T Pt
   0.3333333333333333    0.6250000000000000    0.2916666666666666 T T T Pt
   0.6666666666666667    0.3750000000000000    0.3511904761904762 T T T Pt
   0.6666666666666667    0.8750000000000000    0.4226190476190476 F F F Pt
   0.1587309896312021    0.3750000000000000    0.4917802827517720 F F F Re
   0.1587309896312021    0.8750000000000000    0.5632088541803435 F F F Re
   0.1587309896312021    0.3750000000000000    0.5666098586241139 F F F Re
   0.1587309896312021    0.8750000000000000    0.4951812871955426 F F F Re
   0.6825380207375956    0.3750000000000000    0.5666098586241139 F F F Re
   0.6825380207375956    0.8750000000000000    0.4951812871955426 F F F Re
   0.8412690103687978    0.1250000000000000    0.5082197172482279 F F F Re
   0.8412690103687978    0.6250000000000000    0.4367911458196565 F F F Re
   0.8412690103687978    0.1250000000000000    0.4333901413758860 F F F Re
   0.8412690103687978    0.6250000000000000    0.5048187128044574 F F F Re
   0.3174619792624043    0.1250000000000000    0.4333901413758860 F F F Re
   0.3174619792624043    0.6250000000000000    0.5048187128044574 F F F Re
   0.3333333333333333    0.1250000000000000    0.5059523809523809 F F F Pt
   0.3333333333333333    0.6250000000000000    0.4345238095238095 F F F Pt
   0.6666666666666667    0.3750000000000000    0.4940476190476190 F F F Pt
   0.6666666666666667    0.8750000000000000    0.5654761904761905 F F F Pt
   0.1587309896312021    0.3750000000000000    0.6346374256089149 T T T Re
   0.1587309896312021    0.8750000000000000    0.7060659970374863 T T T Re
   0.1587309896312021    0.3750000000000000    0.7094670014812567 T T T Re
   0.1587309896312021    0.8750000000000000    0.6380384300526853 T T T Re
   0.6825380207375956    0.3750000000000000    0.7094670014812567 T T T Re
   0.6825380207375956    0.8750000000000000    0.6380384300526853 T T T Re
   0.8412690103687978    0.1250000000000000    0.6510768601053708 T T T Re
   0.8412690103687978    0.6250000000000000    0.5796482886767993 F F F Re
   0.8412690103687978    0.1250000000000000    0.5762472842330288 F F F Re
   0.8412690103687978    0.6250000000000000    0.6476758556616002 T T T Re
   0.3174619792624043    0.1250000000000000    0.5762472842330288 F F F Re
   0.3174619792624043    0.6250000000000000    0.6476758556616002 T T T Re
   0.3333333333333333    0.1250000000000000    0.6488095238095237 T T T Pt
   0.3333333333333333    0.6250000000000000    0.5773809523809523 F F F Pt
   0.6666666666666667    0.3750000000000000    0.6369047619047619 T T T Pt
   0.6666666666666667    0.8750000000000000    0.7083333333333333 T T T Pt
