Pt12 W6
1.0
   2.7952833400001373    0.0000000000000000    0.0000000000000002
   0.0000000000000013    8.3524656372994475   -3.9744598311353574
   0.0000000000000000    0.0000000000000000   31.7956786490828698
Pt W Pt W Pt W
4 2 4 2 4 2
Selective dynamics
direct
   0.5000000000000001    0.8367974658247802    0.3337663498947642 T T T Pt
   0.0000000000000000    0.6632025341752197    0.3745669834385691 T T T Pt
   0.0000000000000000    0.3367974658247803    0.3337663498947642 T T T Pt
   0.5000000000000001    0.1632025341752196    0.3745669834385691 T T T Pt
   0.0000000000000000    0.0000000000000000    0.4166666666666666 T T T W
   0.5000000000000001    0.5000000000000000    0.4166666666666666 T T T W
   0.5000000000000001    0.8367974658247802    0.4587663498947642 F F F Pt
   0.0000000000000000    0.6632025341752197    0.4995669834385691 F F F Pt
   0.0000000000000000    0.3367974658247803    0.4587663498947642 F F F Pt
   0.5000000000000001    0.1632025341752196    0.4995669834385691 F F F Pt
   0.0000000000000000    0.0000000000000000    0.5416666666666666 F F F W
   0.5000000000000001    0.5000000000000000    0.5416666666666666 F F F W
   0.5000000000000001    0.8367974658247802    0.5837663498947642 T T T Pt
   0.0000000000000000    0.6632025341752197    0.6245669834385691 T T T Pt
   0.0000000000000000    0.3367974658247803    0.5837663498947642 T T T Pt
   0.5000000000000001    0.1632025341752196    0.6245669834385691 T T T Pt
   0.0000000000000000    0.0000000000000000    0.6666666666666666 T T T W
   0.5000000000000001    0.5000000000000000    0.6666666666666666 T T T W
