Pb16 Au32
1.0
   8.1216182906962882    0.0000000000000000    0.0000000000000005
   0.0000000000000013    8.1216182906962882    0.0000000000000005
   0.0000000000000000    0.0000000000000000   32.4864731627851526
Pb Au Pb Au
8 16 8 16
Selective dynamics
direct
   0.2500000000000000    0.7500000000000000    0.3020833333333334 T T T Pb
   0.0000000000000000    0.0000000000000000    0.3645833333333334 F F F Pb
   0.7500000000000000    0.2500000000000000    0.3020833333333334 T T T Pb
   0.5000000000000000    0.5000000000000000    0.3645833333333334 F F F Pb
   0.2500000000000000    0.2500000000000000    0.4270833333333334 F F F Pb
   0.0000000000000000    0.5000000000000000    0.4895833333333334 F F F Pb
   0.7500000000000000    0.7500000000000000    0.4270833333333334 F F F Pb
   0.5000000000000000    0.0000000000000000    0.4895833333333334 F F F Pb
   0.8750000000000000    0.6250000000000000    0.3333333333333334 T T T Au
   0.6250000000000000    0.8750000000000000    0.3333333333333334 T T T Au
   0.6250000000000000    0.6250000000000000    0.2708333333333334 T T T Au
   0.8750000000000000    0.8750000000000000    0.2708333333333334 T T T Au
   0.3750000000000000    0.1250000000000000    0.3333333333333334 T T T Au
   0.1250000000000000    0.3750000000000000    0.3333333333333334 T T T Au
   0.1250000000000000    0.1250000000000000    0.2708333333333334 T T T Au
   0.3750000000000000    0.3750000000000000    0.2708333333333334 T T T Au
   0.8750000000000000    0.1250000000000000    0.4583333333333334 F F F Au
   0.6250000000000000    0.3750000000000000    0.4583333333333334 F F F Au
   0.6250000000000000    0.1250000000000000    0.3958333333333334 F F F Au
   0.8750000000000000    0.3750000000000000    0.3958333333333334 F F F Au
   0.3750000000000000    0.6250000000000000    0.4583333333333334 F F F Au
   0.1250000000000000    0.8750000000000000    0.4583333333333334 F F F Au
   0.1250000000000000    0.6250000000000000    0.3958333333333334 F F F Au
   0.3750000000000000    0.8750000000000000    0.3958333333333334 F F F Au
   0.2500000000000000    0.7500000000000000    0.5520833333333334 F F F Pb
   0.0000000000000000    0.0000000000000000    0.6145833333333334 F F F Pb
   0.7500000000000000    0.2500000000000000    0.5520833333333334 F F F Pb
   0.5000000000000000    0.5000000000000000    0.6145833333333334 F F F Pb
   0.2500000000000000    0.2500000000000000    0.6770833333333334 T T T Pb
   0.0000000000000000    0.5000000000000000    0.7395833333333334 T T T Pb
   0.7500000000000000    0.7500000000000000    0.6770833333333334 T T T Pb
   0.5000000000000000    0.0000000000000000    0.7395833333333334 T T T Pb
   0.8750000000000000    0.6250000000000000    0.5833333333333334 F F F Au
   0.6250000000000000    0.8750000000000000    0.5833333333333334 F F F Au
   0.6250000000000000    0.6250000000000000    0.5208333333333334 F F F Au
   0.8750000000000000    0.8750000000000000    0.5208333333333334 F F F Au
   0.3750000000000000    0.1250000000000000    0.5833333333333334 F F F Au
   0.1250000000000000    0.3750000000000000    0.5833333333333334 F F F Au
   0.1250000000000000    0.1250000000000000    0.5208333333333334 F F F Au
   0.3750000000000000    0.3750000000000000    0.5208333333333334 F F F Au
   0.8750000000000000    0.1250000000000000    0.7083333333333334 T T T Au
   0.6250000000000000    0.3750000000000000    0.7083333333333334 T T T Au
   0.6250000000000000    0.1250000000000000    0.6458333333333334 F F F Au
   0.8750000000000000    0.3750000000000000    0.6458333333333334 F F F Au
   0.3750000000000000    0.6250000000000000    0.7083333333333334 T T T Au
   0.1250000000000000    0.8750000000000000    0.7083333333333334 T T T Au
   0.1250000000000000    0.6250000000000000    0.6458333333333334 F F F Au
   0.3750000000000000    0.8750000000000000    0.6458333333333334 F F F Au
