Cr20 Si40
1.0
   3.0783048337891987    0.0000000000000000   -3.0783048337891983
   0.0000000000000091   15.0560959581472815   -3.0783048337891974
   0.0000000000000000    0.0000000000000000   36.9396580054703847
Cr Si Cr Si Cr Si Cr Si Cr Si
4 8 4 8 4 8 4 8 4 8
Selective dynamics
direct
   0.0000000000000000    0.0000000000000000    0.3645833333333333 T T T Cr
   0.0000000000000000    0.5000000000000000    0.3229166666666666 T T T Cr
   0.5000000000000000    0.2500000000000001    0.3020833333333333 T T T Cr
   0.5000000000000000    0.7500000000000001    0.3437499999999999 T T T Cr
   0.5000000000000000    0.0815627107498536    0.3713802258958211 T T T Si
   0.5000000000000000    0.5815627107498537    0.3297135592291544 T T T Si
   0.0000000000000000    0.1684372892501465    0.2952864407708455 T T T Si
   0.0000000000000000    0.6684372892501466    0.3369531074375122 T T T Si
   0.0000000000000000    0.3315627107498536    0.3088802258958211 T T T Si
   0.0000000000000000    0.8315627107498536    0.3505468925624878 T T T Si
   0.5000000000000000    0.4184372892501466    0.3161197741041789 T T T Si
   0.5000000000000000    0.9184372892501467    0.3577864407708455 T T T Si
   0.0000000000000000    0.0000000000000000    0.4479166666666666 F F F Cr
   0.0000000000000000    0.5000000000000000    0.4062499999999999 T T T Cr
   0.5000000000000000    0.2500000000000001    0.3854166666666666 T T T Cr
   0.5000000000000000    0.7500000000000001    0.4270833333333333 F F F Cr
   0.5000000000000000    0.0815627107498536    0.4547135592291544 F F F Si
   0.5000000000000000    0.5815627107498537    0.4130468925624877 F F F Si
   0.0000000000000000    0.1684372892501465    0.3786197741041788 T T T Si
   0.0000000000000000    0.6684372892501466    0.4202864407708455 F F F Si
   0.0000000000000000    0.3315627107498536    0.3922135592291544 T T T Si
   0.0000000000000000    0.8315627107498536    0.4338802258958211 F F F Si
   0.5000000000000000    0.4184372892501466    0.3994531074375122 T T T Si
   0.5000000000000000    0.9184372892501467    0.4411197741041789 F F F Si
   0.0000000000000000    0.0000000000000000    0.5312500000000000 F F F Cr
   0.0000000000000000    0.5000000000000000    0.4895833333333333 F F F Cr
   0.5000000000000000    0.2500000000000001    0.4687499999999999 F F F Cr
   0.5000000000000000    0.7500000000000001    0.5104166666666666 F F F Cr
   0.5000000000000000    0.0815627107498536    0.5380468925624877 F F F Si
   0.5000000000000000    0.5815627107498537    0.4963802258958211 F F F Si
   0.0000000000000000    0.1684372892501465    0.4619531074375122 F F F Si
   0.0000000000000000    0.6684372892501466    0.5036197741041788 F F F Si
   0.0000000000000000    0.3315627107498536    0.4755468925624877 F F F Si
   0.0000000000000000    0.8315627107498536    0.5172135592291545 F F F Si
   0.5000000000000000    0.4184372892501466    0.4827864407708455 F F F Si
   0.5000000000000000    0.9184372892501467    0.5244531074375122 F F F Si
   0.0000000000000000    0.0000000000000000    0.6145833333333333 T T T Cr
   0.0000000000000000    0.5000000000000000    0.5729166666666666 F F F Cr
   0.5000000000000000    0.2500000000000001    0.5520833333333333 F F F Cr
   0.5000000000000000    0.7500000000000001    0.5937500000000000 T T T Cr
   0.5000000000000000    0.0815627107498536    0.6213802258958211 T T T Si
   0.5000000000000000    0.5815627107498537    0.5797135592291545 F F F Si
   0.0000000000000000    0.1684372892501465    0.5452864407708455 F F F Si
   0.0000000000000000    0.6684372892501466    0.5869531074375122 F F F Si
   0.0000000000000000    0.3315627107498536    0.5588802258958211 F F F Si
   0.0000000000000000    0.8315627107498536    0.6005468925624877 T T T Si
   0.5000000000000000    0.4184372892501466    0.5661197741041788 F F F Si
   0.5000000000000000    0.9184372892501467    0.6077864407708455 T T T Si
   0.0000000000000000    0.0000000000000000    0.6979166666666666 T T T Cr
   0.0000000000000000    0.5000000000000000    0.6562500000000000 T T T Cr
   0.5000000000000000    0.2500000000000001    0.6354166666666666 T T T Cr
   0.5000000000000000    0.7500000000000001    0.6770833333333333 T T T Cr
   0.5000000000000000    0.0815627107498536    0.7047135592291545 T T T Si
   0.5000000000000000    0.5815627107498537    0.6630468925624877 T T T Si
   0.0000000000000000    0.1684372892501465    0.6286197741041788 T T T Si
   0.0000000000000000    0.6684372892501466    0.6702864407708455 T T T Si
   0.0000000000000000    0.3315627107498536    0.6422135592291545 T T T Si
   0.0000000000000000    0.8315627107498536    0.6838802258958211 T T T Si
   0.5000000000000000    0.4184372892501466    0.6494531074375122 T T T Si
   0.5000000000000000    0.9184372892501467    0.6911197741041788 T T T Si
