Hf20 Ni20
1.0
   9.8352322033261181    0.0000000000000000   -6.4921338512237154
  -0.0000000000000012    4.0807406156802433   -3.2460669256118559
   0.0000000000000000    0.0000000000000000   38.9528031073422838
Hf Ni Hf Ni Hf Ni Hf Ni Hf Ni
4 4 4 4 4 4 4 4 4 4
Selective dynamics
direct
   0.6398938273089172    0.7500000000000001    0.3253989712181529 T T T Hf
   0.8601061726910828    0.2500000000000001    0.3621010287818471 T T T Hf
   0.1398938273089172    0.7500000000000000    0.3670656378848196 T T T Hf
   0.3601061726910828    0.2500000000000001    0.3204343621151805 T T T Hf
   0.9160783022235252    0.7500000000000001    0.2880963837039209 T T T Ni
   0.5839216977764750    0.2500000000000001    0.3160702829627459 T T T Ni
   0.4160783022235250    0.7500000000000000    0.3297630503705876 T T T Ni
   0.0839216977764750    0.2500000000000001    0.3577369496294125 T T T Ni
   0.6398938273089172    0.7500000000000001    0.4087323045514862 F F F Hf
   0.8601061726910828    0.2500000000000001    0.4454343621151805 F F F Hf
   0.1398938273089172    0.7500000000000000    0.4503989712181529 F F F Hf
   0.3601061726910828    0.2500000000000001    0.4037676954485138 F F F Hf
   0.9160783022235252    0.7500000000000001    0.3714297170372542 T T T Ni
   0.5839216977764750    0.2500000000000001    0.3994036162960792 F F F Ni
   0.4160783022235250    0.7500000000000000    0.4130963837039209 F F F Ni
   0.0839216977764750    0.2500000000000001    0.4410702829627459 F F F Ni
   0.6398938273089172    0.7500000000000001    0.4920656378848196 F F F Hf
   0.8601061726910828    0.2500000000000001    0.5287676954485139 F F F Hf
   0.1398938273089172    0.7500000000000000    0.5337323045514862 F F F Hf
   0.3601061726910828    0.2500000000000001    0.4871010287818471 F F F Hf
   0.9160783022235252    0.7500000000000001    0.4547630503705875 F F F Ni
   0.5839216977764750    0.2500000000000001    0.4827369496294125 F F F Ni
   0.4160783022235250    0.7500000000000000    0.4964297170372542 F F F Ni
   0.0839216977764750    0.2500000000000001    0.5244036162960792 F F F Ni
   0.6398938273089172    0.7500000000000001    0.5753989712181529 F F F Hf
   0.8601061726910828    0.2500000000000001    0.6121010287818471 T T T Hf
   0.1398938273089172    0.7500000000000000    0.6170656378848196 T T T Hf
   0.3601061726910828    0.2500000000000001    0.5704343621151805 F F F Hf
   0.9160783022235252    0.7500000000000001    0.5380963837039209 F F F Ni
   0.5839216977764750    0.2500000000000001    0.5660702829627459 F F F Ni
   0.4160783022235250    0.7500000000000000    0.5797630503705875 F F F Ni
   0.0839216977764750    0.2500000000000001    0.6077369496294125 T T T Ni
   0.6398938273089172    0.7500000000000001    0.6587323045514862 T T T Hf
   0.8601061726910828    0.2500000000000001    0.6954343621151804 T T T Hf
   0.1398938273089172    0.7500000000000000    0.7003989712181529 T T T Hf
   0.3601061726910828    0.2500000000000001    0.6537676954485139 T T T Hf
   0.9160783022235252    0.7500000000000001    0.6214297170372542 T T T Ni
   0.5839216977764750    0.2500000000000001    0.6494036162960792 T T T Ni
   0.4160783022235250    0.7500000000000000    0.6630963837039209 T T T Ni
   0.0839216977764750    0.2500000000000001    0.6910702829627459 T T T Ni
