Co32 Si32
1.0
   4.4287449602866769    0.0000000000000000   -4.4287449602866760
   0.0000000000000014    8.8574899205733519   -4.4287449602866760
   0.0000000000000000    0.0000000000000000   44.2874496028667721
Co Si Co Si Co Si Co Si
8 8 8 8 8 8 8 8
Selective dynamics
direct
   0.6452864485562060    0.1773567757218970    0.3427356775721897 T T T Co
   0.6452864485562060    0.6773567757218971    0.3927356775721897 T T T Co
   0.3547135514437940    0.4273567757218970    0.3177356775721897 T T T Co
   0.3547135514437940    0.9273567757218970    0.3677356775721897 T T T Co
   0.8547135514437940    0.3226432242781030    0.3282070327165691 T T T Co
   0.8547135514437940    0.8226432242781031    0.3782070327165691 T T T Co
   0.1452864485562060    0.0726432242781030    0.3113216121390515 T T T Co
   0.1452864485562060    0.5726432242781030    0.3613216121390515 T T T Co
   0.3432602486609184    0.3283698756695408    0.3578369875669541 T T T Si
   0.3432602486609184    0.8283698756695408    0.3078369875669540 T T T Si
   0.6567397513390815    0.0783698756695408    0.3828369875669541 T T T Si
   0.6567397513390815    0.5783698756695409    0.3328369875669541 T T T Si
   0.1567397513390816    0.1716301243304592    0.3735109627008622 T T T Si
   0.1567397513390816    0.6716301243304592    0.3235109627008622 T T T Si
   0.8432602486609184    0.4216301243304593    0.3858150621652296 T T T Si
   0.8432602486609184    0.9216301243304593    0.3358150621652296 T T T Si
   0.6452864485562060    0.1773567757218970    0.4427356775721897 F F F Co
   0.6452864485562060    0.6773567757218971    0.4927356775721897 F F F Co
   0.3547135514437940    0.4273567757218970    0.4177356775721897 F F F Co
   0.3547135514437940    0.9273567757218970    0.4677356775721897 F F F Co
   0.8547135514437940    0.3226432242781030    0.4282070327165691 F F F Co
   0.8547135514437940    0.8226432242781031    0.4782070327165691 F F F Co
   0.1452864485562060    0.0726432242781030    0.4113216121390515 F F F Co
   0.1452864485562060    0.5726432242781030    0.4613216121390515 F F F Co
   0.3432602486609184    0.3283698756695408    0.4578369875669541 F F F Si
   0.3432602486609184    0.8283698756695408    0.4078369875669541 T T T Si
   0.6567397513390815    0.0783698756695408    0.4828369875669541 F F F Si
   0.6567397513390815    0.5783698756695409    0.4328369875669541 F F F Si
   0.1567397513390816    0.1716301243304592    0.4735109627008622 F F F Si
   0.1567397513390816    0.6716301243304592    0.4235109627008622 F F F Si
   0.8432602486609184    0.4216301243304593    0.4858150621652296 F F F Si
   0.8432602486609184    0.9216301243304593    0.4358150621652296 F F F Si
   0.6452864485562060    0.1773567757218970    0.5427356775721897 F F F Co
   0.6452864485562060    0.6773567757218971    0.5927356775721897 T T T Co
   0.3547135514437940    0.4273567757218970    0.5177356775721897 F F F Co
   0.3547135514437940    0.9273567757218970    0.5677356775721898 F F F Co
   0.8547135514437940    0.3226432242781030    0.5282070327165691 F F F Co
   0.8547135514437940    0.8226432242781031    0.5782070327165691 F F F Co
   0.1452864485562060    0.0726432242781030    0.5113216121390515 F F F Co
   0.1452864485562060    0.5726432242781030    0.5613216121390515 F F F Co
   0.3432602486609184    0.3283698756695408    0.5578369875669541 F F F Si
   0.3432602486609184    0.8283698756695408    0.5078369875669541 F F F Si
   0.6567397513390815    0.0783698756695408    0.5828369875669541 F F F Si
   0.6567397513390815    0.5783698756695409    0.5328369875669541 F F F Si
   0.1567397513390816    0.1716301243304592    0.5735109627008622 F F F Si
   0.1567397513390816    0.6716301243304592    0.5235109627008623 F F F Si
   0.8432602486609184    0.4216301243304593    0.5858150621652296 F F F Si
   0.8432602486609184    0.9216301243304593    0.5358150621652296 F F F Si
   0.6452864485562060    0.1773567757218970    0.6427356775721897 T T T Co
   0.6452864485562060    0.6773567757218971    0.6927356775721897 T T T Co
   0.3547135514437940    0.4273567757218970    0.6177356775721896 T T T Co
   0.3547135514437940    0.9273567757218970    0.6677356775721897 T T T Co
   0.8547135514437940    0.3226432242781030    0.6282070327165691 T T T Co
   0.8547135514437940    0.8226432242781031    0.6782070327165690 T T T Co
   0.1452864485562060    0.0726432242781030    0.6113216121390515 T T T Co
   0.1452864485562060    0.5726432242781030    0.6613216121390515 T T T Co
   0.3432602486609184    0.3283698756695408    0.6578369875669541 T T T Si
   0.3432602486609184    0.8283698756695408    0.6078369875669540 T T T Si
   0.6567397513390815    0.0783698756695408    0.6828369875669540 T T T Si
   0.6567397513390815    0.5783698756695409    0.6328369875669541 T T T Si
   0.1567397513390816    0.1716301243304592    0.6735109627008622 T T T Si
   0.1567397513390816    0.6716301243304592    0.6235109627008621 T T T Si
   0.8432602486609184    0.4216301243304593    0.6858150621652296 T T T Si
   0.8432602486609184    0.9216301243304593    0.6358150621652296 T T T Si
