Ta24 Sb48
1.0
   8.3886239419216668    0.0000000000000000    0.0000000000000005
  10.4811333736222352   17.8251719502218720    3.6972378116039000
   0.0000000000000000    0.0000000000000000   29.5779024928312317
Ta Sb Ta Sb Ta Sb
8 16 8 16 8 16
Selective dynamics
direct
   0.1885165846161029    0.1746668940579639    0.3219166382427546 T T T Ta
   0.1885165846161029    0.6746668940579639    0.3844166382427545 T T T Ta
   0.8114834153838970    0.3253331059420362    0.4280833617572455 F F F Ta
   0.8114834153838970    0.8253331059420361    0.3655833617572455 T T T Ta
   0.1885165846161029    0.4246668940579639    0.3531666382427545 T T T Ta
   0.1885165846161029    0.9246668940579639    0.4156666382427545 T T T Ta
   0.8114834153838970    0.0753331059420362    0.3968333617572455 T T T Ta
   0.8114834153838970    0.5753331059420361    0.3343333617572455 T T T Ta
   0.4651728088009861    0.0741861671753625    0.3969767291030797 T T T Sb
   0.4651728088009861    0.5741861671753625    0.3344767291030797 T T T Sb
   0.5348271911990139    0.4258138328246375    0.3530232708969203 T T T Sb
   0.5348271911990139    0.9258138328246375    0.4155232708969203 T T T Sb
   0.8881446972547591    0.4524850505169200    0.4121893686853850 T T T Sb
   0.8881446972547591    0.9524850505169198    0.3496893686853850 T T T Sb
   0.1118553027452408    0.0475149494830803    0.3378106313146150 T T T Sb
   0.1118553027452408    0.5475149494830802    0.4003106313146150 T T T Sb
   0.4651728088009861    0.3241861671753626    0.4282267291030797 F F F Sb
   0.4651728088009861    0.8241861671753625    0.3657267291030797 T T T Sb
   0.5348271911990139    0.1758138328246375    0.3217732708969204 T T T Sb
   0.5348271911990139    0.6758138328246375    0.3842732708969203 T T T Sb
   0.8881446972547591    0.2024850505169198    0.3809393686853850 T T T Sb
   0.8881446972547591    0.7024850505169197    0.3184393686853850 T T T Sb
   0.1118553027452408    0.2975149494830803    0.3690606313146150 T T T Sb
   0.1118553027452408    0.7975149494830803    0.4315606313146150 F F F Sb
   0.1885165846161029    0.1746668940579639    0.4469166382427546 F F F Ta
   0.1885165846161029    0.6746668940579639    0.5094166382427545 F F F Ta
   0.8114834153838970    0.3253331059420362    0.5530833617572455 F F F Ta
   0.8114834153838970    0.8253331059420361    0.4905833617572455 F F F Ta
   0.1885165846161029    0.4246668940579639    0.4781666382427545 F F F Ta
   0.1885165846161029    0.9246668940579639    0.5406666382427545 F F F Ta
   0.8114834153838970    0.0753331059420362    0.5218333617572455 F F F Ta
   0.8114834153838970    0.5753331059420361    0.4593333617572455 F F F Ta
   0.4651728088009861    0.0741861671753625    0.5219767291030797 F F F Sb
   0.4651728088009861    0.5741861671753625    0.4594767291030797 F F F Sb
   0.5348271911990139    0.4258138328246375    0.4780232708969203 F F F Sb
   0.5348271911990139    0.9258138328246375    0.5405232708969203 F F F Sb
   0.8881446972547591    0.4524850505169200    0.5371893686853850 F F F Sb
   0.8881446972547591    0.9524850505169198    0.4746893686853850 F F F Sb
   0.1118553027452408    0.0475149494830803    0.4628106313146150 F F F Sb
   0.1118553027452408    0.5475149494830802    0.5253106313146150 F F F Sb
   0.4651728088009861    0.3241861671753626    0.5532267291030797 F F F Sb
   0.4651728088009861    0.8241861671753625    0.4907267291030797 F F F Sb
   0.5348271911990139    0.1758138328246375    0.4467732708969204 F F F Sb
   0.5348271911990139    0.6758138328246375    0.5092732708969203 F F F Sb
   0.8881446972547591    0.2024850505169198    0.5059393686853850 F F F Sb
   0.8881446972547591    0.7024850505169197    0.4434393686853850 F F F Sb
   0.1118553027452408    0.2975149494830803    0.4940606313146150 F F F Sb
   0.1118553027452408    0.7975149494830803    0.5565606313146150 F F F Sb
   0.1885165846161029    0.1746668940579639    0.5719166382427545 F F F Ta
   0.1885165846161029    0.6746668940579639    0.6344166382427545 T T T Ta
   0.8114834153838970    0.3253331059420362    0.6780833617572455 T T T Ta
   0.8114834153838970    0.8253331059420361    0.6155833617572455 T T T Ta
   0.1885165846161029    0.4246668940579639    0.6031666382427545 T T T Ta
   0.1885165846161029    0.9246668940579639    0.6656666382427545 T T T Ta
   0.8114834153838970    0.0753331059420362    0.6468333617572455 T T T Ta
   0.8114834153838970    0.5753331059420361    0.5843333617572455 T T T Ta
   0.4651728088009861    0.0741861671753625    0.6469767291030797 T T T Sb
   0.4651728088009861    0.5741861671753625    0.5844767291030797 T T T Sb
   0.5348271911990139    0.4258138328246375    0.6030232708969203 T T T Sb
   0.5348271911990139    0.9258138328246375    0.6655232708969203 T T T Sb
   0.8881446972547591    0.4524850505169200    0.6621893686853850 T T T Sb
   0.8881446972547591    0.9524850505169198    0.5996893686853850 T T T Sb
   0.1118553027452408    0.0475149494830803    0.5878106313146150 T T T Sb
   0.1118553027452408    0.5475149494830802    0.6503106313146150 T T T Sb
   0.4651728088009861    0.3241861671753626    0.6782267291030797 T T T Sb
   0.4651728088009861    0.8241861671753625    0.6157267291030797 T T T Sb
   0.5348271911990139    0.1758138328246375    0.5717732708969203 F F F Sb
   0.5348271911990139    0.6758138328246375    0.6342732708969203 T T T Sb
   0.8881446972547591    0.2024850505169198    0.6309393686853850 T T T Sb
   0.8881446972547591    0.7024850505169197    0.5684393686853850 F F F Sb
   0.1118553027452408    0.2975149494830803    0.6190606313146150 T T T Sb
   0.1118553027452408    0.7975149494830803    0.6815606313146150 T T T Sb
