Ti32 Ag16
1.0
   2.9420715993822952    0.0000000000000000    0.0000000000000002
   0.0000000000000039   24.0878183537427191   -2.9420715993822872
   0.0000000000000000    0.0000000000000000   29.4207159938229523
Ti Ag Ti Ag Ti Ag Ti Ag
8 4 8 4 8 4 8 4
Selective dynamics
direct
   0.0000000000000000    0.1634984567311246    0.3038498456731125 T T T Ti
   0.0000000000000000    0.6634984567311245    0.3538498456731125 T T T Ti
   0.5000000000000000    0.0865015432688754    0.3461501543268876 T T T Ti
   0.5000000000000000    0.5865015432688754    0.3961501543268876 T T T Ti
   0.5000000000000000    0.4134984567311246    0.3788498456731125 T T T Ti
   0.5000000000000000    0.9134984567311245    0.3288498456731125 T T T Ti
   0.0000000000000000    0.3365015432688754    0.3211501543268876 T T T Ti
   0.0000000000000000    0.8365015432688754    0.3711501543268876 T T T Ti
   0.0000000000000000    0.0000000000000000    0.3875000000000001 T T T Ag
   0.0000000000000000    0.4999999999999999    0.3375000000000001 T T T Ag
   0.5000000000000000    0.2499999999999999    0.3625000000000000 T T T Ag
   0.5000000000000000    0.7499999999999999    0.3125000000000001 T T T Ag
   0.0000000000000000    0.1634984567311246    0.4038498456731126 T T T Ti
   0.0000000000000000    0.6634984567311245    0.4538498456731125 F F F Ti
   0.5000000000000000    0.0865015432688754    0.4461501543268876 F F F Ti
   0.5000000000000000    0.5865015432688754    0.4961501543268876 F F F Ti
   0.5000000000000000    0.4134984567311246    0.4788498456731125 F F F Ti
   0.5000000000000000    0.9134984567311245    0.4288498456731125 F F F Ti
   0.0000000000000000    0.3365015432688754    0.4211501543268876 F F F Ti
   0.0000000000000000    0.8365015432688754    0.4711501543268876 F F F Ti
   0.0000000000000000    0.0000000000000000    0.4875000000000000 F F F Ag
   0.0000000000000000    0.4999999999999999    0.4375000000000001 F F F Ag
   0.5000000000000000    0.2499999999999999    0.4625000000000000 F F F Ag
   0.5000000000000000    0.7499999999999999    0.4125000000000000 F F F Ag
   0.0000000000000000    0.1634984567311246    0.5038498456731125 F F F Ti
   0.0000000000000000    0.6634984567311245    0.5538498456731125 F F F Ti
   0.5000000000000000    0.0865015432688754    0.5461501543268876 F F F Ti
   0.5000000000000000    0.5865015432688754    0.5961501543268876 T T T Ti
   0.5000000000000000    0.4134984567311246    0.5788498456731125 F F F Ti
   0.5000000000000000    0.9134984567311245    0.5288498456731126 F F F Ti
   0.0000000000000000    0.3365015432688754    0.5211501543268876 F F F Ti
   0.0000000000000000    0.8365015432688754    0.5711501543268875 F F F Ti
   0.0000000000000000    0.0000000000000000    0.5875000000000001 F F F Ag
   0.0000000000000000    0.4999999999999999    0.5375000000000001 F F F Ag
   0.5000000000000000    0.2499999999999999    0.5625000000000000 F F F Ag
   0.5000000000000000    0.7499999999999999    0.5125000000000001 F F F Ag
   0.0000000000000000    0.1634984567311246    0.6038498456731125 T T T Ti
   0.0000000000000000    0.6634984567311245    0.6538498456731126 T T T Ti
   0.5000000000000000    0.0865015432688754    0.6461501543268875 T T T Ti
   0.5000000000000000    0.5865015432688754    0.6961501543268875 T T T Ti
   0.5000000000000000    0.4134984567311246    0.6788498456731125 T T T Ti
   0.5000000000000000    0.9134984567311245    0.6288498456731124 T T T Ti
   0.0000000000000000    0.3365015432688754    0.6211501543268876 T T T Ti
   0.0000000000000000    0.8365015432688754    0.6711501543268876 T T T Ti
   0.0000000000000000    0.0000000000000000    0.6875000000000000 T T T Ag
   0.0000000000000000    0.4999999999999999    0.6375000000000001 T T T Ag
   0.5000000000000000    0.2499999999999999    0.6625000000000001 T T T Ag
   0.5000000000000000    0.7499999999999999    0.6125000000000000 T T T Ag
