Sr24 Pd24
1.0
  12.1832294657701663    0.0000000000000000    0.0000000000000007
   3.0059477933853547    8.0130257282327690    4.5563106913416540
   0.0000000000000000    0.0000000000000000   31.8941748393915887
Sr Pd Sr Pd Sr Pd
8 8 8 8 8 8
Selective dynamics
direct
   0.6394497591426358    0.9302751204286821    0.4028178399387597 F F F Sr
   0.6394497591426358    0.4302751204286821    0.3313892685101882 T T T Sr
   0.8605502408573643    0.0697248795713179    0.3114678743469546 T T T Sr
   0.8605502408573643    0.5697248795713179    0.3828964457755260 T T T Sr
   0.1394497591426358    0.4302751204286822    0.3313892685101882 T T T Sr
   0.1394497591426358    0.9302751204286821    0.4028178399387597 F F F Sr
   0.3605502408573643    0.0697248795713179    0.3114678743469546 T T T Sr
   0.3605502408573643    0.5697248795713179    0.3828964457755260 T T T Sr
   0.9291500440497202    0.7854249779751399    0.4235107174321229 F F F Pd
   0.9291500440497202    0.2854249779751399    0.3520821460035514 T T T Pd
   0.5708499559502799    0.2145750220248601    0.2907749968535914 T T T Pd
   0.5708499559502799    0.7145750220248601    0.3622035682821628 T T T Pd
   0.4291500440497203    0.2854249779751399    0.3520821460035514 T T T Pd
   0.4291500440497203    0.7854249779751399    0.4235107174321229 F F F Pd
   0.0708499559502798    0.2145750220248601    0.2907749968535914 T T T Pd
   0.0708499559502798    0.7145750220248601    0.3622035682821628 T T T Pd
   0.6394497591426358    0.9302751204286821    0.5456749827959025 F F F Sr
   0.6394497591426358    0.4302751204286821    0.4742464113673311 F F F Sr
   0.8605502408573643    0.0697248795713179    0.4543250172040975 F F F Sr
   0.8605502408573643    0.5697248795713179    0.5257535886326689 F F F Sr
   0.1394497591426358    0.4302751204286822    0.4742464113673311 F F F Sr
   0.1394497591426358    0.9302751204286821    0.5456749827959025 F F F Sr
   0.3605502408573643    0.0697248795713179    0.4543250172040975 F F F Sr
   0.3605502408573643    0.5697248795713179    0.5257535886326689 F F F Sr
   0.9291500440497202    0.7854249779751399    0.5663678602892658 F F F Pd
   0.9291500440497202    0.2854249779751399    0.4949392888606943 F F F Pd
   0.5708499559502799    0.2145750220248601    0.4336321397107342 F F F Pd
   0.5708499559502799    0.7145750220248601    0.5050607111393057 F F F Pd
   0.4291500440497203    0.2854249779751399    0.4949392888606943 F F F Pd
   0.4291500440497203    0.7854249779751399    0.5663678602892657 F F F Pd
   0.0708499559502798    0.2145750220248601    0.4336321397107343 F F F Pd
   0.0708499559502798    0.7145750220248601    0.5050607111393057 F F F Pd
   0.6394497591426358    0.9302751204286821    0.6885321256530454 T T T Sr
   0.6394497591426358    0.4302751204286821    0.6171035542244739 T T T Sr
   0.8605502408573643    0.0697248795713179    0.5971821600612403 F F F Sr
   0.8605502408573643    0.5697248795713179    0.6686107314898118 T T T Sr
   0.1394497591426358    0.4302751204286822    0.6171035542244739 T T T Sr
   0.1394497591426358    0.9302751204286821    0.6885321256530454 T T T Sr
   0.3605502408573643    0.0697248795713179    0.5971821600612403 F F F Sr
   0.3605502408573643    0.5697248795713179    0.6686107314898118 T T T Sr
   0.9291500440497202    0.7854249779751399    0.7092250031464086 T T T Pd
   0.9291500440497202    0.2854249779751399    0.6377964317178371 T T T Pd
   0.5708499559502799    0.2145750220248601    0.5764892825678771 F F F Pd
   0.5708499559502799    0.7145750220248601    0.6479178539964485 T T T Pd
   0.4291500440497203    0.2854249779751399    0.6377964317178371 T T T Pd
   0.4291500440497203    0.7854249779751399    0.7092250031464086 T T T Pd
   0.0708499559502798    0.2145750220248601    0.5764892825678771 F F F Pd
   0.0708499559502798    0.7145750220248601    0.6479178539964485 T T T Pd
