Al8 Fe8
1.0
   2.8754672513127186    0.0000000000000000    0.0000000000000002
   0.0000000000000009    5.7509345026254364   -2.8754672513127182
   0.0000000000000000    0.0000000000000000   28.7546725131271863
Al Fe Al Fe Al Fe Al Fe
2 2 2 2 2 2 2 2
Selective dynamics
direct
   0.0000000000000000    0.5000000000000000    0.3375000000000000 T T T Al
   0.0000000000000000    0.0000000000000000    0.3875000000000000 T T T Al
   0.5000000000000000    0.2500000000000000    0.3625000000000000 T T T Fe
   0.5000000000000000    0.7500000000000000    0.3125000000000000 T T T Fe
   0.0000000000000000    0.5000000000000000    0.4375000000000000 F F F Al
   0.0000000000000000    0.0000000000000000    0.4875000000000000 F F F Al
   0.5000000000000000    0.2500000000000000    0.4625000000000000 F F F Fe
   0.5000000000000000    0.7500000000000000    0.4125000000000000 T T T Fe
   0.0000000000000000    0.5000000000000000    0.5375000000000000 F F F Al
   0.0000000000000000    0.0000000000000000    0.5874999999999999 T T T Al
   0.5000000000000000    0.2500000000000000    0.5625000000000000 F F F Fe
   0.5000000000000000    0.7500000000000000    0.5125000000000000 F F F Fe
   0.0000000000000000    0.5000000000000000    0.6375000000000000 T T T Al
   0.0000000000000000    0.0000000000000000    0.6875000000000000 T T T Al
   0.5000000000000000    0.2500000000000000    0.6625000000000000 T T T Fe
   0.5000000000000000    0.7500000000000000    0.6125000000000000 T T T Fe
