Ni3 Pt3
1.0
   2.7161269493928324    0.0000000000000000    0.0000000000000002
   0.0000000000000004    2.7161269493928324    0.0000000000000002
   0.0000000000000000    0.0000000000000000   29.0553234526829520
Ni Pt Ni Pt Ni Pt
1 1 1 1 1 1
Selective dynamics
direct
   0.5000000000000000    0.5000000000000000    0.3437500000000000 T T T Ni
   0.0000000000000000    0.0000000000000000    0.4062500000000000 T T T Pt
   0.5000000000000000    0.5000000000000000    0.4687500000000000 F F F Ni
   0.0000000000000000    0.0000000000000000    0.5312500000000000 F F F Pt
   0.5000000000000000    0.5000000000000000    0.5937500000000000 T T T Ni
   0.0000000000000000    0.0000000000000000    0.6562500000000000 T T T Pt
