Y24 Te72
1.0
  26.4666750383895995    0.0000000000000000    0.0000000000000016
   0.0000000000000014    8.6737567026842726   -4.3413521318619752
   0.0000000000000000    0.0000000000000000   30.3894649230338381
Y Te Y Te Y Te
8 24 8 24 8 24
Selective dynamics
direct
   0.3284102402907632    0.1250000000000000    0.3750000000000000 T T T Y
   0.3284102402907632    0.6250000000000001    0.3035714285714285 T T T Y
   0.1715897597092369    0.3750000000000000    0.3392857142857142 T T T Y
   0.1715897597092369    0.8750000000000000    0.4107142857142857 T T T Y
   0.8284102402907632    0.1250000000000000    0.3035714285714285 T T T Y
   0.8284102402907632    0.6250000000000000    0.3750000000000000 T T T Y
   0.6715897597092368    0.3750000000000001    0.4107142857142857 T T T Y
   0.6715897597092368    0.8750000000000001    0.3392857142857142 T T T Y
   0.0762572745157915    0.1250000000000000    0.3035714285714285 T T T Te
   0.0762572745157915    0.6250000000000000    0.3750000000000000 T T T Te
   0.4237427254842086    0.3750000000000001    0.4107142857142857 T T T Te
   0.4237427254842086    0.8750000000000000    0.3392857142857142 T T T Te
   0.4237343555947657    0.1250000000000000    0.3035714285714285 T T T Te
   0.4237343555947657    0.6250000000000001    0.3750000000000000 T T T Te
   0.0762656444052343    0.3750000000000001    0.4107142857142857 T T T Te
   0.0762656444052343    0.8750000000000000    0.3392857142857142 T T T Te
   0.2069192740590413    0.1250000000000000    0.3750000000000000 T T T Te
   0.2069192740590413    0.6250000000000000    0.3035714285714285 T T T Te
   0.2930807259409587    0.3750000000000001    0.3392857142857143 T T T Te
   0.2930807259409587    0.8750000000000000    0.4107142857142857 T T T Te
   0.5762572745157915    0.1250000000000001    0.3750000000000000 T T T Te
   0.5762572745157915    0.6250000000000001    0.3035714285714285 T T T Te
   0.9237427254842087    0.3750000000000000    0.3392857142857142 T T T Te
   0.9237427254842087    0.8750000000000000    0.4107142857142857 T T T Te
   0.9237343555947657    0.1250000000000000    0.3750000000000000 T T T Te
   0.9237343555947657    0.6250000000000000    0.3035714285714285 T T T Te
   0.5762656444052343    0.3750000000000001    0.3392857142857143 T T T Te
   0.5762656444052343    0.8750000000000001    0.4107142857142857 T T T Te
   0.7069192740590414    0.1250000000000000    0.3035714285714285 T T T Te
   0.7069192740590414    0.6250000000000000    0.3750000000000000 T T T Te
   0.7930807259409588    0.3750000000000001    0.4107142857142857 T T T Te
   0.7930807259409588    0.8750000000000001    0.3392857142857142 T T T Te
   0.3284102402907632    0.1250000000000000    0.5178571428571428 F F F Y
   0.3284102402907632    0.6250000000000001    0.4464285714285714 F F F Y
   0.1715897597092369    0.3750000000000000    0.4821428571428571 F F F Y
   0.1715897597092369    0.8750000000000000    0.5535714285714286 F F F Y
   0.8284102402907632    0.1250000000000000    0.4464285714285714 F F F Y
   0.8284102402907632    0.6250000000000000    0.5178571428571428 F F F Y
   0.6715897597092368    0.3750000000000001    0.5535714285714286 F F F Y
   0.6715897597092368    0.8750000000000001    0.4821428571428571 F F F Y
   0.0762572745157915    0.1250000000000000    0.4464285714285714 F F F Te
   0.0762572745157915    0.6250000000000000    0.5178571428571428 F F F Te
   0.4237427254842086    0.3750000000000001    0.5535714285714286 F F F Te
   0.4237427254842086    0.8750000000000000    0.4821428571428571 F F F Te
   0.4237343555947657    0.1250000000000000    0.4464285714285714 F F F Te
   0.4237343555947657    0.6250000000000001    0.5178571428571428 F F F Te
   0.0762656444052343    0.3750000000000001    0.5535714285714286 F F F Te
   0.0762656444052343    0.8750000000000000    0.4821428571428571 F F F Te
   0.2069192740590413    0.1250000000000000    0.5178571428571428 F F F Te
   0.2069192740590413    0.6250000000000000    0.4464285714285714 F F F Te
   0.2930807259409587    0.3750000000000001    0.4821428571428571 F F F Te
   0.2930807259409587    0.8750000000000000    0.5535714285714286 F F F Te
   0.5762572745157915    0.1250000000000001    0.5178571428571428 F F F Te
   0.5762572745157915    0.6250000000000001    0.4464285714285714 F F F Te
   0.9237427254842087    0.3750000000000000    0.4821428571428571 F F F Te
   0.9237427254842087    0.8750000000000000    0.5535714285714286 F F F Te
   0.9237343555947657    0.1250000000000000    0.5178571428571428 F F F Te
   0.9237343555947657    0.6250000000000000    0.4464285714285714 F F F Te
   0.5762656444052343    0.3750000000000001    0.4821428571428571 F F F Te
   0.5762656444052343    0.8750000000000001    0.5535714285714286 F F F Te
   0.7069192740590414    0.1250000000000000    0.4464285714285714 F F F Te
   0.7069192740590414    0.6250000000000000    0.5178571428571428 F F F Te
   0.7930807259409588    0.3750000000000001    0.5535714285714286 F F F Te
   0.7930807259409588    0.8750000000000001    0.4821428571428571 F F F Te
   0.3284102402907632    0.1250000000000000    0.6607142857142857 T T T Y
   0.3284102402907632    0.6250000000000001    0.5892857142857142 T T T Y
   0.1715897597092369    0.3750000000000000    0.6250000000000000 T T T Y
   0.1715897597092369    0.8750000000000000    0.6964285714285714 T T T Y
   0.8284102402907632    0.1250000000000000    0.5892857142857142 T T T Y
   0.8284102402907632    0.6250000000000000    0.6607142857142857 T T T Y
   0.6715897597092368    0.3750000000000001    0.6964285714285714 T T T Y
   0.6715897597092368    0.8750000000000001    0.6250000000000000 T T T Y
   0.0762572745157915    0.1250000000000000    0.5892857142857142 T T T Te
   0.0762572745157915    0.6250000000000000    0.6607142857142857 T T T Te
   0.4237427254842086    0.3750000000000001    0.6964285714285714 T T T Te
   0.4237427254842086    0.8750000000000000    0.6250000000000000 T T T Te
   0.4237343555947657    0.1250000000000000    0.5892857142857142 T T T Te
   0.4237343555947657    0.6250000000000001    0.6607142857142857 T T T Te
   0.0762656444052343    0.3750000000000001    0.6964285714285714 T T T Te
   0.0762656444052343    0.8750000000000000    0.6250000000000000 T T T Te
   0.2069192740590413    0.1250000000000000    0.6607142857142857 T T T Te
   0.2069192740590413    0.6250000000000000    0.5892857142857142 T T T Te
   0.2930807259409587    0.3750000000000001    0.6250000000000000 T T T Te
   0.2930807259409587    0.8750000000000000    0.6964285714285714 T T T Te
   0.5762572745157915    0.1250000000000001    0.6607142857142857 T T T Te
   0.5762572745157915    0.6250000000000001    0.5892857142857142 T T T Te
   0.9237427254842087    0.3750000000000000    0.6250000000000000 T T T Te
   0.9237427254842087    0.8750000000000000    0.6964285714285714 T T T Te
   0.9237343555947657    0.1250000000000000    0.6607142857142857 T T T Te
   0.9237343555947657    0.6250000000000000    0.5892857142857142 T T T Te
   0.5762656444052343    0.3750000000000001    0.6250000000000000 T T T Te
   0.5762656444052343    0.8750000000000001    0.6964285714285714 T T T Te
   0.7069192740590414    0.1250000000000000    0.5892857142857142 T T T Te
   0.7069192740590414    0.6250000000000000    0.6607142857142857 T T T Te
   0.7930807259409588    0.3750000000000001    0.6964285714285714 T T T Te
   0.7930807259409588    0.8750000000000001    0.6250000000000000 T T T Te
