Y32 Te96
1.0
  53.1110806582174817    0.0000000000000000    0.0000000000000033
   0.3548664063928527    4.3268242587880028    4.3368783513421354
   0.0000000000000000    0.0000000000000000   39.0319051620792195
Y Te Y Te Y Te Y Te
8 24 8 24 8 24 8 24
Selective dynamics
direct
   0.6642051201453816    0.8357948798546185    0.3168561244605979 T T T Y
   0.1642051201453816    0.3357948798546184    0.3724116800161535 T T T Y
   0.5857948798546185    0.4142051201453816    0.3081438755394020 T T T Y
   0.0857948798546184    0.9142051201453816    0.3636994310949576 T T T Y
   0.9142051201453817    0.0857948798546184    0.2890783466828201 T T T Y
   0.4142051201453816    0.5857948798546185    0.3446339022383757 T T T Y
   0.8357948798546184    0.6642051201453817    0.2803660977616242 T T T Y
   0.3357948798546184    0.1642051201453818    0.3359216533171798 T T T Y
   0.5381286372578957    0.4618713627421043    0.3584031819175439 T T T Te
   0.0381286372578957    0.9618713627421043    0.3028476263619884 T T T Te
   0.7118713627421044    0.7881286372578957    0.3777079291935671 T T T Te
   0.2118713627421043    0.2881286372578957    0.3221523736380115 T T T Te
   0.7118671777973830    0.2881328222026172    0.3777074641997091 T T T Te
   0.2118671777973828    0.7881328222026172    0.3221519086441536 T T T Te
   0.5381328222026172    0.9618671777973828    0.3584036469114019 T T T Te
   0.0381328222026172    0.4618671777973828    0.3028480913558463 T T T Te
   0.6034596370295207    0.8965403629704795    0.3101066263366133 T T T Te
   0.1034596370295207    0.3965403629704793    0.3656621818921689 T T T Te
   0.6465403629704793    0.3534596370295208    0.3148933736633865 T T T Te
   0.1465403629704793    0.8534596370295207    0.3704489292189421 T T T Te
   0.7881286372578958    0.7118713627421043    0.3306254041397662 T T T Te
   0.2881286372578957    0.2118713627421044    0.3861809596953217 T T T Te
   0.9618713627421044    0.0381286372578959    0.3499301514157893 T T T Te
   0.4618713627421043    0.5381286372578957    0.2943745958602338 T T T Te
   0.9618671777973830    0.5381328222026173    0.3499296864219314 T T T Te
   0.4618671777973828    0.0381328222026173    0.2943741308663758 T T T Te
   0.7881328222026173    0.2118671777973828    0.3306258691336241 T T T Te
   0.2881328222026172    0.7118671777973828    0.3861814246891797 T T T Te
   0.8534596370295207    0.1465403629704795    0.2823288485588356 T T T Te
   0.3534596370295207    0.6465403629704793    0.3378844041143911 T T T Te
   0.8965403629704793    0.6034596370295209    0.2871155958856088 T T T Te
   0.3965403629704794    0.1034596370295208    0.3426711514411643 T T T Te
   0.6642051201453816    0.8357948798546185    0.4279672355717090 F F F Y
   0.1642051201453816    0.3357948798546184    0.4835227911272646 F F F Y
   0.5857948798546185    0.4142051201453816    0.4192549866505131 F F F Y
   0.0857948798546184    0.9142051201453816    0.4748105422060687 F F F Y
   0.9142051201453817    0.0857948798546184    0.4001894577939312 F F F Y
   0.4142051201453816    0.5857948798546185    0.4557450133494868 F F F Y
   0.8357948798546184    0.6642051201453817    0.3914772088727353 F F F Y
   0.3357948798546184    0.1642051201453818    0.4470327644282909 F F F Y
   0.5381286372578957    0.4618713627421043    0.4695142930286550 F F F Te
   0.0381286372578957    0.9618713627421043    0.4139587374730995 F F F Te
   0.7118713627421044    0.7881286372578957    0.4888190403046782 F F F Te
   0.2118713627421043    0.2881286372578957    0.4332634847491227 F F F Te
   0.7118671777973830    0.2881328222026172    0.4888185753108203 F F F Te
   0.2118671777973828    0.7881328222026172    0.4332630197552647 F F F Te
   0.5381328222026172    0.9618671777973828    0.4695147580225130 F F F Te
   0.0381328222026172    0.4618671777973828    0.4139592024669574 F F F Te
   0.6034596370295207    0.8965403629704795    0.4212177374477244 F F F Te
   0.1034596370295207    0.3965403629704793    0.4767732930032800 F F F Te
   0.6465403629704793    0.3534596370295208    0.4260044847744976 F F F Te
   0.1465403629704793    0.8534596370295207    0.4815600403300532 F F F Te
   0.7881286372578958    0.7118713627421043    0.4417365152508773 F F F Te
   0.2881286372578957    0.2118713627421044    0.4972920708064328 F F F Te
   0.9618713627421044    0.0381286372578959    0.4610412625269004 F F F Te
   0.4618713627421043    0.5381286372578957    0.4054857069713449 F F F Te
   0.9618671777973830    0.5381328222026173    0.4610407975330425 F F F Te
   0.4618671777973828    0.0381328222026173    0.4054852419774869 F F F Te
   0.7881328222026173    0.2118671777973828    0.4417369802447352 F F F Te
   0.2881328222026172    0.7118671777973828    0.4972925358002908 F F F Te
   0.8534596370295207    0.1465403629704795    0.3934399596699467 F F F Te
   0.3534596370295207    0.6465403629704793    0.4489955152255022 F F F Te
   0.8965403629704793    0.6034596370295209    0.3982267069967199 F F F Te
   0.3965403629704794    0.1034596370295208    0.4537822625522754 F F F Te
   0.6642051201453816    0.8357948798546185    0.5390783466828202 F F F Y
   0.1642051201453816    0.3357948798546184    0.5946339022383758 F F F Y
   0.5857948798546185    0.4142051201453816    0.5303660977616242 F F F Y
   0.0857948798546184    0.9142051201453816    0.5859216533171798 F F F Y
   0.9142051201453817    0.0857948798546184    0.5113005689050424 F F F Y
   0.4142051201453816    0.5857948798546185    0.5668561244605979 F F F Y
   0.8357948798546184    0.6642051201453817    0.5025883199838465 F F F Y
   0.3357948798546184    0.1642051201453818    0.5581438755394019 F F F Y
   0.5381286372578957    0.4618713627421043    0.5806254041397662 F F F Te
   0.0381286372578957    0.9618713627421043    0.5250698485842106 F F F Te
   0.7118713627421044    0.7881286372578957    0.5999301514157893 F F F Te
   0.2118713627421043    0.2881286372578957    0.5443745958602337 F F F Te
   0.7118671777973830    0.2881328222026172    0.5999296864219313 F F F Te
   0.2118671777973828    0.7881328222026172    0.5443741308663759 F F F Te
   0.5381328222026172    0.9618671777973828    0.5806258691336241 F F F Te
   0.0381328222026172    0.4618671777973828    0.5250703135780685 F F F Te
   0.6034596370295207    0.8965403629704795    0.5323288485588356 F F F Te
   0.1034596370295207    0.3965403629704793    0.5878844041143911 F F F Te
   0.6465403629704793    0.3534596370295208    0.5371155958856088 F F F Te
   0.1465403629704793    0.8534596370295207    0.5926711514411643 F F F Te
   0.7881286372578958    0.7118713627421043    0.5528476263619884 F F F Te
   0.2881286372578957    0.2118713627421044    0.6084031819175439 F F F Te
   0.9618713627421044    0.0381286372578959    0.5721523736380115 F F F Te
   0.4618713627421043    0.5381286372578957    0.5165968180824559 F F F Te
   0.9618671777973830    0.5381328222026173    0.5721519086441536 F F F Te
   0.4618671777973828    0.0381328222026173    0.5165963530885981 F F F Te
   0.7881328222026173    0.2118671777973828    0.5528480913558462 F F F Te
   0.2881328222026172    0.7118671777973828    0.6084036469114018 F F F Te
   0.8534596370295207    0.1465403629704795    0.5045510707810578 F F F Te
   0.3534596370295207    0.6465403629704793    0.5601066263366133 F F F Te
   0.8965403629704793    0.6034596370295209    0.5093378181078310 F F F Te
   0.3965403629704794    0.1034596370295208    0.5648933736633865 F F F Te
   0.6642051201453816    0.8357948798546185    0.6501894577939312 T T T Y
   0.1642051201453816    0.3357948798546184    0.7057450133494868 T T T Y
   0.5857948798546185    0.4142051201453816    0.6414772088727354 T T T Y
   0.0857948798546184    0.9142051201453816    0.6970327644282909 T T T Y
   0.9142051201453817    0.0857948798546184    0.6224116800161534 T T T Y
   0.4142051201453816    0.5857948798546185    0.6779672355717090 T T T Y
   0.8357948798546184    0.6642051201453817    0.6136994310949575 T T T Y
   0.3357948798546184    0.1642051201453818    0.6692549866505131 T T T Y
   0.5381286372578957    0.4618713627421043    0.6917365152508772 T T T Te
   0.0381286372578957    0.9618713627421043    0.6361809596953216 T T T Te
   0.7118713627421044    0.7881286372578957    0.7110412625269005 T T T Te
   0.2118713627421043    0.2881286372578957    0.6554857069713449 T T T Te
   0.7118671777973830    0.2881328222026172    0.7110407975330425 T T T Te
   0.2118671777973828    0.7881328222026172    0.6554852419774869 T T T Te
   0.5381328222026172    0.9618671777973828    0.6917369802447352 T T T Te
   0.0381328222026172    0.4618671777973828    0.6361814246891797 T T T Te
   0.6034596370295207    0.8965403629704795    0.6434399596699467 T T T Te
   0.1034596370295207    0.3965403629704793    0.6989955152255023 T T T Te
   0.6465403629704793    0.3534596370295208    0.6482267069967198 T T T Te
   0.1465403629704793    0.8534596370295207    0.7037822625522754 T T T Te
   0.7881286372578958    0.7118713627421043    0.6639587374730995 T T T Te
   0.2881286372578957    0.2118713627421044    0.7195142930286550 T T T Te
   0.9618713627421044    0.0381286372578959    0.6832634847491226 T T T Te
   0.4618713627421043    0.5381286372578957    0.6277079291935671 T T T Te
   0.9618671777973830    0.5381328222026173    0.6832630197552647 T T T Te
   0.4618671777973828    0.0381328222026173    0.6277074641997091 T T T Te
   0.7881328222026173    0.2118671777973828    0.6639592024669574 T T T Te
   0.2881328222026172    0.7118671777973828    0.7195147580225130 T T T Te
   0.8534596370295207    0.1465403629704795    0.6156621818921688 T T T Te
   0.3534596370295207    0.6465403629704793    0.6712177374477244 T T T Te
   0.8965403629704793    0.6034596370295209    0.6204489292189421 T T T Te
   0.3965403629704794    0.1034596370295208    0.6760044847744977 T T T Te
