Ga18 Ni12
1.0
   4.0741699915925436    0.0000000000000000    0.0000000000000002
   4.0741699915925418    7.0566694241107513    4.9322905063916300
   0.0000000000000000    0.0000000000000000   34.5260335447414093
Ga Ni Ga Ni Ga Ni
6 4 6 4 6 4
Selective dynamics
direct
   0.3333333333333333    0.1666666666666667    0.3061826217639563 T T T Ga
   0.3333333333333333    0.6666666666666667    0.3776111931925278 T T T Ga
   0.6666666666666667    0.3333333333333333    0.3223888068074722 T T T Ga
   0.6666666666666667    0.8333333333333333    0.3938173782360436 T T T Ga
   0.0000000000000000    0.5000000000000000    0.3500000000000000 T T T Ga
   0.0000000000000000    0.0000000000000000    0.4214285714285714 F F F Ga
   0.3333333333333333    0.1666666666666667    0.3773408949601257 T T T Ni
   0.3333333333333333    0.6666666666666667    0.3059123235315543 T T T Ni
   0.6666666666666667    0.3333333333333333    0.3940876764684457 T T T Ni
   0.6666666666666667    0.8333333333333333    0.3226591050398742 T T T Ni
   0.3333333333333333    0.1666666666666667    0.4490397646210992 F F F Ga
   0.3333333333333333    0.6666666666666667    0.5204683360496707 F F F Ga
   0.6666666666666667    0.3333333333333333    0.4652459496646150 F F F Ga
   0.6666666666666667    0.8333333333333333    0.5366745210931865 F F F Ga
   0.0000000000000000    0.5000000000000000    0.4928571428571428 F F F Ga
   0.0000000000000000    0.0000000000000000    0.5642857142857143 F F F Ga
   0.3333333333333333    0.1666666666666667    0.5201980378172686 F F F Ni
   0.3333333333333333    0.6666666666666667    0.4487694663886972 F F F Ni
   0.6666666666666667    0.3333333333333333    0.5369448193255885 F F F Ni
   0.6666666666666667    0.8333333333333333    0.4655162478970171 F F F Ni
   0.3333333333333333    0.1666666666666667    0.5918969074782421 F F F Ga
   0.3333333333333333    0.6666666666666667    0.6633254789068135 T T T Ga
   0.6666666666666667    0.3333333333333333    0.6081030925217579 T T T Ga
   0.6666666666666667    0.8333333333333333    0.6795316639503293 T T T Ga
   0.0000000000000000    0.5000000000000000    0.6357142857142857 T T T Ga
   0.0000000000000000    0.0000000000000000    0.7071428571428571 T T T Ga
   0.3333333333333333    0.1666666666666667    0.6630551806744114 T T T Ni
   0.3333333333333333    0.6666666666666667    0.5916266092458400 F F F Ni
   0.6666666666666667    0.3333333333333333    0.6798019621827314 T T T Ni
   0.6666666666666667    0.8333333333333333    0.6083733907541600 T T T Ni
