Ga36 Ni24
1.0
   3.5283347120553721    0.0000000000000000   -6.1112549873888167
   0.0000000000000038    9.8645810127832601   -4.0741699915925418
   0.0000000000000000    0.0000000000000000   57.0383798822956081
Ga Ni Ga Ni Ga Ni Ga Ni Ga Ni Ga Ni
6 4 6 4 6 4 6 4 6 4 6 4
Selective dynamics
direct
   0.3333333333333333    0.1799725095071807    0.3521408935362272 T T T Ga
   0.3333333333333333    0.6799725095071806    0.3164266078219414 T T T Ga
   0.6666666666666667    0.3200274904928194    0.2907162493209157 T T T Ga
   0.6666666666666667    0.8200274904928193    0.3264305350352014 T T T Ga
   0.0000000000000000    0.0000000000000000    0.3392857142857142 T T T Ga
   0.0000000000000000    0.5000000000000000    0.3035714285714285 T T T Ga
   0.3333333333333333    0.4290264656937736    0.2985018904066981 T T T Ni
   0.3333333333333333    0.9290264656937736    0.3342161761209838 T T T Ni
   0.6666666666666667    0.0709735343062264    0.3443552524504447 T T T Ni
   0.6666666666666667    0.5709735343062264    0.3086409667361590 T T T Ni
   0.3333333333333333    0.1799725095071807    0.4235694649647986 F F F Ga
   0.3333333333333333    0.6799725095071806    0.3878551792505129 T T T Ga
   0.6666666666666667    0.3200274904928194    0.3621448207494871 T T T Ga
   0.6666666666666667    0.8200274904928193    0.3978591064637728 T T T Ga
   0.0000000000000000    0.0000000000000000    0.4107142857142857 F F F Ga
   0.0000000000000000    0.5000000000000000    0.3750000000000000 T T T Ga
   0.3333333333333333    0.4290264656937736    0.3699304618352695 T T T Ni
   0.3333333333333333    0.9290264656937736    0.4056447475495552 F F F Ni
   0.6666666666666667    0.0709735343062264    0.4157838238790161 F F F Ni
   0.6666666666666667    0.5709735343062264    0.3800695381647304 T T T Ni
   0.3333333333333333    0.1799725095071807    0.4949980363933700 F F F Ga
   0.3333333333333333    0.6799725095071806    0.4592837506790843 F F F Ga
   0.6666666666666667    0.3200274904928194    0.4335733921780585 F F F Ga
   0.6666666666666667    0.8200274904928193    0.4692876778923442 F F F Ga
   0.0000000000000000    0.0000000000000000    0.4821428571428571 F F F Ga
   0.0000000000000000    0.5000000000000000    0.4464285714285714 F F F Ga
   0.3333333333333333    0.4290264656937736    0.4413590332638410 F F F Ni
   0.3333333333333333    0.9290264656937736    0.4770733189781267 F F F Ni
   0.6666666666666667    0.0709735343062264    0.4872123953075876 F F F Ni
   0.6666666666666667    0.5709735343062264    0.4514981095933018 F F F Ni
   0.3333333333333333    0.1799725095071807    0.5664266078219414 F F F Ga
   0.3333333333333333    0.6799725095071806    0.5307123221076557 F F F Ga
   0.6666666666666667    0.3200274904928194    0.5050019636066300 F F F Ga
   0.6666666666666667    0.8200274904928193    0.5407162493209157 F F F Ga
   0.0000000000000000    0.0000000000000000    0.5535714285714286 F F F Ga
   0.0000000000000000    0.5000000000000000    0.5178571428571428 F F F Ga
   0.3333333333333333    0.4290264656937736    0.5127876046924124 F F F Ni
   0.3333333333333333    0.9290264656937736    0.5485018904066981 F F F Ni
   0.6666666666666667    0.0709735343062264    0.5586409667361589 F F F Ni
   0.6666666666666667    0.5709735343062264    0.5229266810218733 F F F Ni
   0.3333333333333333    0.1799725095071807    0.6378551792505129 T T T Ga
   0.3333333333333333    0.6799725095071806    0.6021408935362271 T T T Ga
   0.6666666666666667    0.3200274904928194    0.5764305350352014 F F F Ga
   0.6666666666666667    0.8200274904928193    0.6121448207494871 T T T Ga
   0.0000000000000000    0.0000000000000000    0.6250000000000000 T T T Ga
   0.0000000000000000    0.5000000000000000    0.5892857142857142 F F F Ga
   0.3333333333333333    0.4290264656937736    0.5842161761209839 F F F Ni
   0.3333333333333333    0.9290264656937736    0.6199304618352695 T T T Ni
   0.6666666666666667    0.0709735343062264    0.6300695381647304 T T T Ni
   0.6666666666666667    0.5709735343062264    0.5943552524504447 F F F Ni
   0.3333333333333333    0.1799725095071807    0.7092837506790843 T T T Ga
   0.3333333333333333    0.6799725095071806    0.6735694649647985 T T T Ga
   0.6666666666666667    0.3200274904928194    0.6478591064637729 T T T Ga
   0.6666666666666667    0.8200274904928193    0.6835733921780585 T T T Ga
   0.0000000000000000    0.0000000000000000    0.6964285714285714 T T T Ga
   0.0000000000000000    0.5000000000000000    0.6607142857142857 T T T Ga
   0.3333333333333333    0.4290264656937736    0.6556447475495553 T T T Ni
   0.3333333333333333    0.9290264656937736    0.6913590332638410 T T T Ni
   0.6666666666666667    0.0709735343062264    0.7014981095933019 T T T Ni
   0.6666666666666667    0.5709735343062264    0.6657838238790161 T T T Ni
