Mn8 Ir24
1.0
   5.4408250069791251    0.0000000000000000    0.0000000000000003
   2.7204125034895599    4.7118926735895705    4.3284172303967825
   0.0000000000000000    0.0000000000000000   38.9557550735710407
Mn Ir Mn Ir Mn Ir Mn Ir
2 6 2 6 2 6 2 6
Selective dynamics
direct
   0.3333333333333333    0.3333333333333334    0.3796296296296297 T T T Mn
   0.6666666666666667    0.6666666666666665    0.2870370370370371 T T T Mn
   0.1689213887252059    0.6621572225495882    0.2875380863833791 T T T Ir
   0.1689213887252059    0.1689213887252059    0.3423420679194216 T T T Ir
   0.6621572225495883    0.1689213887252058    0.3423420679194216 T T T Ir
   0.8310786112747942    0.3378427774504117    0.3791285802832876 T T T Ir
   0.8310786112747941    0.8310786112747941    0.3243245987472451 T T T Ir
   0.3378427774504118    0.8310786112747941    0.3243245987472451 T T T Ir
   0.3333333333333333    0.3333333333333334    0.4907407407407408 F F F Mn
   0.6666666666666667    0.6666666666666665    0.3981481481481481 F F F Mn
   0.1689213887252059    0.6621572225495882    0.3986491974944902 F F F Ir
   0.1689213887252059    0.1689213887252059    0.4534531790305327 F F F Ir
   0.6621572225495883    0.1689213887252058    0.4534531790305327 F F F Ir
   0.8310786112747942    0.3378427774504117    0.4902396913943987 F F F Ir
   0.8310786112747941    0.8310786112747941    0.4354357098583562 F F F Ir
   0.3378427774504118    0.8310786112747941    0.4354357098583562 F F F Ir
   0.3333333333333333    0.3333333333333334    0.6018518518518519 F F F Mn
   0.6666666666666667    0.6666666666666665    0.5092592592592593 F F F Mn
   0.1689213887252059    0.6621572225495882    0.5097603086056013 F F F Ir
   0.1689213887252059    0.1689213887252059    0.5645642901416438 F F F Ir
   0.6621572225495883    0.1689213887252058    0.5645642901416439 F F F Ir
   0.8310786112747942    0.3378427774504117    0.6013508025055099 F F F Ir
   0.8310786112747941    0.8310786112747941    0.5465468209694673 F F F Ir
   0.3378427774504118    0.8310786112747941    0.5465468209694673 F F F Ir
   0.3333333333333333    0.3333333333333334    0.7129629629629630 T T T Mn
   0.6666666666666667    0.6666666666666665    0.6203703703703705 T T T Mn
   0.1689213887252059    0.6621572225495882    0.6208714197167124 T T T Ir
   0.1689213887252059    0.1689213887252059    0.6756754012527548 T T T Ir
   0.6621572225495883    0.1689213887252058    0.6756754012527549 T T T Ir
   0.8310786112747942    0.3378427774504117    0.7124619136166209 T T T Ir
   0.8310786112747941    0.8310786112747941    0.6576579320805784 T T T Ir
   0.3378427774504118    0.8310786112747941    0.6576579320805784 T T T Ir
