Ta20 As20
1.0
   3.4665140262821934    0.0000000000000000    3.4665140262821930
   3.4665140262821952   11.7468224945011546    0.0000000000000007
   0.0000000000000000    0.0000000000000000   41.5981683153863173
Ta As Ta As Ta As Ta As Ta As
4 4 4 4 4 4 4 4 4 4
Selective dynamics
direct
   0.9998750308285373    0.0001249691714627    0.3194854382642887 T T T Ta
   0.2498750308285375    0.2501249691714626    0.2986521049309553 T T T Ta
   0.9998750308285373    0.5001249691714627    0.3611521049309553 T T T Ta
   0.2498750308285375    0.7501249691714625    0.3403187715976220 T T T Ta
   0.4175255491714651    0.0824744508285349    0.3263478950690447 T T T As
   0.6675255491714651    0.3324744508285349    0.3055145617357113 T T T As
   0.4175255491714651    0.5824744508285349    0.3680145617357113 T T T As
   0.6675255491714653    0.8324744508285348    0.3471812284023780 T T T As
   0.9998750308285373    0.0001249691714627    0.4028187715976220 T T T Ta
   0.2498750308285375    0.2501249691714626    0.3819854382642887 T T T Ta
   0.9998750308285373    0.5001249691714627    0.4444854382642887 F F F Ta
   0.2498750308285375    0.7501249691714625    0.4236521049309553 F F F Ta
   0.4175255491714651    0.0824744508285349    0.4096812284023780 F F F As
   0.6675255491714651    0.3324744508285349    0.3888478950690447 T T T As
   0.4175255491714651    0.5824744508285349    0.4513478950690447 F F F As
   0.6675255491714653    0.8324744508285348    0.4305145617357113 F F F As
   0.9998750308285373    0.0001249691714627    0.4861521049309553 F F F Ta
   0.2498750308285375    0.2501249691714626    0.4653187715976220 F F F Ta
   0.9998750308285373    0.5001249691714627    0.5278187715976220 F F F Ta
   0.2498750308285375    0.7501249691714625    0.5069854382642887 F F F Ta
   0.4175255491714651    0.0824744508285349    0.4930145617357113 F F F As
   0.6675255491714651    0.3324744508285349    0.4721812284023780 F F F As
   0.4175255491714651    0.5824744508285349    0.5346812284023781 F F F As
   0.6675255491714653    0.8324744508285348    0.5138478950690446 F F F As
   0.9998750308285373    0.0001249691714627    0.5694854382642887 F F F Ta
   0.2498750308285375    0.2501249691714626    0.5486521049309554 F F F Ta
   0.9998750308285373    0.5001249691714627    0.6111521049309554 T T T Ta
   0.2498750308285375    0.7501249691714625    0.5903187715976219 F F F Ta
   0.4175255491714651    0.0824744508285349    0.5763478950690447 F F F As
   0.6675255491714651    0.3324744508285349    0.5555145617357113 F F F As
   0.4175255491714651    0.5824744508285349    0.6180145617357113 T T T As
   0.6675255491714653    0.8324744508285348    0.5971812284023781 T T T As
   0.9998750308285373    0.0001249691714627    0.6528187715976219 T T T Ta
   0.2498750308285375    0.2501249691714626    0.6319854382642887 T T T Ta
   0.9998750308285373    0.5001249691714627    0.6944854382642887 T T T Ta
   0.2498750308285375    0.7501249691714625    0.6736521049309554 T T T Ta
   0.4175255491714651    0.0824744508285349    0.6596812284023781 T T T As
   0.6675255491714651    0.3324744508285349    0.6388478950690446 T T T As
   0.4175255491714651    0.5824744508285349    0.7013478950690446 T T T As
   0.6675255491714653    0.8324744508285348    0.6805145617357113 T T T As
