V32 Rh32
1.0
   8.8987978572585540    0.0000000000000000    0.0000000000000005
   7.6803334003509596    8.8149842695039684    2.7850337937059875
   0.0000000000000000    0.0000000000000000   27.8503379370598978
V Rh V Rh V Rh V Rh
8 8 8 8 8 8 8 8
Selective dynamics
direct
   0.0000000000000000    0.3520889574977240    0.3397911042502276 T T T V
   0.0000000000000000    0.8520889574977240    0.3897911042502276 T T T V
   0.0000000000000000    0.1479110425022760    0.3602088957497724 T T T V
   0.0000000000000000    0.6479110425022760    0.3102088957497724 T T T V
   0.5000000000000000    0.8520889574977240    0.3897911042502276 T T T V
   0.5000000000000000    0.3520889574977240    0.3397911042502276 T T T V
   0.5000000000000000    0.1479110425022760    0.3602088957497724 T T T V
   0.5000000000000000    0.6479110425022760    0.3102088957497724 T T T V
   0.7141245408906512    0.8929377295546744    0.3357062270445325 T T T Rh
   0.7141245408906512    0.3929377295546744    0.3857062270445325 T T T Rh
   0.2858754591093488    0.1070622704453256    0.3142937729554674 T T T Rh
   0.2858754591093488    0.6070622704453257    0.3642937729554674 T T T Rh
   0.2141245408906513    0.3929377295546743    0.3857062270445326 T T T Rh
   0.2141245408906513    0.8929377295546743    0.3357062270445326 T T T Rh
   0.7858754591093488    0.1070622704453256    0.3142937729554674 T T T Rh
   0.7858754591093488    0.6070622704453257    0.3642937729554674 T T T Rh
   0.0000000000000000    0.3520889574977240    0.4397911042502276 F F F V
   0.0000000000000000    0.8520889574977240    0.4897911042502276 F F F V
   0.0000000000000000    0.1479110425022760    0.4602088957497724 F F F V
   0.0000000000000000    0.6479110425022760    0.4102088957497724 T T T V
   0.5000000000000000    0.8520889574977240    0.4897911042502276 F F F V
   0.5000000000000000    0.3520889574977240    0.4397911042502276 F F F V
   0.5000000000000000    0.1479110425022760    0.4602088957497724 F F F V
   0.5000000000000000    0.6479110425022760    0.4102088957497724 T T T V
   0.7141245408906512    0.8929377295546744    0.4357062270445325 F F F Rh
   0.7141245408906512    0.3929377295546744    0.4857062270445325 F F F Rh
   0.2858754591093488    0.1070622704453256    0.4142937729554674 T T T Rh
   0.2858754591093488    0.6070622704453257    0.4642937729554674 F F F Rh
   0.2141245408906513    0.3929377295546743    0.4857062270445326 F F F Rh
   0.2141245408906513    0.8929377295546743    0.4357062270445325 F F F Rh
   0.7858754591093488    0.1070622704453256    0.4142937729554674 T T T Rh
   0.7858754591093488    0.6070622704453257    0.4642937729554674 F F F Rh
   0.0000000000000000    0.3520889574977240    0.5397911042502276 F F F V
   0.0000000000000000    0.8520889574977240    0.5897911042502275 T T T V
   0.0000000000000000    0.1479110425022760    0.5602088957497724 F F F V
   0.0000000000000000    0.6479110425022760    0.5102088957497724 F F F V
   0.5000000000000000    0.8520889574977240    0.5897911042502275 T T T V
   0.5000000000000000    0.3520889574977240    0.5397911042502276 F F F V
   0.5000000000000000    0.1479110425022760    0.5602088957497724 F F F V
   0.5000000000000000    0.6479110425022760    0.5102088957497724 F F F V
   0.7141245408906512    0.8929377295546744    0.5357062270445325 F F F Rh
   0.7141245408906512    0.3929377295546744    0.5857062270445326 T T T Rh
   0.2858754591093488    0.1070622704453256    0.5142937729554674 F F F Rh
   0.2858754591093488    0.6070622704453257    0.5642937729554673 F F F Rh
   0.2141245408906513    0.3929377295546743    0.5857062270445326 T T T Rh
   0.2141245408906513    0.8929377295546743    0.5357062270445325 F F F Rh
   0.7858754591093488    0.1070622704453256    0.5142937729554674 F F F Rh
   0.7858754591093488    0.6070622704453257    0.5642937729554673 F F F Rh
   0.0000000000000000    0.3520889574977240    0.6397911042502276 T T T V
   0.0000000000000000    0.8520889574977240    0.6897911042502276 T T T V
   0.0000000000000000    0.1479110425022760    0.6602088957497724 T T T V
   0.0000000000000000    0.6479110425022760    0.6102088957497724 T T T V
   0.5000000000000000    0.8520889574977240    0.6897911042502276 T T T V
   0.5000000000000000    0.3520889574977240    0.6397911042502276 T T T V
   0.5000000000000000    0.1479110425022760    0.6602088957497724 T T T V
   0.5000000000000000    0.6479110425022760    0.6102088957497724 T T T V
   0.7141245408906512    0.8929377295546744    0.6357062270445325 T T T Rh
   0.7141245408906512    0.3929377295546744    0.6857062270445324 T T T Rh
   0.2858754591093488    0.1070622704453256    0.6142937729554674 T T T Rh
   0.2858754591093488    0.6070622704453257    0.6642937729554674 T T T Rh
   0.2141245408906513    0.3929377295546743    0.6857062270445325 T T T Rh
   0.2141245408906513    0.8929377295546743    0.6357062270445326 T T T Rh
   0.7858754591093488    0.1070622704453256    0.6142937729554674 T T T Rh
   0.7858754591093488    0.6070622704453257    0.6642937729554674 T T T Rh
