Ba16 Ag32
1.0
   9.8142206408816044    0.0000000000000000    8.5663300119122372
   4.9071103204407986    8.7493392939313708    0.0000000000000006
   0.0000000000000000    0.0000000000000000   42.8316500595611984
Ba Ag Ba Ag
8 16 8 16
Selective dynamics
direct
   0.8750000000000000    0.7499999999999999    0.3752511465316743 T T T Ba
   0.3750000000000000    0.7499999999999999    0.4752511465316743 F F F Ba
   0.1249999999999999    0.2500000000000000    0.3247488534683255 T T T Ba
   0.6250000000000000    0.2500000000000000    0.4247488534683256 F F F Ba
   0.3750000000000000    0.2500000000000000    0.3752511465316743 T T T Ba
   0.8750000000000000    0.2500000000000000    0.4752511465316743 F F F Ba
   0.1249999999999999    0.7500000000000000    0.4247488534683256 F F F Ba
   0.6250000000000000    0.7500000000000000    0.3247488534683256 T T T Ba
   0.0006797021937749    0.9986405956124501    0.3166013494811785 T T T Ag
   0.5006797021937750    0.9986405956124501    0.4166013494811786 F F F Ag
   0.4993202978062250    0.0013594043875499    0.4833986505188214 F F F Ag
   0.9993202978062250    0.0013594043875499    0.3833986505188214 T T T Ag
   0.7506797021937749    0.9986405956124501    0.3331267696413114 T T T Ag
   0.2506797021937749    0.9986405956124501    0.4331267696413114 F F F Ag
   0.2493202978062250    0.0013594043875499    0.3668732303586885 T T T Ag
   0.7493202978062250    0.0013594043875499    0.4668732303586885 F F F Ag
   0.0006797021937749    0.4986405956124500    0.4166013494811785 F F F Ag
   0.5006797021937750    0.4986405956124500    0.3166013494811785 T T T Ag
   0.9993202978062250    0.5013594043875499    0.4833986505188214 F F F Ag
   0.4993202978062250    0.5013594043875499    0.3833986505188214 T T T Ag
   0.2506797021937750    0.4986405956124499    0.3331267696413114 T T T Ag
   0.7506797021937750    0.4986405956124499    0.4331267696413114 F F F Ag
   0.2493202978062250    0.5013594043875499    0.4668732303586885 F F F Ag
   0.7493202978062250    0.5013594043875499    0.3668732303586885 T T T Ag
   0.8750000000000000    0.7499999999999999    0.5752511465316743 F F F Ba
   0.3750000000000000    0.7499999999999999    0.6752511465316743 T T T Ba
   0.1249999999999999    0.2500000000000000    0.5247488534683256 F F F Ba
   0.6250000000000000    0.2500000000000000    0.6247488534683256 T T T Ba
   0.3750000000000000    0.2500000000000000    0.5752511465316743 F F F Ba
   0.8750000000000000    0.2500000000000000    0.6752511465316743 T T T Ba
   0.1249999999999999    0.7500000000000000    0.6247488534683256 T T T Ba
   0.6250000000000000    0.7500000000000000    0.5247488534683256 F F F Ba
   0.0006797021937749    0.9986405956124501    0.5166013494811785 F F F Ag
   0.5006797021937750    0.9986405956124501    0.6166013494811786 T T T Ag
   0.4993202978062250    0.0013594043875499    0.6833986505188214 T T T Ag
   0.9993202978062250    0.0013594043875499    0.5833986505188213 F F F Ag
   0.7506797021937749    0.9986405956124501    0.5331267696413113 F F F Ag
   0.2506797021937749    0.9986405956124501    0.6331267696413114 T T T Ag
   0.2493202978062250    0.0013594043875499    0.5668732303586885 F F F Ag
   0.7493202978062250    0.0013594043875499    0.6668732303586885 T T T Ag
   0.0006797021937749    0.4986405956124500    0.6166013494811785 T T T Ag
   0.5006797021937750    0.4986405956124500    0.5166013494811785 F F F Ag
   0.9993202978062250    0.5013594043875499    0.6833986505188214 T T T Ag
   0.4993202978062250    0.5013594043875499    0.5833986505188213 F F F Ag
   0.2506797021937750    0.4986405956124499    0.5331267696413113 F F F Ag
   0.7506797021937750    0.4986405956124499    0.6331267696413114 T T T Ag
   0.2493202978062250    0.5013594043875499    0.6668732303586885 T T T Ag
   0.7493202978062250    0.5013594043875499    0.5668732303586885 F F F Ag
