Re12 Ir36
1.0
   4.3968357216638045    0.0000000000000000    0.0000000000000003
   0.0000000000000015    9.5717413992791069  -11.0524949469745479
   0.0000000000000000    0.0000000000000000   44.2099797878982059
Re Ir Re Ir Re Ir
4 12 4 12 4 12
Selective dynamics
direct
   0.7500000000000000    0.3333333333333333    0.3645833333333333 T T T Re
   0.7500000000000000    0.8333333333333333    0.4270833333333333 F F F Re
   0.2500000000000001    0.1666666666666665    0.3854166666666666 T T T Re
   0.2500000000000001    0.6666666666666665    0.3229166666666666 T T T Re
   0.2500000000000001    0.4162795244531718    0.4164247027832324 T T T Ir
   0.2500000000000001    0.9162795244531718    0.3539247027832324 T T T Ir
   0.2500000000000001    0.4162795244531718    0.3542150594433535 T T T Ir
   0.2500000000000001    0.9162795244531717    0.4167150594433535 T T T Ir
   0.2500000000000001    0.1674409510936562    0.3231102377734141 T T T Ir
   0.2500000000000001    0.6674409510936561    0.3856102377734141 T T T Ir
   0.7500000000000000    0.0837204755468280    0.3335752972167676 T T T Ir
   0.7500000000000000    0.5837204755468279    0.3960752972167676 T T T Ir
   0.7500000000000000    0.0837204755468281    0.3957849405566465 T T T Ir
   0.7500000000000000    0.5837204755468280    0.3332849405566465 T T T Ir
   0.7500000000000000    0.3325590489063437    0.4268897622265859 F F F Ir
   0.7500000000000000    0.8325590489063437    0.3643897622265859 T T T Ir
   0.7500000000000000    0.3333333333333333    0.4895833333333333 F F F Re
   0.7500000000000000    0.8333333333333333    0.5520833333333333 F F F Re
   0.2500000000000001    0.1666666666666665    0.5104166666666666 F F F Re
   0.2500000000000001    0.6666666666666665    0.4479166666666666 F F F Re
   0.2500000000000001    0.4162795244531718    0.5414247027832324 F F F Ir
   0.2500000000000001    0.9162795244531718    0.4789247027832324 F F F Ir
   0.2500000000000001    0.4162795244531718    0.4792150594433535 F F F Ir
   0.2500000000000001    0.9162795244531717    0.5417150594433535 F F F Ir
   0.2500000000000001    0.1674409510936562    0.4481102377734141 F F F Ir
   0.2500000000000001    0.6674409510936561    0.5106102377734141 F F F Ir
   0.7500000000000000    0.0837204755468280    0.4585752972167676 F F F Ir
   0.7500000000000000    0.5837204755468279    0.5210752972167676 F F F Ir
   0.7500000000000000    0.0837204755468281    0.5207849405566465 F F F Ir
   0.7500000000000000    0.5837204755468280    0.4582849405566465 F F F Ir
   0.7500000000000000    0.3325590489063437    0.5518897622265859 F F F Ir
   0.7500000000000000    0.8325590489063437    0.4893897622265859 F F F Ir
   0.7500000000000000    0.3333333333333333    0.6145833333333333 T T T Re
   0.7500000000000000    0.8333333333333333    0.6770833333333333 T T T Re
   0.2500000000000001    0.1666666666666665    0.6354166666666666 T T T Re
   0.2500000000000001    0.6666666666666665    0.5729166666666666 F F F Re
   0.2500000000000001    0.4162795244531718    0.6664247027832324 T T T Ir
   0.2500000000000001    0.9162795244531718    0.6039247027832324 T T T Ir
   0.2500000000000001    0.4162795244531718    0.6042150594433535 T T T Ir
   0.2500000000000001    0.9162795244531717    0.6667150594433535 T T T Ir
   0.2500000000000001    0.1674409510936562    0.5731102377734141 F F F Ir
   0.2500000000000001    0.6674409510936561    0.6356102377734141 T T T Ir
   0.7500000000000000    0.0837204755468280    0.5835752972167676 T T T Ir
   0.7500000000000000    0.5837204755468279    0.6460752972167676 T T T Ir
   0.7500000000000000    0.0837204755468281    0.6457849405566465 T T T Ir
   0.7500000000000000    0.5837204755468280    0.5832849405566465 T T T Ir
   0.7500000000000000    0.3325590489063437    0.6768897622265859 T T T Ir
   0.7500000000000000    0.8325590489063437    0.6143897622265859 T T T Ir
