Re16 Ir48
1.0
  14.6210764982463406    0.0000000000000000    0.0000000000000009
   4.1774504280703830    3.6177781937591318    4.3968357216638037
   0.0000000000000000    0.0000000000000000   43.9683572166380472
Re Ir Re Ir Re Ir Re Ir
4 12 4 12 4 12 4 12
Selective dynamics
direct
   0.6666666666666667    0.6666666666666667    0.3083333333333333 T T T Re
   0.1666666666666668    0.1666666666666667    0.3583333333333333 T T T Re
   0.8333333333333335    0.8333333333333333    0.3416666666666667 T T T Re
   0.3333333333333335    0.3333333333333334    0.3916666666666667 T T T Re
   0.5837204755468282    0.0813976222658593    0.3168602377734141 T T T Ir
   0.0837204755468282    0.5813976222658593    0.3668602377734140 T T T Ir
   0.5837204755468283    0.5837204755468282    0.3666279524453172 T T T Ir
   0.0837204755468283    0.0837204755468283    0.3166279524453172 T T T Ir
   0.8325590489063438    0.3348819021873127    0.3915118097812687 T T T Ir
   0.3325590489063439    0.8348819021873128    0.3415118097812687 T T T Ir
   0.9162795244531721    0.4186023777341410    0.3331397622265859 T T T Ir
   0.4162795244531720    0.9186023777341410    0.3831397622265859 T T T Ir
   0.9162795244531718    0.9162795244531718    0.3833720475546828 T T T Ir
   0.4162795244531720    0.4162795244531720    0.3333720475546828 T T T Ir
   0.6674409510936564    0.1651180978126875    0.3584881902187312 T T T Ir
   0.1674409510936564    0.6651180978126875    0.3084881902187313 T T T Ir
   0.6666666666666667    0.6666666666666667    0.4083333333333333 T T T Re
   0.1666666666666668    0.1666666666666667    0.4583333333333334 F F F Re
   0.8333333333333335    0.8333333333333333    0.4416666666666667 F F F Re
   0.3333333333333335    0.3333333333333334    0.4916666666666667 F F F Re
   0.5837204755468282    0.0813976222658593    0.4168602377734141 F F F Ir
   0.0837204755468282    0.5813976222658593    0.4668602377734141 F F F Ir
   0.5837204755468283    0.5837204755468282    0.4666279524453172 F F F Ir
   0.0837204755468283    0.0837204755468283    0.4166279524453172 F F F Ir
   0.8325590489063438    0.3348819021873127    0.4915118097812687 F F F Ir
   0.3325590489063439    0.8348819021873128    0.4415118097812687 F F F Ir
   0.9162795244531721    0.4186023777341410    0.4331397622265859 F F F Ir
   0.4162795244531720    0.9186023777341410    0.4831397622265859 F F F Ir
   0.9162795244531718    0.9162795244531718    0.4833720475546828 F F F Ir
   0.4162795244531720    0.4162795244531720    0.4333720475546828 F F F Ir
   0.6674409510936564    0.1651180978126875    0.4584881902187313 F F F Ir
   0.1674409510936564    0.6651180978126875    0.4084881902187313 T T T Ir
   0.6666666666666667    0.6666666666666667    0.5083333333333333 F F F Re
   0.1666666666666668    0.1666666666666667    0.5583333333333333 F F F Re
   0.8333333333333335    0.8333333333333333    0.5416666666666667 F F F Re
   0.3333333333333335    0.3333333333333334    0.5916666666666667 T T T Re
   0.5837204755468282    0.0813976222658593    0.5168602377734141 F F F Ir
   0.0837204755468282    0.5813976222658593    0.5668602377734140 F F F Ir
   0.5837204755468283    0.5837204755468282    0.5666279524453173 F F F Ir
   0.0837204755468283    0.0837204755468283    0.5166279524453172 F F F Ir
   0.8325590489063438    0.3348819021873127    0.5915118097812687 T T T Ir
   0.3325590489063439    0.8348819021873128    0.5415118097812688 F F F Ir
   0.9162795244531721    0.4186023777341410    0.5331397622265859 F F F Ir
   0.4162795244531720    0.9186023777341410    0.5831397622265859 F F F Ir
   0.9162795244531718    0.9162795244531718    0.5833720475546829 F F F Ir
   0.4162795244531720    0.4162795244531720    0.5333720475546828 F F F Ir
   0.6674409510936564    0.1651180978126875    0.5584881902187313 F F F Ir
   0.1674409510936564    0.6651180978126875    0.5084881902187313 F F F Ir
   0.6666666666666667    0.6666666666666667    0.6083333333333334 T T T Re
   0.1666666666666668    0.1666666666666667    0.6583333333333333 T T T Re
   0.8333333333333335    0.8333333333333333    0.6416666666666666 T T T Re
   0.3333333333333335    0.3333333333333334    0.6916666666666667 T T T Re
   0.5837204755468282    0.0813976222658593    0.6168602377734140 T T T Ir
   0.0837204755468282    0.5813976222658593    0.6668602377734141 T T T Ir
   0.5837204755468283    0.5837204755468282    0.6666279524453171 T T T Ir
   0.0837204755468283    0.0837204755468283    0.6166279524453171 T T T Ir
   0.8325590489063438    0.3348819021873127    0.6915118097812687 T T T Ir
   0.3325590489063439    0.8348819021873128    0.6415118097812686 T T T Ir
   0.9162795244531721    0.4186023777341410    0.6331397622265860 T T T Ir
   0.4162795244531720    0.9186023777341410    0.6831397622265859 T T T Ir
   0.9162795244531718    0.9162795244531718    0.6833720475546827 T T T Ir
   0.4162795244531720    0.4162795244531720    0.6333720475546828 T T T Ir
   0.6674409510936564    0.1651180978126875    0.6584881902187312 T T T Ir
   0.1674409510936564    0.6651180978126875    0.6084881902187312 T T T Ir
