Si20 Rh20
1.0
   5.5800462588270499    0.0000000000000000   -3.1034228487872579
   0.0000000000000010    6.4268421665673889   -6.2068456975745194
   0.0000000000000000    0.0000000000000000   40.3444970342343794
Si Rh Si Rh Si Rh Si Rh Si Rh
4 4 4 4 4 4 4 4 4 4
Selective dynamics
direct
   0.6848330304048886    0.9435689418429830    0.3613054549300658 T T T Si
   0.3151669695951114    0.0564310581570169    0.3886945450699343 T T T Si
   0.1848330304048886    0.5564310581570169    0.3402073189783786 T T T Si
   0.8151669695951114    0.4435689418429831    0.3328696040985444 T T T Si
   0.5023093391877040    0.2974703477702789    0.3247884642098663 T T T Rh
   0.4976906608122960    0.7025296522297211    0.3482884588670568 T T T Rh
   0.0023093391877040    0.2025296522297211    0.3486437418190113 T T T Rh
   0.9976906608122961    0.7974703477702789    0.3244331812579118 T T T Rh
   0.6848330304048886    0.9435689418429830    0.4382285318531427 F F F Si
   0.3151669695951114    0.0564310581570169    0.4656176219930112 F F F Si
   0.1848330304048886    0.5564310581570169    0.4171303959014556 T T T Si
   0.8151669695951114    0.4435689418429831    0.4097926810216214 T T T Si
   0.5023093391877040    0.2974703477702789    0.4017115411329433 T T T Rh
   0.4976906608122960    0.7025296522297211    0.4252115357901337 T T T Rh
   0.0023093391877040    0.2025296522297211    0.4255668187420882 T T T Rh
   0.9976906608122961    0.7974703477702789    0.4013562581809887 T T T Rh
   0.6848330304048886    0.9435689418429830    0.5151516087762196 F F F Si
   0.3151669695951114    0.0564310581570169    0.5425406989160881 F F F Si
   0.1848330304048886    0.5564310581570169    0.4940534728245325 F F F Si
   0.8151669695951114    0.4435689418429831    0.4867157579446983 F F F Si
   0.5023093391877040    0.2974703477702789    0.4786346180560201 F F F Rh
   0.4976906608122960    0.7025296522297211    0.5021346127132107 F F F Rh
   0.0023093391877040    0.2025296522297211    0.5024898956651651 F F F Rh
   0.9976906608122961    0.7974703477702789    0.4782793351040657 F F F Rh
   0.6848330304048886    0.9435689418429830    0.5920746856992966 T T T Si
   0.3151669695951114    0.0564310581570169    0.6194637758391650 T T T Si
   0.1848330304048886    0.5564310581570169    0.5709765497476094 F F F Si
   0.8151669695951114    0.4435689418429831    0.5636388348677752 F F F Si
   0.5023093391877040    0.2974703477702789    0.5555576949790971 F F F Rh
   0.4976906608122960    0.7025296522297211    0.5790576896362876 F F F Rh
   0.0023093391877040    0.2025296522297211    0.5794129725882420 F F F Rh
   0.9976906608122961    0.7974703477702789    0.5552024120271426 F F F Rh
   0.6848330304048886    0.9435689418429830    0.6689977626223735 T T T Si
   0.3151669695951114    0.0564310581570169    0.6963868527622419 T T T Si
   0.1848330304048886    0.5564310581570169    0.6478996266706863 T T T Si
   0.8151669695951114    0.4435689418429831    0.6405619117908521 T T T Si
   0.5023093391877040    0.2974703477702789    0.6324807719021741 T T T Rh
   0.4976906608122960    0.7025296522297211    0.6559807665593644 T T T Rh
   0.0023093391877040    0.2025296522297211    0.6563360495113190 T T T Rh
   0.9976906608122961    0.7974703477702789    0.6321254889502195 T T T Rh
