Ta30 Sb24
1.0
   7.3229656291925611    0.0000000000000000   -8.9337553690578044
  -0.0030471720774923    7.3246120705535231   -8.9310188701934070
   0.0000000000000000    0.0000000000000000   53.6042578159791177
Ta Sb Ta Sb Ta Sb Ta Sb Ta Sb Ta Sb
5 4 5 4 5 4 5 4 5 4 5 4
Selective dynamics
direct
   0.6862978944078933    0.9404098097841002    0.3266871864874515 T T T Ta
   0.0592865865101971    0.6861169648403092    0.3464791882774618 T T T Ta
   0.9407134134898031    0.3138830351596910    0.3646319228336493 T T T Ta
   0.3137021055921070    0.0595901902159000    0.3177572579569929 T T T Ta
   0.0000000000000000    0.0000000000000000    0.3555555555555555 T T T Ta
   0.3490373169114135    0.7571784329677840    0.3066572678953622 T T T Sb
   0.2432340459412928    0.3492856656365291    0.3209556132284143 T T T Sb
   0.7567659540587075    0.6507143343634711    0.3234888312160302 T T T Sb
   0.6509626830885866    0.2428215670322161    0.3377871765490822 T T T Sb
   0.6862978944078933    0.9404098097841002    0.3933538531541182 T T T Ta
   0.0592865865101971    0.6861169648403092    0.4131458549441285 T T T Ta
   0.9407134134898031    0.3138830351596910    0.4312985895003160 F F F Ta
   0.3137021055921070    0.0595901902159000    0.3844239246236596 T T T Ta
   0.0000000000000000    0.0000000000000000    0.4222222222222222 F F F Ta
   0.3490373169114135    0.7571784329677840    0.3733239345620289 T T T Sb
   0.2432340459412928    0.3492856656365291    0.3876222798950809 T T T Sb
   0.7567659540587075    0.6507143343634711    0.3901554978826969 T T T Sb
   0.6509626830885866    0.2428215670322161    0.4044538432157488 T T T Sb
   0.6862978944078933    0.9404098097841002    0.4600205198207848 F F F Ta
   0.0592865865101971    0.6861169648403092    0.4798125216107951 F F F Ta
   0.9407134134898031    0.3138830351596910    0.4979652561669826 F F F Ta
   0.3137021055921070    0.0595901902159000    0.4510905912903262 F F F Ta
   0.0000000000000000    0.0000000000000000    0.4888888888888889 F F F Ta
   0.3490373169114135    0.7571784329677840    0.4399906012286955 F F F Sb
   0.2432340459412928    0.3492856656365291    0.4542889465617476 F F F Sb
   0.7567659540587075    0.6507143343634711    0.4568221645493635 F F F Sb
   0.6509626830885866    0.2428215670322161    0.4711205098824156 F F F Sb
   0.6862978944078933    0.9404098097841002    0.5266871864874516 F F F Ta
   0.0592865865101971    0.6861169648403092    0.5464791882774618 F F F Ta
   0.9407134134898031    0.3138830351596910    0.5646319228336494 F F F Ta
   0.3137021055921070    0.0595901902159000    0.5177572579569929 F F F Ta
   0.0000000000000000    0.0000000000000000    0.5555555555555556 F F F Ta
   0.3490373169114135    0.7571784329677840    0.5066572678953623 F F F Sb
   0.2432340459412928    0.3492856656365291    0.5209556132284143 F F F Sb
   0.7567659540587075    0.6507143343634711    0.5234888312160302 F F F Sb
   0.6509626830885866    0.2428215670322161    0.5377871765490823 F F F Sb
   0.6862978944078933    0.9404098097841002    0.5933538531541183 T T T Ta
   0.0592865865101971    0.6861169648403092    0.6131458549441284 T T T Ta
   0.9407134134898031    0.3138830351596910    0.6312985895003160 T T T Ta
   0.3137021055921070    0.0595901902159000    0.5844239246236596 F F F Ta
   0.0000000000000000    0.0000000000000000    0.6222222222222222 T T T Ta
   0.3490373169114135    0.7571784329677840    0.5733239345620289 F F F Sb
   0.2432340459412928    0.3492856656365291    0.5876222798950810 T T T Sb
   0.7567659540587075    0.6507143343634711    0.5901554978826968 T T T Sb
   0.6509626830885866    0.2428215670322161    0.6044538432157489 T T T Sb
   0.6862978944078933    0.9404098097841002    0.6600205198207849 T T T Ta
   0.0592865865101971    0.6861169648403092    0.6798125216107951 T T T Ta
   0.9407134134898031    0.3138830351596910    0.6979652561669827 T T T Ta
   0.3137021055921070    0.0595901902159000    0.6510905912903262 T T T Ta
   0.0000000000000000    0.0000000000000000    0.6888888888888889 T T T Ta
   0.3490373169114135    0.7571784329677840    0.6399906012286956 T T T Sb
   0.2432340459412928    0.3492856656365291    0.6542889465617476 T T T Sb
   0.7567659540587075    0.6507143343634711    0.6568221645493635 T T T Sb
   0.6509626830885866    0.2428215670322161    0.6711205098824156 T T T Sb
