Nb12 W12
1.0
   6.4631048081489277    0.0000000000000000    4.5548845095633741
   3.2315524040744612    4.6006544749977056    0.0000000000000003
   0.0000000000000000    0.0000000000000000   36.4390760765070070
Nb W Nb W Nb W
4 4 4 4 4 4
Selective dynamics
direct
   0.5000000000000000    0.0000000000000000    0.3593750000000000 T T T Nb
   0.0000000000000000    0.0000000000000000    0.4218750000000000 T T T Nb
   0.2500000000000000    0.0000000000000000    0.3281250000000000 T T T Nb
   0.7500000000000000    0.0000000000000000    0.3906250000000000 T T T Nb
   0.0000000000000000    0.5000000000000000    0.4218750000000000 T T T W
   0.5000000000000000    0.5000000000000000    0.3593750000000000 T T T W
   0.2500000000000000    0.5000000000000000    0.3281250000000000 T T T W
   0.7500000000000000    0.5000000000000000    0.3906250000000000 T T T W
   0.5000000000000000    0.0000000000000000    0.4843750000000000 F F F Nb
   0.0000000000000000    0.0000000000000000    0.5468750000000000 F F F Nb
   0.2500000000000000    0.0000000000000000    0.4531250000000000 F F F Nb
   0.7500000000000000    0.0000000000000000    0.5156250000000000 F F F Nb
   0.0000000000000000    0.5000000000000000    0.5468750000000000 F F F W
   0.5000000000000000    0.5000000000000000    0.4843750000000000 F F F W
   0.2500000000000000    0.5000000000000000    0.4531250000000000 F F F W
   0.7500000000000000    0.5000000000000000    0.5156250000000000 F F F W
   0.5000000000000000    0.0000000000000000    0.6093750000000000 T T T Nb
   0.0000000000000000    0.0000000000000000    0.6718750000000000 T T T Nb
   0.2500000000000000    0.0000000000000000    0.5781250000000000 T T T Nb
   0.7500000000000000    0.0000000000000000    0.6406250000000000 T T T Nb
   0.0000000000000000    0.5000000000000000    0.6718750000000000 T T T W
   0.5000000000000000    0.5000000000000000    0.6093750000000000 T T T W
   0.2500000000000000    0.5000000000000000    0.5781250000000000 T T T W
   0.7500000000000000    0.5000000000000000    0.6406250000000000 T T T W
