Rb24 Au56
1.0
  13.6672205163785971    0.0000000000000000    0.0000000000000008
   0.0000000000000024   14.6981686622816010   -5.7134249735970242
   0.0000000000000000    0.0000000000000000   28.5671248679851075
Rb Au Rb Au
12 28 12 28
Selective dynamics
direct
   0.8369666675354992    0.2500000000000000    0.4250000000000000 T T T Rb
   0.8369666675354992    0.7500000000000000    0.3250000000000000 T T T Rb
   0.6630333324645008    0.2500000000000000    0.3250000000000000 T T T Rb
   0.6630333324645008    0.7500000000000000    0.4250000000000000 T T T Rb
   0.0000000000000000    0.0000000000000000    0.3750000000000000 T T T Rb
   0.0000000000000000    0.5000000000000000    0.4750000000000000 F F F Rb
   0.3369666675354992    0.2500000000000000    0.3250000000000000 T T T Rb
   0.3369666675354992    0.7500000000000000    0.4250000000000000 T T T Rb
   0.1630333324645008    0.2500000000000000    0.4250000000000000 T T T Rb
   0.1630333324645008    0.7500000000000000    0.3250000000000000 T T T Rb
   0.5000000000000000    0.0000000000000000    0.4750000000000000 F F F Rb
   0.5000000000000000    0.4999999999999999    0.3750000000000000 T T T Rb
   0.6079844955705127    0.4022476878228467    0.4554495375645694 F F F Au
   0.6079844955705127    0.9022476878228467    0.3554495375645693 T T T Au
   0.8920155044294873    0.0977523121771533    0.4945504624354307 F F F Au
   0.8920155044294873    0.5977523121771533    0.3945504624354307 T T T Au
   0.8920155044294873    0.4022476878228466    0.3554495375645693 T T T Au
   0.8920155044294873    0.9022476878228467    0.4554495375645694 F F F Au
   0.6079844955705127    0.0977523121771533    0.3945504624354307 T T T Au
   0.6079844955705127    0.5977523121771533    0.4945504624354307 F F F Au
   0.7500000000000000    0.0000000000000000    0.4250000000000000 T T T Au
   0.7500000000000000    0.5000000000000000    0.3250000000000000 T T T Au
   0.7500000000000000    0.0000000000000000    0.3250000000000000 T T T Au
   0.7500000000000000    0.5000000000000000    0.4250000000000000 T T T Au
   0.0000000000000000    0.2500000000000000    0.3250000000000000 T T T Au
   0.0000000000000000    0.7500000000000000    0.4250000000000000 T T T Au
   0.1079844955705127    0.4022476878228467    0.3554495375645693 T T T Au
   0.1079844955705127    0.9022476878228468    0.4554495375645694 F F F Au
   0.3920155044294873    0.0977523121771533    0.3945504624354307 T T T Au
   0.3920155044294873    0.5977523121771532    0.4945504624354307 F F F Au
   0.3920155044294873    0.4022476878228467    0.4554495375645694 F F F Au
   0.3920155044294873    0.9022476878228467    0.3554495375645693 T T T Au
   0.1079844955705127    0.0977523121771533    0.4945504624354307 F F F Au
   0.1079844955705127    0.5977523121771533    0.3945504624354307 T T T Au
   0.2500000000000000    0.0000000000000000    0.3250000000000000 T T T Au
   0.2500000000000000    0.4999999999999999    0.4250000000000000 T T T Au
   0.2500000000000000    0.0000000000000000    0.4250000000000000 T T T Au
   0.2500000000000000    0.5000000000000000    0.3250000000000000 T T T Au
   0.5000000000000000    0.2500000000000000    0.4250000000000000 T T T Au
   0.5000000000000000    0.7500000000000000    0.3250000000000000 T T T Au
   0.8369666675354992    0.2500000000000000    0.6250000000000000 T T T Rb
   0.8369666675354992    0.7500000000000000    0.5250000000000000 F F F Rb
   0.6630333324645008    0.2500000000000000    0.5250000000000000 F F F Rb
   0.6630333324645008    0.7500000000000000    0.6250000000000000 T T T Rb
   0.0000000000000000    0.0000000000000000    0.5750000000000000 F F F Rb
   0.0000000000000000    0.5000000000000000    0.6750000000000000 T T T Rb
   0.3369666675354992    0.2500000000000000    0.5250000000000000 F F F Rb
   0.3369666675354992    0.7500000000000000    0.6250000000000000 T T T Rb
   0.1630333324645008    0.2500000000000000    0.6250000000000000 T T T Rb
   0.1630333324645008    0.7500000000000000    0.5250000000000000 F F F Rb
   0.5000000000000000    0.0000000000000000    0.6750000000000000 T T T Rb
   0.5000000000000000    0.4999999999999999    0.5750000000000000 F F F Rb
   0.6079844955705127    0.4022476878228467    0.6554495375645694 T T T Au
   0.6079844955705127    0.9022476878228467    0.5554495375645694 F F F Au
   0.8920155044294873    0.0977523121771533    0.6945504624354306 T T T Au
   0.8920155044294873    0.5977523121771533    0.5945504624354306 T T T Au
   0.8920155044294873    0.4022476878228466    0.5554495375645694 F F F Au
   0.8920155044294873    0.9022476878228467    0.6554495375645694 T T T Au
   0.6079844955705127    0.0977523121771533    0.5945504624354306 T T T Au
   0.6079844955705127    0.5977523121771533    0.6945504624354306 T T T Au
   0.7500000000000000    0.0000000000000000    0.6250000000000000 T T T Au
   0.7500000000000000    0.5000000000000000    0.5250000000000000 F F F Au
   0.7500000000000000    0.0000000000000000    0.5250000000000000 F F F Au
   0.7500000000000000    0.5000000000000000    0.6250000000000000 T T T Au
   0.0000000000000000    0.2500000000000000    0.5250000000000000 F F F Au
   0.0000000000000000    0.7500000000000000    0.6250000000000000 T T T Au
   0.1079844955705127    0.4022476878228467    0.5554495375645694 F F F Au
   0.1079844955705127    0.9022476878228468    0.6554495375645694 T T T Au
   0.3920155044294873    0.0977523121771533    0.5945504624354306 T T T Au
   0.3920155044294873    0.5977523121771532    0.6945504624354306 T T T Au
   0.3920155044294873    0.4022476878228467    0.6554495375645694 T T T Au
   0.3920155044294873    0.9022476878228467    0.5554495375645694 F F F Au
   0.1079844955705127    0.0977523121771533    0.6945504624354306 T T T Au
   0.1079844955705127    0.5977523121771533    0.5945504624354306 T T T Au
   0.2500000000000000    0.0000000000000000    0.5250000000000000 F F F Au
   0.2500000000000000    0.4999999999999999    0.6250000000000000 T T T Au
   0.2500000000000000    0.0000000000000000    0.6250000000000000 T T T Au
   0.2500000000000000    0.5000000000000000    0.5250000000000000 F F F Au
   0.5000000000000000    0.2500000000000000    0.6250000000000000 T T T Au
   0.5000000000000000    0.7500000000000000    0.5250000000000000 F F F Au
