Rb18 Au42
1.0
  13.6672205163785954    0.0000000000000000  -11.4268499471940430
   0.0000000000000028    7.3490843311408023   -5.7134249735970206
   0.0000000000000000    0.0000000000000000   39.9939748151791505
Rb Au Rb Au Rb Au
6 14 6 14 6 14
Selective dynamics
direct
   0.8369666675354992    0.5000000000000001    0.3534190478672856 T T T Rb
   0.6630333324645008    0.5000000000000000    0.3751523807041431 T T T Rb
   0.0000000000000000    0.0000000000000000    0.3285714285714286 T T T Rb
   0.3369666675354992    0.5000000000000000    0.4248476192958570 F F F Rb
   0.1630333324645008    0.5000000000000000    0.3037238092755717 T T T Rb
   0.5000000000000000    0.0000000000000000    0.4000000000000001 T T T Rb
   0.6079844955705127    0.8044953756456934    0.3314949095409599 T T T Au
   0.8920155044294873    0.1955046243543066    0.3970765190304688 T T T Au
   0.8920155044294873    0.8044953756456934    0.3412180549292383 T T T Au
   0.6079844955705127    0.1955046243543067    0.3873533736421904 T T T Au
   0.7499999999999999    0.0000000000000001    0.2928571428571429 T T T Au
   0.7499999999999999    0.0000000000000001    0.3642857142857143 T T T Au
   0.0000000000000000    0.5000000000000000    0.3285714285714286 T T T Au
   0.1079844955705127    0.8044953756456934    0.4029234809695313 T T T Au
   0.3920155044294873    0.1955046243543066    0.3256479476018974 T T T Au
   0.3920155044294873    0.8044953756456934    0.4126466263578098 F F F Au
   0.1079844955705127    0.1955046243543066    0.3159248022136189 T T T Au
   0.2500000000000000    0.0000000000000000    0.3642857142857143 T T T Au
   0.2500000000000000    0.0000000000000000    0.2928571428571429 T T T Au
   0.5000000000000000    0.5000000000000000    0.4000000000000001 T T T Au
   0.8369666675354992    0.5000000000000001    0.4962761907244284 F F F Rb
   0.6630333324645008    0.5000000000000000    0.5180095235612860 F F F Rb
   0.0000000000000000    0.0000000000000000    0.4714285714285715 F F F Rb
   0.3369666675354992    0.5000000000000000    0.5677047621529998 F F F Rb
   0.1630333324645008    0.5000000000000000    0.4465809521327146 F F F Rb
   0.5000000000000000    0.0000000000000000    0.5428571428571429 F F F Rb
   0.6079844955705127    0.8044953756456934    0.4743520523981027 F F F Au
   0.8920155044294873    0.1955046243543066    0.5399336618876116 F F F Au
   0.8920155044294873    0.8044953756456934    0.4840751977863812 F F F Au
   0.6079844955705127    0.1955046243543067    0.5302105164993332 F F F Au
   0.7499999999999999    0.0000000000000001    0.4357142857142858 F F F Au
   0.7499999999999999    0.0000000000000001    0.5071428571428571 F F F Au
   0.0000000000000000    0.5000000000000000    0.4714285714285715 F F F Au
   0.1079844955705127    0.8044953756456934    0.5457806238266742 F F F Au
   0.3920155044294873    0.1955046243543066    0.4685050904590402 F F F Au
   0.3920155044294873    0.8044953756456934    0.5555037692149527 F F F Au
   0.1079844955705127    0.1955046243543066    0.4587819450707618 F F F Au
   0.2500000000000000    0.0000000000000000    0.5071428571428572 F F F Au
   0.2500000000000000    0.0000000000000000    0.4357142857142858 F F F Au
   0.5000000000000000    0.5000000000000000    0.5428571428571429 F F F Au
   0.8369666675354992    0.5000000000000001    0.6391333335815712 T T T Rb
   0.6630333324645008    0.5000000000000000    0.6608666664184288 T T T Rb
   0.0000000000000000    0.0000000000000000    0.6142857142857143 T T T Rb
   0.3369666675354992    0.5000000000000000    0.7105619050101426 T T T Rb
   0.1630333324645008    0.5000000000000000    0.5894380949898574 F F F Rb
   0.5000000000000000    0.0000000000000000    0.6857142857142857 T T T Rb
   0.6079844955705127    0.8044953756456934    0.6172091952552456 T T T Au
   0.8920155044294873    0.1955046243543066    0.6827908047447545 T T T Au
   0.8920155044294873    0.8044953756456934    0.6269323406435241 T T T Au
   0.6079844955705127    0.1955046243543067    0.6730676593564761 T T T Au
   0.7499999999999999    0.0000000000000001    0.5785714285714286 F F F Au
   0.7499999999999999    0.0000000000000001    0.6500000000000000 T T T Au
   0.0000000000000000    0.5000000000000000    0.6142857142857143 T T T Au
   0.1079844955705127    0.8044953756456934    0.6886377666838170 T T T Au
   0.3920155044294873    0.1955046243543066    0.6113622333161830 T T T Au
   0.3920155044294873    0.8044953756456934    0.6983609120720955 T T T Au
   0.1079844955705127    0.1955046243543066    0.6016390879279045 T T T Au
   0.2500000000000000    0.0000000000000000    0.6500000000000001 T T T Au
   0.2500000000000000    0.0000000000000000    0.5785714285714286 F F F Au
   0.5000000000000000    0.5000000000000000    0.6857142857142857 T T T Au
