Ta12 Ga8
1.0
   6.9016352960476324    0.0000000000000000    0.0000000000000004
   0.0000000000000006    3.5169024588853999    0.0000000000000002
   0.0000000000000000    0.0000000000000000   34.5081764802381628
Ta Ga Ta Ga
6 4 6 4
Selective dynamics
direct
   0.8247659474193724    0.4999999999999999    0.4250468105161255 F F F Ta
   0.3247659474193724    0.4999999999999999    0.4549531894838745 F F F Ta
   0.1752340525806275    0.4999999999999999    0.3549531894838745 T T T Ta
   0.6752340525806274    0.5000000000000000    0.3250468105161255 T T T Ta
   0.4999999999999999    0.0000000000000000    0.3900000000000000 T T T Ta
   0.0000000000000000    0.0000000000000000    0.4900000000000000 F F F Ta
   0.1262050772139318    0.0000000000000000    0.4152410154427864 F F F Ga
   0.6262050772139318    0.0000000000000000    0.4647589845572137 F F F Ga
   0.3737949227860681    0.0000000000000000    0.3152410154427864 T T T Ga
   0.8737949227860682    0.0000000000000000    0.3647589845572136 T T T Ga
   0.8247659474193724    0.4999999999999999    0.6250468105161255 T T T Ta
   0.3247659474193724    0.4999999999999999    0.6549531894838745 T T T Ta
   0.1752340525806275    0.4999999999999999    0.5549531894838745 F F F Ta
   0.6752340525806274    0.5000000000000000    0.5250468105161256 F F F Ta
   0.4999999999999999    0.0000000000000000    0.5900000000000001 F F F Ta
   0.0000000000000000    0.0000000000000000    0.6899999999999999 T T T Ta
   0.1262050772139318    0.0000000000000000    0.6152410154427863 T T T Ga
   0.6262050772139318    0.0000000000000000    0.6647589845572137 T T T Ga
   0.3737949227860681    0.0000000000000000    0.5152410154427864 F F F Ga
   0.8737949227860682    0.0000000000000000    0.5647589845572136 F F F Ga
