Nb32 Pd16
1.0
   4.2968178706667457    0.0000000000000000    0.0000000000000003
   0.0000000000000021   13.0732656310236806   -7.2536952273902582
   0.0000000000000000    0.0000000000000000   32.6416285232561307
Nb Pd Nb Pd Nb Pd Nb Pd
8 4 8 4 8 4 8 4
Selective dynamics
direct
   0.0000000000000000    0.3372112459482607    0.3249358324329468 T T T Nb
   0.0000000000000000    0.1627887540517392    0.3417308342337199 T T T Nb
   0.5000000000000000    0.8372112459482607    0.3249358324329468 T T T Nb
   0.5000000000000000    0.6627887540517391    0.3417308342337199 T T T Nb
   0.0000000000000000    0.8372112459482607    0.3804913879885024 T T T Nb
   0.0000000000000000    0.6627887540517392    0.2861752786781643 T T T Nb
   0.5000000000000000    0.3372112459482607    0.3804913879885024 T T T Nb
   0.5000000000000000    0.1627887540517392    0.2861752786781643 T T T Nb
   0.0000000000000000    0.0000000000000000    0.3611111111111111 T T T Pd
   0.5000000000000000    0.4999999999999999    0.3611111111111111 T T T Pd
   0.0000000000000000    0.4999999999999999    0.3055555555555556 T T T Pd
   0.5000000000000000    0.0000000000000000    0.3055555555555556 T T T Pd
   0.0000000000000000    0.3372112459482607    0.4360469435440579 F F F Nb
   0.0000000000000000    0.1627887540517392    0.4528419453448309 F F F Nb
   0.5000000000000000    0.8372112459482607    0.4360469435440579 F F F Nb
   0.5000000000000000    0.6627887540517391    0.4528419453448309 F F F Nb
   0.0000000000000000    0.8372112459482607    0.4916024990996135 F F F Nb
   0.0000000000000000    0.6627887540517392    0.3972863897892754 F F F Nb
   0.5000000000000000    0.3372112459482607    0.4916024990996135 F F F Nb
   0.5000000000000000    0.1627887540517392    0.3972863897892754 F F F Nb
   0.0000000000000000    0.0000000000000000    0.4722222222222222 F F F Pd
   0.5000000000000000    0.4999999999999999    0.4722222222222222 F F F Pd
   0.0000000000000000    0.4999999999999999    0.4166666666666667 F F F Pd
   0.5000000000000000    0.0000000000000000    0.4166666666666667 F F F Pd
   0.0000000000000000    0.3372112459482607    0.5471580546551691 F F F Nb
   0.0000000000000000    0.1627887540517392    0.5639530564559421 F F F Nb
   0.5000000000000000    0.8372112459482607    0.5471580546551691 F F F Nb
   0.5000000000000000    0.6627887540517391    0.5639530564559421 F F F Nb
   0.0000000000000000    0.8372112459482607    0.6027136102107247 F F F Nb
   0.0000000000000000    0.6627887540517392    0.5083975009003865 F F F Nb
   0.5000000000000000    0.3372112459482607    0.6027136102107247 F F F Nb
   0.5000000000000000    0.1627887540517392    0.5083975009003865 F F F Nb
   0.0000000000000000    0.0000000000000000    0.5833333333333333 F F F Pd
   0.5000000000000000    0.4999999999999999    0.5833333333333333 F F F Pd
   0.0000000000000000    0.4999999999999999    0.5277777777777778 F F F Pd
   0.5000000000000000    0.0000000000000000    0.5277777777777778 F F F Pd
   0.0000000000000000    0.3372112459482607    0.6582691657662801 T T T Nb
   0.0000000000000000    0.1627887540517392    0.6750641675670531 T T T Nb
   0.5000000000000000    0.8372112459482607    0.6582691657662801 T T T Nb
   0.5000000000000000    0.6627887540517391    0.6750641675670531 T T T Nb
   0.0000000000000000    0.8372112459482607    0.7138247213218357 T T T Nb
   0.0000000000000000    0.6627887540517392    0.6195086120114977 T T T Nb
   0.5000000000000000    0.3372112459482607    0.7138247213218357 T T T Nb
   0.5000000000000000    0.1627887540517392    0.6195086120114977 T T T Nb
   0.0000000000000000    0.0000000000000000    0.6944444444444444 T T T Pd
   0.5000000000000000    0.4999999999999999    0.6944444444444444 T T T Pd
   0.0000000000000000    0.4999999999999999    0.6388888888888888 T T T Pd
   0.5000000000000000    0.0000000000000000    0.6388888888888888 T T T Pd
