Nb8 Au16
1.0
   2.7607430444319299    0.0000000000000000    0.0000000000000002
   0.0000000000000013    8.1188644376539685   -9.3748571371871972
   0.0000000000000000    0.0000000000000000   42.1868571173423845
Nb Au Nb Au Nb Au Nb Au
2 4 2 4 2 4 2 4
Selective dynamics
direct
   0.0000000000000000    0.5000000000000000    0.3240740740740741 T T T Nb
   0.0000000000000000    0.0000000000000000    0.3796296296296297 T T T Nb
   0.5000000000000000    0.1666666666666667    0.3611111111111111 T T T Au
   0.5000000000000000    0.6666666666666667    0.3055555555555556 T T T Au
   0.5000000000000000    0.3333333333333333    0.3425925925925926 T T T Au
   0.5000000000000000    0.8333333333333334    0.2870370370370370 T T T Au
   0.0000000000000000    0.5000000000000000    0.4351851851851852 F F F Nb
   0.0000000000000000    0.0000000000000000    0.4907407407407408 F F F Nb
   0.5000000000000000    0.1666666666666667    0.4722222222222222 F F F Au
   0.5000000000000000    0.6666666666666667    0.4166666666666667 F F F Au
   0.5000000000000000    0.3333333333333333    0.4537037037037037 F F F Au
   0.5000000000000000    0.8333333333333334    0.3981481481481481 F F F Au
   0.0000000000000000    0.5000000000000000    0.5462962962962963 F F F Nb
   0.0000000000000000    0.0000000000000000    0.6018518518518519 F F F Nb
   0.5000000000000000    0.1666666666666667    0.5833333333333333 F F F Au
   0.5000000000000000    0.6666666666666667    0.5277777777777778 F F F Au
   0.5000000000000000    0.3333333333333333    0.5648148148148149 F F F Au
   0.5000000000000000    0.8333333333333334    0.5092592592592593 F F F Au
   0.0000000000000000    0.5000000000000000    0.6574074074074074 T T T Nb
   0.0000000000000000    0.0000000000000000    0.7129629629629630 T T T Nb
   0.5000000000000000    0.1666666666666667    0.6944444444444444 T T T Au
   0.5000000000000000    0.6666666666666667    0.6388888888888888 T T T Au
   0.5000000000000000    0.3333333333333333    0.6759259259259259 T T T Au
   0.5000000000000000    0.8333333333333334    0.6203703703703703 T T T Au
