Mn16 Ni48
1.0
   7.1348280599267628    0.0000000000000000   -3.5674140299633814
  -0.0000000000000020    7.1348280599267637   -3.5674140299633819
   0.0000000000000000    0.0000000000000000   35.6741402996338195
Mn Ni Mn Ni Mn Ni Mn Ni
4 12 4 12 4 12 4 12
Selective dynamics
direct
   0.5000000000000000    0.5000000000000000    0.3875000000000000 T T T Mn
   0.0000000000000000    0.0000000000000000    0.3875000000000000 T T T Mn
   0.0000000000000000    0.5000000000000000    0.3375000000000000 T T T Mn
   0.5000000000000000    0.0000000000000001    0.3375000000000000 T T T Mn
   0.7500000000000000    0.7500000000000000    0.3375000000000000 T T T Ni
   0.2500000000000000    0.2500000000000001    0.3375000000000000 T T T Ni
   0.2500000000000000    0.7500000000000000    0.3875000000000000 T T T Ni
   0.7500000000000000    0.2500000000000001    0.3875000000000000 T T T Ni
   0.7500000000000000    0.5000000000000000    0.3625000000000000 T T T Ni
   0.2500000000000000    0.0000000000000001    0.3625000000000000 T T T Ni
   0.2500000000000000    0.5000000000000001    0.3125000000000000 T T T Ni
   0.7500000000000000    0.0000000000000002    0.3125000000000000 T T T Ni
   0.5000000000000000    0.7500000000000000    0.3625000000000000 T T T Ni
   0.0000000000000000    0.2500000000000001    0.3625000000000000 T T T Ni
   0.0000000000000000    0.7500000000000001    0.3125000000000000 T T T Ni
   0.5000000000000000    0.2500000000000001    0.3125000000000000 T T T Ni
   0.5000000000000000    0.5000000000000000    0.4875000000000000 F F F Mn
   0.0000000000000000    0.0000000000000000    0.4875000000000000 F F F Mn
   0.0000000000000000    0.5000000000000000    0.4375000000000000 F F F Mn
   0.5000000000000000    0.0000000000000001    0.4375000000000000 F F F Mn
   0.7500000000000000    0.7500000000000000    0.4375000000000000 F F F Ni
   0.2500000000000000    0.2500000000000001    0.4375000000000000 F F F Ni
   0.2500000000000000    0.7500000000000000    0.4875000000000000 F F F Ni
   0.7500000000000000    0.2500000000000001    0.4875000000000000 F F F Ni
   0.7500000000000000    0.5000000000000000    0.4625000000000000 F F F Ni
   0.2500000000000000    0.0000000000000001    0.4625000000000000 F F F Ni
   0.2500000000000000    0.5000000000000001    0.4125000000000000 T T T Ni
   0.7500000000000000    0.0000000000000002    0.4125000000000000 T T T Ni
   0.5000000000000000    0.7500000000000000    0.4625000000000000 F F F Ni
   0.0000000000000000    0.2500000000000001    0.4625000000000000 F F F Ni
   0.0000000000000000    0.7500000000000001    0.4125000000000000 T T T Ni
   0.5000000000000000    0.2500000000000001    0.4125000000000000 T T T Ni
   0.5000000000000000    0.5000000000000000    0.5874999999999999 T T T Mn
   0.0000000000000000    0.0000000000000000    0.5874999999999999 T T T Mn
   0.0000000000000000    0.5000000000000000    0.5375000000000000 F F F Mn
   0.5000000000000000    0.0000000000000001    0.5375000000000000 F F F Mn
   0.7500000000000000    0.7500000000000000    0.5375000000000000 F F F Ni
   0.2500000000000000    0.2500000000000001    0.5375000000000000 F F F Ni
   0.2500000000000000    0.7500000000000000    0.5874999999999999 T T T Ni
   0.7500000000000000    0.2500000000000001    0.5874999999999999 T T T Ni
   0.7500000000000000    0.5000000000000000    0.5625000000000000 F F F Ni
   0.2500000000000000    0.0000000000000001    0.5625000000000000 F F F Ni
   0.2500000000000000    0.5000000000000001    0.5125000000000000 F F F Ni
   0.7500000000000000    0.0000000000000002    0.5125000000000000 F F F Ni
   0.5000000000000000    0.7500000000000000    0.5625000000000000 F F F Ni
   0.0000000000000000    0.2500000000000001    0.5625000000000000 F F F Ni
   0.0000000000000000    0.7500000000000001    0.5125000000000000 F F F Ni
   0.5000000000000000    0.2500000000000001    0.5125000000000000 F F F Ni
   0.5000000000000000    0.5000000000000000    0.6875000000000000 T T T Mn
   0.0000000000000000    0.0000000000000000    0.6875000000000000 T T T Mn
   0.0000000000000000    0.5000000000000000    0.6375000000000000 T T T Mn
   0.5000000000000000    0.0000000000000001    0.6375000000000000 T T T Mn
   0.7500000000000000    0.7500000000000000    0.6375000000000000 T T T Ni
   0.2500000000000000    0.2500000000000001    0.6375000000000000 T T T Ni
   0.2500000000000000    0.7500000000000000    0.6875000000000000 T T T Ni
   0.7500000000000000    0.2500000000000001    0.6875000000000000 T T T Ni
   0.7500000000000000    0.5000000000000000    0.6625000000000000 T T T Ni
   0.2500000000000000    0.0000000000000001    0.6625000000000000 T T T Ni
   0.2500000000000000    0.5000000000000001    0.6125000000000000 T T T Ni
   0.7500000000000000    0.0000000000000002    0.6125000000000000 T T T Ni
   0.5000000000000000    0.7500000000000000    0.6625000000000000 T T T Ni
   0.0000000000000000    0.2500000000000001    0.6625000000000000 T T T Ni
   0.0000000000000000    0.7500000000000001    0.6125000000000000 T T T Ni
   0.5000000000000000    0.2500000000000001    0.6125000000000000 T T T Ni
