Mn4 Ni12
1.0
   3.5674140299633819    0.0000000000000000    0.0000000000000002
   0.0000000000000006    3.5674140299633814   -3.5674140299633810
   0.0000000000000000    0.0000000000000000   35.6741402996338195
Mn Ni Mn Ni Mn Ni Mn Ni
1 3 1 3 1 3 1 3
Selective dynamics
direct
   0.0000000000000000    0.0000000000000000    0.3750000000000000 T T T Mn
   0.5000000000000000    0.5000000000000000    0.3250000000000000 T T T Ni
   0.0000000000000000    0.5000000000000000    0.3750000000000000 T T T Ni
   0.5000000000000000    0.0000000000000000    0.3250000000000000 T T T Ni
   0.0000000000000000    0.0000000000000000    0.4750000000000000 F F F Mn
   0.5000000000000000    0.5000000000000000    0.4250000000000000 T T T Ni
   0.0000000000000000    0.5000000000000000    0.4750000000000000 F F F Ni
   0.5000000000000000    0.0000000000000000    0.4250000000000000 T T T Ni
   0.0000000000000000    0.0000000000000000    0.5750000000000000 T T T Mn
   0.5000000000000000    0.5000000000000000    0.5250000000000000 F F F Ni
   0.0000000000000000    0.5000000000000000    0.5750000000000000 T T T Ni
   0.5000000000000000    0.0000000000000000    0.5250000000000000 F F F Ni
   0.0000000000000000    0.0000000000000000    0.6750000000000000 T T T Mn
   0.5000000000000000    0.5000000000000000    0.6250000000000000 T T T Ni
   0.0000000000000000    0.5000000000000000    0.6750000000000000 T T T Ni
   0.5000000000000000    0.0000000000000000    0.6250000000000000 T T T Ni
