Mn8 Pt8
1.0
   4.1567638837601066    0.0000000000000000    0.0000000000000003
   4.1567638837601093    4.1567638837601057    3.5001964477749161
   0.0000000000000000    0.0000000000000000   35.0019644777491692
Mn Pt Mn Pt Mn Pt Mn Pt
2 2 2 2 2 2 2 2
Selective dynamics
direct
   0.0000000000000000    0.5000000000000000    0.3250000000000000 T T T Mn
   0.0000000000000000    0.0000000000000000    0.3750000000000000 T T T Mn
   0.5000000000000000    0.0000000000000000    0.3250000000000000 T T T Pt
   0.5000000000000000    0.5000000000000000    0.3750000000000000 T T T Pt
   0.0000000000000000    0.5000000000000000    0.4250000000000000 T T T Mn
   0.0000000000000000    0.0000000000000000    0.4750000000000000 F F F Mn
   0.5000000000000000    0.0000000000000000    0.4250000000000000 T T T Pt
   0.5000000000000000    0.5000000000000000    0.4750000000000000 F F F Pt
   0.0000000000000000    0.5000000000000000    0.5250000000000000 F F F Mn
   0.0000000000000000    0.0000000000000000    0.5750000000000000 T T T Mn
   0.5000000000000000    0.0000000000000000    0.5250000000000000 F F F Pt
   0.5000000000000000    0.5000000000000000    0.5750000000000000 T T T Pt
   0.0000000000000000    0.5000000000000000    0.6250000000000000 T T T Mn
   0.0000000000000000    0.0000000000000000    0.6750000000000000 T T T Mn
   0.5000000000000000    0.0000000000000000    0.6250000000000000 T T T Pt
   0.5000000000000000    0.5000000000000000    0.6750000000000000 T T T Pt
