Ba6 Au30
1.0
  10.1236438329968603    0.0000000000000000    0.0000000000000006
   0.0000000000000009    5.8448884921606332   -4.5821287195953007
   0.0000000000000000    0.0000000000000000   36.6570297567623982
Ba Au Ba Au Ba Au
2 10 2 10 2 10
Selective dynamics
direct
   0.5000000000000001    0.5000000000000000    0.3541666666666666 T T T Ba
   0.0000000000000000    0.0000000000000000    0.4166666666666666 T T T Ba
   0.1666666666666667    0.4999999999999999    0.3541666666666666 T T T Au
   0.6666666666666666    0.0000000000000000    0.4166666666666666 T T T Au
   0.2500000000000000    0.7499999999999999    0.3229166666666666 T T T Au
   0.7500000000000000    0.2500000000000000    0.3854166666666666 T T T Au
   0.5000000000000000    0.0000000000000000    0.3541666666666666 T T T Au
   0.0000000000000000    0.5000000000000000    0.4166666666666666 T T T Au
   0.2500000000000001    0.2500000000000000    0.3854166666666666 T T T Au
   0.7500000000000000    0.7500000000000000    0.3229166666666666 T T T Au
   0.3333333333333334    0.0000000000000000    0.4166666666666666 T T T Au
   0.8333333333333333    0.5000000000000000    0.3541666666666666 T T T Au
   0.5000000000000001    0.5000000000000000    0.4791666666666666 F F F Ba
   0.0000000000000000    0.0000000000000000    0.5416666666666666 F F F Ba
   0.1666666666666667    0.4999999999999999    0.4791666666666666 F F F Au
   0.6666666666666666    0.0000000000000000    0.5416666666666666 F F F Au
   0.2500000000000000    0.7499999999999999    0.4479166666666666 F F F Au
   0.7500000000000000    0.2500000000000000    0.5104166666666666 F F F Au
   0.5000000000000000    0.0000000000000000    0.4791666666666666 F F F Au
   0.0000000000000000    0.5000000000000000    0.5416666666666666 F F F Au
   0.2500000000000001    0.2500000000000000    0.5104166666666666 F F F Au
   0.7500000000000000    0.7500000000000000    0.4479166666666666 F F F Au
   0.3333333333333334    0.0000000000000000    0.5416666666666666 F F F Au
   0.8333333333333333    0.5000000000000000    0.4791666666666666 F F F Au
   0.5000000000000001    0.5000000000000000    0.6041666666666666 T T T Ba
   0.0000000000000000    0.0000000000000000    0.6666666666666666 T T T Ba
   0.1666666666666667    0.4999999999999999    0.6041666666666666 T T T Au
   0.6666666666666666    0.0000000000000000    0.6666666666666666 T T T Au
   0.2500000000000000    0.7499999999999999    0.5729166666666666 T T T Au
   0.7500000000000000    0.2500000000000000    0.6354166666666666 T T T Au
   0.5000000000000000    0.0000000000000000    0.6041666666666666 T T T Au
   0.0000000000000000    0.5000000000000000    0.6666666666666666 T T T Au
   0.2500000000000001    0.2500000000000000    0.6354166666666666 T T T Au
   0.7500000000000000    0.7500000000000000    0.5729166666666666 T T T Au
   0.3333333333333334    0.0000000000000000    0.6666666666666666 T T T Au
   0.8333333333333333    0.5000000000000000    0.6041666666666666 T T T Au
