Al24 Ag48
1.0
  13.2781783362817638    0.0000000000000000    0.0000000000000008
   7.3999460175028187    6.5953469838443377    4.6351476291433791
   0.0000000000000000    0.0000000000000000   32.4460334040036571
Al Ag Al Ag Al Ag
8 16 8 16 8 16
Selective dynamics
direct
   0.0000000000000000    0.4096882929315147    0.3998064343431169 T T T Al
   0.0000000000000000    0.9096882929315147    0.3283778629145455 T T T Al
   0.0000000000000000    0.0903117070684853    0.3740030894664068 T T T Al
   0.0000000000000000    0.5903117070684853    0.3025745180378354 T T T Al
   0.5000000000000000    0.6596882929315147    0.3640921486288312 T T T Al
   0.5000000000000000    0.1596882929315147    0.2926635772002598 T T T Al
   0.5000000000000000    0.8403117070684853    0.4097173751806926 F F F Al
   0.5000000000000000    0.3403117070684853    0.3382888037521211 T T T Al
   0.1610246023098583    0.9958757757500827    0.3160653653690358 T T T Ag
   0.1610246023098583    0.4958757757500827    0.3874939367976072 T T T Ag
   0.3389753976901417    0.0679249803697992    0.3057726218519334 T T T Ag
   0.3389753976901417    0.5679249803697992    0.3772011932805048 T T T Ag
   0.1610246023098583    0.1820750196302008    0.3608940448147332 T T T Ag
   0.1610246023098583    0.6820750196302008    0.2894654733861618 T T T Ag
   0.3389753976901417    0.7541242242499173    0.4220298727262023 F F F Ag
   0.3389753976901417    0.2541242242499173    0.3506013012976308 T T T Ag
   0.6610246023098584    0.7458757757500827    0.3517796510833215 T T T Ag
   0.6610246023098584    0.2458757757500827    0.4232082225118929 F F F Ag
   0.8389753976901417    0.3179249803697992    0.4129154789947906 F F F Ag
   0.8389753976901417    0.8179249803697992    0.3414869075662191 T T T Ag
   0.6610246023098584    0.4320750196302008    0.3251797591004475 T T T Ag
   0.6610246023098584    0.9320750196302008    0.3966083305290189 T T T Ag
   0.8389753976901417    0.5041242242499174    0.3148870155833451 T T T Ag
   0.8389753976901417    0.0041242242499174    0.3863155870119165 T T T Ag
   0.0000000000000000    0.4096882929315147    0.5426635772002598 F F F Al
   0.0000000000000000    0.9096882929315147    0.4712350057716884 F F F Al
   0.0000000000000000    0.0903117070684853    0.5168602323235497 F F F Al
   0.0000000000000000    0.5903117070684853    0.4454316608949783 F F F Al
   0.5000000000000000    0.6596882929315147    0.5069492914859741 F F F Al
   0.5000000000000000    0.1596882929315147    0.4355207200574026 F F F Al
   0.5000000000000000    0.8403117070684853    0.5525745180378354 F F F Al
   0.5000000000000000    0.3403117070684853    0.4811459466092640 F F F Al
   0.1610246023098583    0.9958757757500827    0.4589225082261786 F F F Ag
   0.1610246023098583    0.4958757757500827    0.5303510796547500 F F F Ag
   0.3389753976901417    0.0679249803697992    0.4486297647090763 F F F Ag
   0.3389753976901417    0.5679249803697992    0.5200583361376476 F F F Ag
   0.1610246023098583    0.1820750196302008    0.5037511876718761 F F F Ag
   0.1610246023098583    0.6820750196302008    0.4323226162433046 F F F Ag
   0.3389753976901417    0.7541242242499173    0.5648870155833451 F F F Ag
   0.3389753976901417    0.2541242242499173    0.4934584441547737 F F F Ag
   0.6610246023098584    0.7458757757500827    0.4946367939404643 F F F Ag
   0.6610246023098584    0.2458757757500827    0.5660653653690357 F F F Ag
   0.8389753976901417    0.3179249803697992    0.5557726218519334 F F F Ag
   0.8389753976901417    0.8179249803697992    0.4843440504233620 F F F Ag
   0.6610246023098584    0.4320750196302008    0.4680369019575903 F F F Ag
   0.6610246023098584    0.9320750196302008    0.5394654733861617 F F F Ag
   0.8389753976901417    0.5041242242499174    0.4577441584404880 F F F Ag
   0.8389753976901417    0.0041242242499174    0.5291727298690594 F F F Ag
   0.0000000000000000    0.4096882929315147    0.6855207200574026 T T T Al
   0.0000000000000000    0.9096882929315147    0.6140921486288312 T T T Al
   0.0000000000000000    0.0903117070684853    0.6597173751806925 T T T Al
   0.0000000000000000    0.5903117070684853    0.5882888037521211 F F F Al
   0.5000000000000000    0.6596882929315147    0.6498064343431169 T T T Al
   0.5000000000000000    0.1596882929315147    0.5783778629145455 F F F Al
   0.5000000000000000    0.8403117070684853    0.6954316608949782 T T T Al
   0.5000000000000000    0.3403117070684853    0.6240030894664068 T T T Al
   0.1610246023098583    0.9958757757500827    0.6017796510833215 T T T Ag
   0.1610246023098583    0.4958757757500827    0.6732082225118929 T T T Ag
   0.3389753976901417    0.0679249803697992    0.5914869075662191 F F F Ag
   0.3389753976901417    0.5679249803697992    0.6629154789947905 T T T Ag
   0.1610246023098583    0.1820750196302008    0.6466083305290189 T T T Ag
   0.1610246023098583    0.6820750196302008    0.5751797591004475 F F F Ag
   0.3389753976901417    0.7541242242499173    0.7077441584404880 T T T Ag
   0.3389753976901417    0.2541242242499173    0.6363155870119166 T T T Ag
   0.6610246023098584    0.7458757757500827    0.6374939367976072 T T T Ag
   0.6610246023098584    0.2458757757500827    0.7089225082261786 T T T Ag
   0.8389753976901417    0.3179249803697992    0.6986297647090762 T T T Ag
   0.8389753976901417    0.8179249803697992    0.6272011932805048 T T T Ag
   0.6610246023098584    0.4320750196302008    0.6108940448147332 T T T Ag
   0.6610246023098584    0.9320750196302008    0.6823226162433046 T T T Ag
   0.8389753976901417    0.5041242242499174    0.6006013012976308 T T T Ag
   0.8389753976901417    0.0041242242499174    0.6720298727262022 T T T Ag
