Ti5 Co15
1.0
   3.5715232021382501    0.0000000000000000   -3.5715232021382497
   0.0000000000000014    3.5715232021382510   -3.5715232021382501
   0.0000000000000000    0.0000000000000000   46.4298016277972607
Ti Co Ti Co Ti Co Ti Co Ti Co
1 3 1 3 1 3 1 3 1 3
Selective dynamics
direct
   0.0000000000000000    0.0000000000000000    0.3461538461538461 T T T Ti
   0.5000000000000000    0.0000000000000001    0.3461538461538461 T T T Co
   0.0000000000000000    0.5000000000000001    0.3461538461538461 T T T Co
   0.5000000000000000    0.5000000000000001    0.3461538461538461 T T T Co
   0.0000000000000000    0.0000000000000000    0.4230769230769230 T T T Ti
   0.5000000000000000    0.0000000000000001    0.4230769230769230 T T T Co
   0.0000000000000000    0.5000000000000001    0.4230769230769230 T T T Co
   0.5000000000000000    0.5000000000000001    0.4230769230769230 T T T Co
   0.0000000000000000    0.0000000000000000    0.4999999999999999 F F F Ti
   0.5000000000000000    0.0000000000000001    0.5000000000000000 F F F Co
   0.0000000000000000    0.5000000000000001    0.4999999999999999 F F F Co
   0.5000000000000000    0.5000000000000001    0.5000000000000000 F F F Co
   0.0000000000000000    0.0000000000000000    0.5769230769230769 T T T Ti
   0.5000000000000000    0.0000000000000001    0.5769230769230769 T T T Co
   0.0000000000000000    0.5000000000000001    0.5769230769230769 T T T Co
   0.5000000000000000    0.5000000000000001    0.5769230769230769 T T T Co
   0.0000000000000000    0.0000000000000000    0.6538461538461537 T T T Ti
   0.5000000000000000    0.0000000000000001    0.6538461538461537 T T T Co
   0.0000000000000000    0.5000000000000001    0.6538461538461537 T T T Co
   0.5000000000000000    0.5000000000000001    0.6538461538461537 T T T Co
