Zr24 Al18
1.0
   5.4032020645557433    0.0000000000000000    0.0000000000000003
   0.0000000000000015    9.4267756077582288  -10.8851028694588248
   0.0000000000000000    0.0000000000000000   43.5404114778352991
Zr Al Zr Al Zr Al
8 6 8 6 8 6
Selective dynamics
direct
   0.7408604559022294    0.5000000000000000    0.3616071428571428 T T T Zr
   0.7408604559022294    0.0000000000000000    0.4241071428571428 T T T Zr
   0.2591395440977705    0.5000000000000000    0.3616071428571428 T T T Zr
   0.2591395440977705    0.0000000000000000    0.4241071428571428 T T T Zr
   0.5000000000000000    0.3333333333333333    0.3824404761904762 T T T Zr
   0.5000000000000000    0.8333333333333333    0.3199404761904762 T T T Zr
   0.5000000000000000    0.1666666666666666    0.4032738095238095 T T T Zr
   0.5000000000000000    0.6666666666666666    0.3407738095238095 T T T Zr
   0.0000000000000000    0.2500000000000000    0.3928571428571428 T T T Al
   0.0000000000000000    0.7500000000000000    0.3303571428571428 T T T Al
   0.0000000000000000    0.2500000000000000    0.3303571428571428 T T T Al
   0.0000000000000000    0.7500000000000000    0.3928571428571428 T T T Al
   0.0000000000000000    0.5000000000000000    0.4241071428571429 T T T Al
   0.0000000000000000    0.0000000000000000    0.3616071428571428 T T T Al
   0.7408604559022294    0.5000000000000000    0.4866071428571429 F F F Zr
   0.7408604559022294    0.0000000000000000    0.5491071428571428 F F F Zr
   0.2591395440977705    0.5000000000000000    0.4866071428571429 F F F Zr
   0.2591395440977705    0.0000000000000000    0.5491071428571428 F F F Zr
   0.5000000000000000    0.3333333333333333    0.5074404761904763 F F F Zr
   0.5000000000000000    0.8333333333333333    0.4449404761904762 F F F Zr
   0.5000000000000000    0.1666666666666666    0.5282738095238095 F F F Zr
   0.5000000000000000    0.6666666666666666    0.4657738095238095 F F F Zr
   0.0000000000000000    0.2500000000000000    0.5178571428571428 F F F Al
   0.0000000000000000    0.7500000000000000    0.4553571428571429 F F F Al
   0.0000000000000000    0.2500000000000000    0.4553571428571429 F F F Al
   0.0000000000000000    0.7500000000000000    0.5178571428571428 F F F Al
   0.0000000000000000    0.5000000000000000    0.5491071428571429 F F F Al
   0.0000000000000000    0.0000000000000000    0.4866071428571429 F F F Al
   0.7408604559022294    0.5000000000000000    0.6116071428571428 T T T Zr
   0.7408604559022294    0.0000000000000000    0.6741071428571428 T T T Zr
   0.2591395440977705    0.5000000000000000    0.6116071428571428 T T T Zr
   0.2591395440977705    0.0000000000000000    0.6741071428571428 T T T Zr
   0.5000000000000000    0.3333333333333333    0.6324404761904763 T T T Zr
   0.5000000000000000    0.8333333333333333    0.5699404761904763 T T T Zr
   0.5000000000000000    0.1666666666666666    0.6532738095238095 T T T Zr
   0.5000000000000000    0.6666666666666666    0.5907738095238095 T T T Zr
   0.0000000000000000    0.2500000000000000    0.6428571428571428 T T T Al
   0.0000000000000000    0.7500000000000000    0.5803571428571428 T T T Al
   0.0000000000000000    0.2500000000000000    0.5803571428571428 T T T Al
   0.0000000000000000    0.7500000000000000    0.6428571428571428 T T T Al
   0.0000000000000000    0.5000000000000000    0.6741071428571429 T T T Al
   0.0000000000000000    0.0000000000000000    0.6116071428571428 T T T Al
