Zr24 Al18
1.0
   5.4425514347294124    0.0000000000000000    0.0000000000000003
   5.4425514347294106    9.4267756077582323    5.4032020645557415
   0.0000000000000000    0.0000000000000000   37.8224144518902037
Zr Al Zr Al Zr Al
8 6 8 6 8 6
Selective dynamics
direct
   0.0000000000000000    0.5000000000000000    0.3890607511976407 T T T Zr
   0.0000000000000000    0.0000000000000000    0.3176321797690693 T T T Zr
   0.0000000000000000    0.5000000000000000    0.3150208814554205 T T T Zr
   0.0000000000000000    0.0000000000000000    0.3864494528839919 T T T Zr
   0.3333333333333333    0.1666666666666667    0.3282312925170068 T T T Zr
   0.3333333333333333    0.6666666666666667    0.3996598639455782 F F F Zr
   0.6666666666666667    0.3333333333333333    0.3044217687074830 T T T Zr
   0.6666666666666667    0.8333333333333333    0.3758503401360544 T T T Zr
   0.5000000000000000    0.2500000000000000    0.3877551020408163 T T T Al
   0.5000000000000000    0.7500000000000000    0.3163265306122449 T T T Al
   0.4999999999999999    0.5000000000000000    0.3520408163265306 T T T Al
   0.5000000000000000    0.0000000000000000    0.4234693877551020 F F F Al
   0.0000000000000000    0.2500000000000000    0.3877551020408163 T T T Al
   0.0000000000000000    0.7500000000000000    0.3163265306122449 T T T Al
   0.0000000000000000    0.5000000000000000    0.5319178940547835 F F F Zr
   0.0000000000000000    0.0000000000000000    0.4604893226262121 F F F Zr
   0.0000000000000000    0.5000000000000000    0.4578780243125633 F F F Zr
   0.0000000000000000    0.0000000000000000    0.5293065957411348 F F F Zr
   0.3333333333333333    0.1666666666666667    0.4710884353741496 F F F Zr
   0.3333333333333333    0.6666666666666667    0.5425170068027211 F F F Zr
   0.6666666666666667    0.3333333333333333    0.4472789115646258 F F F Zr
   0.6666666666666667    0.8333333333333333    0.5187074829931972 F F F Zr
   0.5000000000000000    0.2500000000000000    0.5306122448979591 F F F Al
   0.5000000000000000    0.7500000000000000    0.4591836734693877 F F F Al
   0.4999999999999999    0.5000000000000000    0.4948979591836734 F F F Al
   0.5000000000000000    0.0000000000000000    0.5663265306122449 F F F Al
   0.0000000000000000    0.2500000000000000    0.5306122448979591 F F F Al
   0.0000000000000000    0.7500000000000000    0.4591836734693877 F F F Al
   0.0000000000000000    0.5000000000000000    0.6747750369119263 T T T Zr
   0.0000000000000000    0.0000000000000000    0.6033464654833549 F F F Zr
   0.0000000000000000    0.5000000000000000    0.6007351671697062 F F F Zr
   0.0000000000000000    0.0000000000000000    0.6721637385982776 T T T Zr
   0.3333333333333333    0.1666666666666667    0.6139455782312925 F F F Zr
   0.3333333333333333    0.6666666666666667    0.6853741496598639 T T T Zr
   0.6666666666666667    0.3333333333333333    0.5901360544217686 F F F Zr
   0.6666666666666667    0.8333333333333333    0.6615646258503400 T T T Zr
   0.5000000000000000    0.2500000000000000    0.6734693877551020 T T T Al
   0.5000000000000000    0.7500000000000000    0.6020408163265305 F F F Al
   0.4999999999999999    0.5000000000000000    0.6377551020408163 T T T Al
   0.5000000000000000    0.0000000000000000    0.7091836734693877 T T T Al
   0.0000000000000000    0.2500000000000000    0.6734693877551020 T T T Al
   0.0000000000000000    0.7500000000000000    0.6020408163265305 F F F Al
