As24 Os12
1.0
   6.2530243125130323    0.0000000000000000    0.0000000000000004
  -0.0000000000000004    6.1060877771192059    5.4759959493052914
   0.0000000000000000    0.0000000000000000   38.3319716451370525
As Os As Os As Os
8 4 8 4 8 4
Selective dynamics
direct
   0.1349527854223500    0.2500000000000000    0.3399085964255161 T T T As
   0.1349527854223500    0.7500000000000000    0.4113371678540875 F F F As
   0.8650472145776501    0.2500000000000000    0.2910437845268649 T T T As
   0.8650472145776501    0.7499999999999999    0.3624723559554363 T T T As
   0.6349527854223500    0.0000000000000000    0.3981866416697220 F F F As
   0.6349527854223500    0.4999999999999999    0.3267580702411506 T T T As
   0.3650472145776501    0.0000000000000000    0.3041943107112303 T T T As
   0.3650472145776501    0.5000000000000000    0.3756228821398018 T T T As
   0.5000000000000000    0.2500000000000000    0.3154761904761905 T T T Os
   0.5000000000000000    0.7500000000000000    0.3869047619047619 T T T Os
   0.0000000000000000    0.0000000000000000    0.4226190476190476 F F F Os
   0.0000000000000000    0.5000000000000000    0.3511904761904762 T T T Os
   0.1349527854223500    0.2500000000000000    0.4827657392826589 F F F As
   0.1349527854223500    0.7500000000000000    0.5541943107112304 F F F As
   0.8650472145776501    0.2500000000000000    0.4339009273840078 F F F As
   0.8650472145776501    0.7499999999999999    0.5053294988125792 F F F As
   0.6349527854223500    0.0000000000000000    0.5410437845268649 F F F As
   0.6349527854223500    0.4999999999999999    0.4696152130982935 F F F As
   0.3650472145776501    0.0000000000000000    0.4470514535683732 F F F As
   0.3650472145776501    0.5000000000000000    0.5184800249969446 F F F As
   0.5000000000000000    0.2500000000000000    0.4583333333333333 F F F Os
   0.5000000000000000    0.7500000000000000    0.5297619047619048 F F F Os
   0.0000000000000000    0.0000000000000000    0.5654761904761905 F F F Os
   0.0000000000000000    0.5000000000000000    0.4940476190476190 F F F Os
   0.1349527854223500    0.2500000000000000    0.6256228821398018 T T T As
   0.1349527854223500    0.7500000000000000    0.6970514535683732 T T T As
   0.8650472145776501    0.2500000000000000    0.5767580702411506 F F F As
   0.8650472145776501    0.7499999999999999    0.6481866416697220 T T T As
   0.6349527854223500    0.0000000000000000    0.6839009273840078 T T T As
   0.6349527854223500    0.4999999999999999    0.6124723559554363 T T T As
   0.3650472145776501    0.0000000000000000    0.5899085964255160 F F F As
   0.3650472145776501    0.5000000000000000    0.6613371678540875 T T T As
   0.5000000000000000    0.2500000000000000    0.6011904761904762 F F F Os
   0.5000000000000000    0.7500000000000000    0.6726190476190476 T T T Os
   0.0000000000000000    0.0000000000000000    0.7083333333333333 T T T Os
   0.0000000000000000    0.5000000000000000    0.6369047619047619 T T T Os
