V6 Ru18
1.0
   4.7169058125195313    0.0000000000000000   -2.7233068406002632
   0.0000000000000007    4.2642769062670007    0.0000000000000003
   0.0000000000000000    0.0000000000000000   38.1262957684036721
V Ru V Ru V Ru
2 6 2 6 2 6
Selective dynamics
direct
   0.3333333333333333    0.2500000000000000    0.3452380952380952 T T T V
   0.6666666666666667    0.7500000000000001    0.2976190476190477 T T T V
   0.1691397174131914    0.7500000000000001    0.2983256335466262 T T T Ru
   0.1691397174131915    0.7500000000000001    0.3686943260838298 T T T Ru
   0.6617205651736171    0.7500000000000001    0.3686943260838298 T T T Ru
   0.8308602825868086    0.2500000000000000    0.3445315093105167 T T T Ru
   0.8308602825868086    0.2500000000000000    0.4170199596304559 F F F Ru
   0.3382794348263829    0.2500000000000000    0.4170199596304559 F F F Ru
   0.3333333333333333    0.2500000000000000    0.4880952380952381 F F F V
   0.6666666666666667    0.7500000000000001    0.4404761904761905 F F F V
   0.1691397174131914    0.7500000000000001    0.4411827764037690 F F F Ru
   0.1691397174131915    0.7500000000000001    0.5115514689409726 F F F Ru
   0.6617205651736171    0.7500000000000001    0.5115514689409726 F F F Ru
   0.8308602825868086    0.2500000000000000    0.4873886521676596 F F F Ru
   0.8308602825868086    0.2500000000000000    0.5598771024875988 F F F Ru
   0.3382794348263829    0.2500000000000000    0.5598771024875988 F F F Ru
   0.3333333333333333    0.2500000000000000    0.6309523809523809 T T T V
   0.6666666666666667    0.7500000000000001    0.5833333333333334 F F F V
   0.1691397174131914    0.7500000000000001    0.5840399192609118 F F F Ru
   0.1691397174131915    0.7500000000000001    0.6544086117981155 T T T Ru
   0.6617205651736171    0.7500000000000001    0.6544086117981155 T T T Ru
   0.8308602825868086    0.2500000000000000    0.6302457950248024 T T T Ru
   0.8308602825868086    0.2500000000000000    0.7027342453447416 T T T Ru
   0.3382794348263829    0.2500000000000000    0.7027342453447416 T T T Ru
