Y4 Cd12
1.0
   6.7578108779040891    0.0000000000000000    0.0000000000000004
   0.0000000000000008    4.9772186731041534    0.0000000000000003
   0.0000000000000000    0.0000000000000000   34.0576172864250850
Y Cd
4 12
Selective dynamics
direct
   0.5000000000000000    0.2500000000000001    0.6140360710018508 T T T Y
   0.5000000000000000    0.7500000000000000    0.3859639289981492 T T T Y
   0.0000000000000000    0.2500000000000000    0.4473694043351841 T T T Y
   0.0000000000000000    0.7500000000000000    0.5526305956648159 T T T Y
   0.7664206011012810    0.7500000000000000    0.6385841645746002 T T T Cd
   0.2335793988987190    0.2500000000000000    0.3614158354253997 T T T Cd
   0.7664206011012810    0.2500000000000001    0.3614158354253997 T T T Cd
   0.2335793988987190    0.7500000000000000    0.6385841645746002 T T T Cd
   0.5000000000000000    0.2500000000000000    0.4443008837133935 T T T Cd
   0.5000000000000001    0.7500000000000000    0.5556991162866064 T T T Cd
   0.2664206011012810    0.7500000000000000    0.4719174979079336 F F F Cd
   0.7335793988987191    0.2500000000000001    0.5280825020920663 F F F Cd
   0.2664206011012810    0.2500000000000000    0.5280825020920663 F F F Cd
   0.7335793988987191    0.7500000000000000    0.4719174979079336 F F F Cd
   0.0000000000000000    0.2500000000000000    0.6109675503800602 T T T Cd
   0.0000000000000000    0.7500000000000000    0.3890324496199398 T T T Cd
