Y12 Cd36
1.0
   6.7578108779040891    0.0000000000000000    0.0000000000000004
  -0.0000000000000032   11.3525390954750289    4.9772186731041517
   0.0000000000000000    0.0000000000000000   34.8405307117290732
Y Cd Y Cd Y Cd
4 12 4 12 4 12
Selective dynamics
direct
   0.5000000000000000    0.1578917869944476    0.4238726018579361 F F F Y
   0.5000000000000000    0.8421082130055524    0.3975559695706354 F F F Y
   0.0000000000000000    0.6578917869944476    0.3524440304293647 T T T Y
   0.0000000000000000    0.3421082130055524    0.3261273981420640 T T T Y
   0.7664206011012810    0.0842475062761991    0.3629646419605430 T T T Cd
   0.2335793988987190    0.9157524937238009    0.3156067866108856 T T T Cd
   0.7664206011012810    0.9157524937238009    0.3156067866108856 T T T Cd
   0.2335793988987190    0.0842475062761991    0.3629646419605430 T T T Cd
   0.5000000000000000    0.6670973488598193    0.3511289501628830 T T T Cd
   0.5000000000000001    0.3329026511401807    0.3274424784085456 T T T Cd
   0.2664206011012810    0.5842475062761991    0.2915360705319716 T T T Cd
   0.7335793988987191    0.4157524937238009    0.3870353580394570 F F F Cd
   0.2664206011012810    0.4157524937238009    0.3870353580394570 F F F Cd
   0.7335793988987191    0.5842475062761991    0.2915360705319716 T T T Cd
   0.0000000000000000    0.1670973488598193    0.4225575215914544 F F F Cd
   0.0000000000000000    0.8329026511401807    0.3988710498371171 F F F Cd
   0.5000000000000000    0.1578917869944476    0.5667297447150790 F F F Y
   0.5000000000000000    0.8421082130055524    0.5404131124277782 F F F Y
   0.0000000000000000    0.6578917869944476    0.4953011732865075 F F F Y
   0.0000000000000000    0.3421082130055524    0.4689845409992068 F F F Y
   0.7664206011012810    0.0842475062761991    0.5058217848176858 F F F Cd
   0.2335793988987190    0.9157524937238009    0.4584639294680285 F F F Cd
   0.7664206011012810    0.9157524937238009    0.4584639294680285 F F F Cd
   0.2335793988987190    0.0842475062761991    0.5058217848176858 F F F Cd
   0.5000000000000000    0.6670973488598193    0.4939860930200259 F F F Cd
   0.5000000000000001    0.3329026511401807    0.4702996212656885 F F F Cd
   0.2664206011012810    0.5842475062761991    0.4343932133891144 F F F Cd
   0.7335793988987191    0.4157524937238009    0.5298925008965999 F F F Cd
   0.2664206011012810    0.4157524937238009    0.5298925008965999 F F F Cd
   0.7335793988987191    0.5842475062761991    0.4343932133891144 F F F Cd
   0.0000000000000000    0.1670973488598193    0.5654146644485972 F F F Cd
   0.0000000000000000    0.8329026511401807    0.5417281926942599 F F F Cd
   0.5000000000000000    0.1578917869944476    0.7095868875722218 T T T Y
   0.5000000000000000    0.8421082130055524    0.6832702552849211 T T T Y
   0.0000000000000000    0.6578917869944476    0.6381583161436504 T T T Y
   0.0000000000000000    0.3421082130055524    0.6118416838563496 F F F Y
   0.7664206011012810    0.0842475062761991    0.6486789276748287 T T T Cd
   0.2335793988987190    0.9157524937238009    0.6013210723251714 F F F Cd
   0.7664206011012810    0.9157524937238009    0.6013210723251714 F F F Cd
   0.2335793988987190    0.0842475062761991    0.6486789276748287 T T T Cd
   0.5000000000000000    0.6670973488598193    0.6368432358771687 T T T Cd
   0.5000000000000001    0.3329026511401807    0.6131567641228313 F F F Cd
   0.2664206011012810    0.5842475062761991    0.5772503562462573 F F F Cd
   0.7335793988987191    0.4157524937238009    0.6727496437537428 T T T Cd
   0.2664206011012810    0.4157524937238009    0.6727496437537428 T T T Cd
   0.7335793988987191    0.5842475062761991    0.5772503562462572 F F F Cd
   0.0000000000000000    0.1670973488598193    0.7082718073057401 T T T Cd
   0.0000000000000000    0.8329026511401807    0.6845853355514028 T T T Cd
