Ti72 Te108
1.0
   5.8615110985269370    0.0000000000000000  -10.1524350317775305
  -0.0000000000000023   38.1271091908199793   -6.7682900211850141
   0.0000000000000000    0.0000000000000000   54.1463201694801484
Ti Te Ti Te Ti Te
24 36 24 36 24 36
Selective dynamics
direct
   0.6666666666666666    0.0833333333333334    0.4052083333333333 T T T Ti
   0.6666666666666666    0.5833333333333334    0.3427083333333333 T T T Ti
   0.0000000000000000    0.0799944610782764    0.4047909743014512 T T T Ti
   0.0000000000000000    0.5799944610782765    0.3422909743014512 T T T Ti
   0.3333333333333333    0.0866722055883903    0.4056256923652155 T T T Ti
   0.3333333333333333    0.5866722055883903    0.3431256923652155 T T T Ti
   0.0000000000000000    0.0000000000000000    0.3947916666666667 T T T Ti
   0.0000000000000000    0.5000000000000000    0.3322916666666667 T T T Ti
   0.0000000000000000    0.2500000000000000    0.4260416666666667 F F F Ti
   0.0000000000000000    0.7500000000000000    0.3635416666666667 T T T Ti
   0.3333333333333333    0.2466611277449431    0.4256243076347845 T T T Ti
   0.3333333333333333    0.7466611277449432    0.3631243076347845 T T T Ti
   0.6666666666666666    0.2533388722550569    0.4264590256985488 F F F Ti
   0.6666666666666666    0.7533388722550569    0.3639590256985488 T T T Ti
   0.3333333333333333    0.1666666666666667    0.4156250000000000 T T T Ti
   0.3333333333333333    0.6666666666666667    0.3531250000000000 T T T Ti
   0.3333333333333333    0.4166666666666666    0.3218750000000000 T T T Ti
   0.3333333333333333    0.9166666666666666    0.3843750000000000 T T T Ti
   0.6666666666666666    0.4133277944116098    0.3214576409681179 T T T Ti
   0.6666666666666666    0.9133277944116098    0.3839576409681179 T T T Ti
   0.0000000000000000    0.4200055389217235    0.3222923590318821 T T T Ti
   0.0000000000000000    0.9200055389217235    0.3847923590318821 T T T Ti
   0.6666666666666666    0.3333333333333334    0.4364583333333333 F F F Ti
   0.6666666666666666    0.8333333333333334    0.3739583333333333 T T T Ti
   0.3309931886383927    0.1270084779007507    0.3283250019569806 T T T Te
   0.3309931886383927    0.6270084779007508    0.3908250019569806 T T T Te
   0.9897349842166321    0.1270084779007507    0.3244756210382176 T T T Te
   0.9897349842166321    0.6270084779007508    0.3869756210382176 T T T Te
   0.6792718271449752    0.1270084779007507    0.3292025562175833 T T T Te
   0.6792718271449752    0.6270084779007508    0.3917025562175833 T T T Te
   0.6540615061883582    0.0396581887659160    0.3562141104490834 T T T Te
   0.6540615061883582    0.5396581887659160    0.4187141104490834 T T T Te
   0.3435983491167012    0.0396581887659160    0.3609410456284491 T T T Te
   0.3435983491167012    0.5396581887659160    0.4234410456284491 T T T Te
   0.0023401446949406    0.0396581887659160    0.3570916647096861 T T T Te
   0.0023401446949406    0.5396581887659160    0.4195916647096861 T T T Te
   0.6643265219717260    0.2936751445674174    0.3491583352903139 T T T Te
   0.6643265219717260    0.7936751445674174    0.4116583352903139 T T T Te
   0.3230683175499653    0.2936751445674174    0.3453089543715510 T T T Te
   0.3230683175499653    0.7936751445674174    0.4078089543715510 T T T Te
   0.0126051604783086    0.2936751445674173    0.3500358895509167 T T T Te
   0.0126051604783086    0.7936751445674174    0.4125358895509167 T T T Te
   0.9873948395216914    0.2063248554325827    0.3770474437824167 T T T Te
   0.9873948395216914    0.7063248554325826    0.3145474437824166 T T T Te
   0.6769316824500345    0.2063248554325827    0.3817743789617824 T T T Te
   0.6769316824500345    0.7063248554325826    0.3192743789617824 T T T Te
   0.3356734780282740    0.2063248554325827    0.3779249980430194 T T T Te
   0.3356734780282740    0.7063248554325826    0.3154249980430194 T T T Te
   0.9976598553050593    0.4603418112340841    0.3699916686236472 T T T Te
   0.9976598553050593    0.9603418112340841    0.4324916686236473 F F F Te
   0.6564016508832986    0.4603418112340841    0.3661422877048843 T T T Te
   0.6564016508832986    0.9603418112340841    0.4286422877048843 F F F Te
   0.3459384938116419    0.4603418112340841    0.3708692228842500 T T T Te
   0.3459384938116419    0.9603418112340841    0.4333692228842500 F F F Te
   0.3207281728550249    0.3729915220992493    0.3978807771157500 T T T Te
   0.3207281728550249    0.8729915220992494    0.3353807771157500 T T T Te
   0.0102650157833679    0.3729915220992493    0.4026077122951157 T T T Te
   0.0102650157833679    0.8729915220992494    0.3401077122951157 T T T Te
   0.6690068113616072    0.3729915220992493    0.3987583313763527 T T T Te
   0.6690068113616072    0.8729915220992494    0.3362583313763527 T T T Te
   0.6666666666666666    0.0833333333333334    0.5302083333333334 F F F Ti
   0.6666666666666666    0.5833333333333334    0.4677083333333333 F F F Ti
   0.0000000000000000    0.0799944610782764    0.5297909743014513 F F F Ti
   0.0000000000000000    0.5799944610782765    0.4672909743014512 F F F Ti
   0.3333333333333333    0.0866722055883903    0.5306256923652155 F F F Ti
   0.3333333333333333    0.5866722055883903    0.4681256923652155 F F F Ti
   0.0000000000000000    0.0000000000000000    0.5197916666666667 F F F Ti
   0.0000000000000000    0.5000000000000000    0.4572916666666667 F F F Ti
   0.0000000000000000    0.2500000000000000    0.5510416666666667 F F F Ti
   0.0000000000000000    0.7500000000000000    0.4885416666666667 F F F Ti
   0.3333333333333333    0.2466611277449431    0.5506243076347845 F F F Ti
   0.3333333333333333    0.7466611277449432    0.4881243076347845 F F F Ti
   0.6666666666666666    0.2533388722550569    0.5514590256985488 F F F Ti
   0.6666666666666666    0.7533388722550569    0.4889590256985488 F F F Ti
   0.3333333333333333    0.1666666666666667    0.5406250000000000 F F F Ti
   0.3333333333333333    0.6666666666666667    0.4781250000000000 F F F Ti
   0.3333333333333333    0.4166666666666666    0.4468750000000000 F F F Ti
   0.3333333333333333    0.9166666666666666    0.5093750000000000 F F F Ti
   0.6666666666666666    0.4133277944116098    0.4464576409681179 F F F Ti
   0.6666666666666666    0.9133277944116098    0.5089576409681179 F F F Ti
   0.0000000000000000    0.4200055389217235    0.4472923590318821 F F F Ti
   0.0000000000000000    0.9200055389217235    0.5097923590318821 F F F Ti
   0.6666666666666666    0.3333333333333334    0.5614583333333334 F F F Ti
   0.6666666666666666    0.8333333333333334    0.4989583333333333 F F F Ti
   0.3309931886383927    0.1270084779007507    0.4533250019569806 F F F Te
   0.3309931886383927    0.6270084779007508    0.5158250019569806 F F F Te
   0.9897349842166321    0.1270084779007507    0.4494756210382176 F F F Te
   0.9897349842166321    0.6270084779007508    0.5119756210382176 F F F Te
   0.6792718271449752    0.1270084779007507    0.4542025562175833 F F F Te
   0.6792718271449752    0.6270084779007508    0.5167025562175833 F F F Te
   0.6540615061883582    0.0396581887659160    0.4812141104490834 F F F Te
   0.6540615061883582    0.5396581887659160    0.5437141104490834 F F F Te
   0.3435983491167012    0.0396581887659160    0.4859410456284491 F F F Te
   0.3435983491167012    0.5396581887659160    0.5484410456284491 F F F Te
   0.0023401446949406    0.0396581887659160    0.4820916647096861 F F F Te
   0.0023401446949406    0.5396581887659160    0.5445916647096861 F F F Te
   0.6643265219717260    0.2936751445674174    0.4741583352903139 F F F Te
   0.6643265219717260    0.7936751445674174    0.5366583352903139 F F F Te
   0.3230683175499653    0.2936751445674174    0.4703089543715510 F F F Te
   0.3230683175499653    0.7936751445674174    0.5328089543715510 F F F Te
   0.0126051604783086    0.2936751445674173    0.4750358895509167 F F F Te
   0.0126051604783086    0.7936751445674174    0.5375358895509167 F F F Te
   0.9873948395216914    0.2063248554325827    0.5020474437824167 F F F Te
   0.9873948395216914    0.7063248554325826    0.4395474437824166 F F F Te
   0.6769316824500345    0.2063248554325827    0.5067743789617825 F F F Te
   0.6769316824500345    0.7063248554325826    0.4442743789617824 F F F Te
   0.3356734780282740    0.2063248554325827    0.5029249980430195 F F F Te
   0.3356734780282740    0.7063248554325826    0.4404249980430194 F F F Te
   0.9976598553050593    0.4603418112340841    0.4949916686236472 F F F Te
   0.9976598553050593    0.9603418112340841    0.5574916686236473 F F F Te
   0.6564016508832986    0.4603418112340841    0.4911422877048843 F F F Te
   0.6564016508832986    0.9603418112340841    0.5536422877048843 F F F Te
   0.3459384938116419    0.4603418112340841    0.4958692228842500 F F F Te
   0.3459384938116419    0.9603418112340841    0.5583692228842501 F F F Te
   0.3207281728550249    0.3729915220992493    0.5228807771157500 F F F Te
   0.3207281728550249    0.8729915220992494    0.4603807771157500 F F F Te
   0.0102650157833679    0.3729915220992493    0.5276077122951157 F F F Te
   0.0102650157833679    0.8729915220992494    0.4651077122951157 F F F Te
   0.6690068113616072    0.3729915220992493    0.5237583313763527 F F F Te
   0.6690068113616072    0.8729915220992494    0.4612583313763527 F F F Te
   0.6666666666666666    0.0833333333333334    0.6552083333333334 T T T Ti
   0.6666666666666666    0.5833333333333334    0.5927083333333334 T T T Ti
   0.0000000000000000    0.0799944610782764    0.6547909743014513 T T T Ti
   0.0000000000000000    0.5799944610782765    0.5922909743014513 T T T Ti
   0.3333333333333333    0.0866722055883903    0.6556256923652155 T T T Ti
   0.3333333333333333    0.5866722055883903    0.5931256923652155 T T T Ti
   0.0000000000000000    0.0000000000000000    0.6447916666666667 T T T Ti
   0.0000000000000000    0.5000000000000000    0.5822916666666667 T T T Ti
   0.0000000000000000    0.2500000000000000    0.6760416666666667 T T T Ti
   0.0000000000000000    0.7500000000000000    0.6135416666666667 T T T Ti
   0.3333333333333333    0.2466611277449431    0.6756243076347845 T T T Ti
   0.3333333333333333    0.7466611277449432    0.6131243076347845 T T T Ti
   0.6666666666666666    0.2533388722550569    0.6764590256985488 T T T Ti
   0.6666666666666666    0.7533388722550569    0.6139590256985488 T T T Ti
   0.3333333333333333    0.1666666666666667    0.6656249999999999 T T T Ti
   0.3333333333333333    0.6666666666666667    0.6031249999999999 T T T Ti
   0.3333333333333333    0.4166666666666666    0.5718749999999999 F F F Ti
   0.3333333333333333    0.9166666666666666    0.6343749999999999 T T T Ti
   0.6666666666666666    0.4133277944116098    0.5714576409681178 F F F Ti
   0.6666666666666666    0.9133277944116098    0.6339576409681179 T T T Ti
   0.0000000000000000    0.4200055389217235    0.5722923590318821 F F F Ti
   0.0000000000000000    0.9200055389217235    0.6347923590318821 T T T Ti
   0.6666666666666666    0.3333333333333334    0.6864583333333334 T T T Ti
   0.6666666666666666    0.8333333333333334    0.6239583333333334 T T T Ti
   0.3309931886383927    0.1270084779007507    0.5783250019569806 T T T Te
   0.3309931886383927    0.6270084779007508    0.6408250019569806 T T T Te
   0.9897349842166321    0.1270084779007507    0.5744756210382176 F F F Te
   0.9897349842166321    0.6270084779007508    0.6369756210382176 T T T Te
   0.6792718271449752    0.1270084779007507    0.5792025562175833 T T T Te
   0.6792718271449752    0.6270084779007508    0.6417025562175833 T T T Te
   0.6540615061883582    0.0396581887659160    0.6062141104490835 T T T Te
   0.6540615061883582    0.5396581887659160    0.6687141104490835 T T T Te
   0.3435983491167012    0.0396581887659160    0.6109410456284491 T T T Te
   0.3435983491167012    0.5396581887659160    0.6734410456284490 T T T Te
   0.0023401446949406    0.0396581887659160    0.6070916647096861 T T T Te
   0.0023401446949406    0.5396581887659160    0.6695916647096860 T T T Te
   0.6643265219717260    0.2936751445674174    0.5991583352903138 T T T Te
   0.6643265219717260    0.7936751445674174    0.6616583352903138 T T T Te
   0.3230683175499653    0.2936751445674174    0.5953089543715508 T T T Te
   0.3230683175499653    0.7936751445674174    0.6578089543715508 T T T Te
   0.0126051604783086    0.2936751445674173    0.6000358895509167 T T T Te
   0.0126051604783086    0.7936751445674174    0.6625358895509167 T T T Te
   0.9873948395216914    0.2063248554325827    0.6270474437824167 T T T Te
   0.9873948395216914    0.7063248554325826    0.5645474437824167 F F F Te
   0.6769316824500345    0.2063248554325827    0.6317743789617825 T T T Te
   0.6769316824500345    0.7063248554325826    0.5692743789617825 F F F Te
   0.3356734780282740    0.2063248554325827    0.6279249980430195 T T T Te
   0.3356734780282740    0.7063248554325826    0.5654249980430195 F F F Te
   0.9976598553050593    0.4603418112340841    0.6199916686236473 T T T Te
   0.9976598553050593    0.9603418112340841    0.6824916686236473 T T T Te
   0.6564016508832986    0.4603418112340841    0.6161422877048843 T T T Te
   0.6564016508832986    0.9603418112340841    0.6786422877048843 T T T Te
   0.3459384938116419    0.4603418112340841    0.6208692228842501 T T T Te
   0.3459384938116419    0.9603418112340841    0.6833692228842501 T T T Te
   0.3207281728550249    0.3729915220992493    0.6478807771157500 T T T Te
   0.3207281728550249    0.8729915220992494    0.5853807771157500 T T T Te
   0.0102650157833679    0.3729915220992493    0.6526077122951157 T T T Te
   0.0102650157833679    0.8729915220992494    0.5901077122951157 T T T Te
   0.6690068113616072    0.3729915220992493    0.6487583313763527 T T T Te
   0.6690068113616072    0.8729915220992494    0.5862583313763527 T T T Te
