Nb8 Ni24
1.0
   4.5547787599848277    0.0000000000000000   -4.2538638852763659
   0.0000000000000020    5.1147380297817842   -4.2538638852763651
   0.0000000000000000    0.0000000000000000   42.5386388527636683
Nb Ni Nb Ni Nb Ni Nb Ni
2 6 2 6 2 6 2 6
Selective dynamics
direct
   0.3490196649906296    0.5000000000000000    0.3849019664990629 T T T Nb
   0.6509803350093704    0.0000000000000001    0.3150980335009370 T T T Nb
   0.3185437715613066    0.0000000000000000    0.3318543771561306 T T T Ni
   0.6814562284386932    0.5000000000000001    0.3681456228438693 T T T Ni
   0.1592307155165684    0.2494723995180674    0.3908703115034636 T T T Ni
   0.8407692844834316    0.2505276004819327    0.3091296884965364 T T T Ni
   0.8407692844834316    0.7494723995180674    0.3590241684001499 T T T Ni
   0.1592307155165684    0.7505276004819328    0.3409758315998501 T T T Ni
   0.3490196649906296    0.5000000000000000    0.4849019664990630 F F F Nb
   0.6509803350093704    0.0000000000000001    0.4150980335009370 T T T Nb
   0.3185437715613066    0.0000000000000000    0.4318543771561307 F F F Ni
   0.6814562284386932    0.5000000000000001    0.4681456228438693 F F F Ni
   0.1592307155165684    0.2494723995180674    0.4908703115034636 F F F Ni
   0.8407692844834316    0.2505276004819327    0.4091296884965364 T T T Ni
   0.8407692844834316    0.7494723995180674    0.4590241684001499 F F F Ni
   0.1592307155165684    0.7505276004819328    0.4409758315998501 F F F Ni
   0.3490196649906296    0.5000000000000000    0.5849019664990629 T T T Nb
   0.6509803350093704    0.0000000000000001    0.5150980335009370 F F F Nb
   0.3185437715613066    0.0000000000000000    0.5318543771561306 F F F Ni
   0.6814562284386932    0.5000000000000001    0.5681456228438693 F F F Ni
   0.1592307155165684    0.2494723995180674    0.5908703115034636 T T T Ni
   0.8407692844834316    0.2505276004819327    0.5091296884965364 F F F Ni
   0.8407692844834316    0.7494723995180674    0.5590241684001499 F F F Ni
   0.1592307155165684    0.7505276004819328    0.5409758315998501 F F F Ni
   0.3490196649906296    0.5000000000000000    0.6849019664990630 T T T Nb
   0.6509803350093704    0.0000000000000001    0.6150980335009371 T T T Nb
   0.3185437715613066    0.0000000000000000    0.6318543771561307 T T T Ni
   0.6814562284386932    0.5000000000000001    0.6681456228438694 T T T Ni
   0.1592307155165684    0.2494723995180674    0.6908703115034636 T T T Ni
   0.8407692844834316    0.2505276004819327    0.6091296884965365 T T T Ni
   0.8407692844834316    0.7494723995180674    0.6590241684001499 T T T Ni
   0.1592307155165684    0.7505276004819328    0.6409758315998502 T T T Ni
