Y16 Cu32
1.0
   4.3213016039846899    0.0000000000000000    0.0000000000000003
   0.0000000000000024   14.6263551091122590   -6.8738438934448984
   0.0000000000000000    0.0000000000000000   34.3692194672244966
Y Cu Y Cu
8 16 8 16
Selective dynamics
direct
   0.5000000000000000    0.4779372430460818    0.4289207819425497 F F F Y
   0.5000000000000000    0.9779372430460818    0.3289207819425496 T T T Y
   0.5000000000000000    0.0220627569539182    0.4377458847241170 F F F Y
   0.5000000000000000    0.5220627569539182    0.3377458847241169 T T T Y
   0.0000000000000000    0.2279372430460818    0.4789207819425497 F F F Y
   0.0000000000000000    0.7279372430460818    0.3789207819425496 T T T Y
   0.0000000000000000    0.2720627569539182    0.3877458847241170 T T T Y
   0.0000000000000000    0.7720627569539182    0.4877458847241170 F F F Y
   0.0000000000000000    0.4174939418376092    0.4773526521437785 F F F Cu
   0.0000000000000000    0.9174939418376091    0.3773526521437785 T T T Cu
   0.0000000000000000    0.0825060581623908    0.3893140145228881 T T T Cu
   0.0000000000000000    0.5825060581623908    0.4893140145228881 F F F Cu
   0.5000000000000000    0.3325060581623908    0.4603550754087348 F F F Cu
   0.5000000000000000    0.8325060581623908    0.3603550754087348 T T T Cu
   0.5000000000000000    0.1674939418376092    0.4063115912579318 F F F Cu
   0.5000000000000000    0.6674939418376091    0.3063115912579317 T T T Cu
   0.5000000000000000    0.1674939418376092    0.3273526521437785 T T T Cu
   0.5000000000000000    0.6674939418376091    0.4273526521437785 F F F Cu
   0.5000000000000000    0.3325060581623909    0.3393140145228881 T T T Cu
   0.5000000000000000    0.8325060581623909    0.4393140145228881 F F F Cu
   0.0000000000000000    0.0825060581623908    0.3103550754087348 T T T Cu
   0.0000000000000000    0.5825060581623908    0.4103550754087348 F F F Cu
   0.0000000000000000    0.4174939418376092    0.3563115912579318 T T T Cu
   0.0000000000000000    0.9174939418376091    0.4563115912579317 F F F Cu
   0.5000000000000000    0.4779372430460818    0.6289207819425496 T T T Y
   0.5000000000000000    0.9779372430460818    0.5289207819425497 F F F Y
   0.5000000000000000    0.0220627569539182    0.6377458847241170 T T T Y
   0.5000000000000000    0.5220627569539182    0.5377458847241170 F F F Y
   0.0000000000000000    0.2279372430460818    0.6789207819425497 T T T Y
   0.0000000000000000    0.7279372430460818    0.5789207819425497 F F F Y
   0.0000000000000000    0.2720627569539182    0.5877458847241169 F F F Y
   0.0000000000000000    0.7720627569539182    0.6877458847241169 T T T Y
   0.0000000000000000    0.4174939418376092    0.6773526521437785 T T T Cu
   0.0000000000000000    0.9174939418376091    0.5773526521437785 F F F Cu
   0.0000000000000000    0.0825060581623908    0.5893140145228881 F F F Cu
   0.0000000000000000    0.5825060581623908    0.6893140145228881 T T T Cu
   0.5000000000000000    0.3325060581623908    0.6603550754087348 T T T Cu
   0.5000000000000000    0.8325060581623908    0.5603550754087349 F F F Cu
   0.5000000000000000    0.1674939418376092    0.6063115912579318 T T T Cu
   0.5000000000000000    0.6674939418376091    0.5063115912579317 F F F Cu
   0.5000000000000000    0.1674939418376092    0.5273526521437785 F F F Cu
   0.5000000000000000    0.6674939418376091    0.6273526521437784 T T T Cu
   0.5000000000000000    0.3325060581623909    0.5393140145228881 F F F Cu
   0.5000000000000000    0.8325060581623909    0.6393140145228882 T T T Cu
   0.0000000000000000    0.0825060581623908    0.5103550754087348 F F F Cu
   0.0000000000000000    0.5825060581623908    0.6103550754087348 T T T Cu
   0.0000000000000000    0.4174939418376092    0.5563115912579317 F F F Cu
   0.0000000000000000    0.9174939418376091    0.6563115912579318 T T T Cu
