Ge24 Pd24
1.0
   7.1434296562457185    0.0000000000000000    5.8621772046389022
   3.5717148281228588    6.3352983382039634    0.0000000000000004
   0.0000000000000000    0.0000000000000000   41.0352404324723281
Ge Pd Ge Pd Ge Pd
8 8 8 8 8 8
Selective dynamics
direct
   0.9138822347932134    0.4222355304135731    0.4054204173115374 T T T Ge
   0.4138822347932134    0.4222355304135732    0.3339918458829660 T T T Ge
   0.0861177652067866    0.5777644695864268    0.4338652969741769 F F F Ge
   0.5861177652067866    0.5777644695864268    0.3624367255456054 T T T Ge
   0.0861177652067866    0.0777644695864268    0.3093867701095984 T T T Ge
   0.5861177652067866    0.0777644695864268    0.3808153415381698 T T T Ge
   0.9138822347932134    0.9222355304135731    0.3870418013189730 T T T Ge
   0.4138822347932134    0.9222355304135731    0.3156132298904016 T T T Ge
   0.7200068845616451    0.8099862308767098    0.3161927975746279 T T T Pd
   0.2200068845616451    0.8099862308767100    0.3876213690031994 T T T Pd
   0.2799931154383550    0.1900137691232900    0.3802357738539435 T T T Pd
   0.7799931154383550    0.1900137691232900    0.3088072024253720 T T T Pd
   0.7799931154383550    0.6900137691232900    0.3790519074493837 T T T Pd
   0.2799931154383549    0.6900137691232900    0.3076233360208123 T T T Pd
   0.2200068845616450    0.3099862308767101    0.3173766639791877 T T T Pd
   0.7200068845616450    0.3099862308767101    0.3888052354077591 T T T Pd
   0.9138822347932134    0.4222355304135731    0.5482775601686802 F F F Ge
   0.4138822347932134    0.4222355304135732    0.4768489887401088 F F F Ge
   0.0861177652067866    0.5777644695864268    0.5767224398313197 F F F Ge
   0.5861177652067866    0.5777644695864268    0.5052938684027483 F F F Ge
   0.0861177652067866    0.0777644695864268    0.4522439129667413 F F F Ge
   0.5861177652067866    0.0777644695864268    0.5236724843953127 F F F Ge
   0.9138822347932134    0.9222355304135731    0.5298989441761158 F F F Ge
   0.4138822347932134    0.9222355304135731    0.4584703727475444 F F F Ge
   0.7200068845616451    0.8099862308767098    0.4590499404317708 F F F Pd
   0.2200068845616451    0.8099862308767100    0.5304785118603422 F F F Pd
   0.2799931154383550    0.1900137691232900    0.5230929167110863 F F F Pd
   0.7799931154383550    0.1900137691232900    0.4516643452825149 F F F Pd
   0.7799931154383550    0.6900137691232900    0.5219090503065265 F F F Pd
   0.2799931154383549    0.6900137691232900    0.4504804788779551 F F F Pd
   0.2200068845616450    0.3099862308767101    0.4602338068363305 F F F Pd
   0.7200068845616450    0.3099862308767101    0.5316623782649019 F F F Pd
   0.9138822347932134    0.4222355304135731    0.6911347030258231 T T T Ge
   0.4138822347932134    0.4222355304135732    0.6197061315972516 T T T Ge
   0.0861177652067866    0.5777644695864268    0.7195795826884626 T T T Ge
   0.5861177652067866    0.5777644695864268    0.6481510112598912 T T T Ge
   0.0861177652067866    0.0777644695864268    0.5951010558238841 F F F Ge
   0.5861177652067866    0.0777644695864268    0.6665296272524555 T T T Ge
   0.9138822347932134    0.9222355304135731    0.6727560870332587 T T T Ge
   0.4138822347932134    0.9222355304135731    0.6013275156046873 F F F Ge
   0.7200068845616451    0.8099862308767098    0.6019070832889136 F F F Pd
   0.2200068845616451    0.8099862308767100    0.6733356547174851 T T T Pd
   0.2799931154383550    0.1900137691232900    0.6659500595682292 T T T Pd
   0.7799931154383550    0.1900137691232900    0.5945214881396577 F F F Pd
   0.7799931154383550    0.6900137691232900    0.6647661931636694 T T T Pd
   0.2799931154383549    0.6900137691232900    0.5933376217350980 F F F Pd
   0.2200068845616450    0.3099862308767101    0.6030909496934734 F F F Pd
   0.7200068845616450    0.3099862308767101    0.6745195211220448 T T T Pd
