Mn24 Pd72
1.0
  15.6280616851947123    0.0000000000000000    0.0000000000000010
   0.0000000000000013    7.8722614907652906   -3.9361307453826453
   0.0000000000000000    0.0000000000000000   31.4890459630611659
Mn Pd Mn Pd Mn Pd
8 24 8 24 8 24
Selective dynamics
direct
   0.8762780364571725    0.5000000000000000    0.3593750000000000 T T T Mn
   0.8762780364571725    0.0000000000000000    0.4218750000000000 T T T Mn
   0.6237219635428275    0.2500000000000000    0.3906250000000000 T T T Mn
   0.6237219635428275    0.7500000000000000    0.3281250000000000 T T T Mn
   0.3762780364571725    0.2500000000000000    0.3906250000000000 T T T Mn
   0.3762780364571725    0.7500000000000000    0.3281250000000000 T T T Mn
   0.1237219635428275    0.5000000000000000    0.3593750000000000 T T T Mn
   0.1237219635428275    0.0000000000000000    0.4218750000000000 T T T Mn
   0.6254073917131180    0.5000000000000000    0.3593750000000000 T T T Pd
   0.6254073917131180    0.0000000000000000    0.4218750000000000 T T T Pd
   0.8745926082868820    0.2500000000000000    0.3906250000000000 T T T Pd
   0.8745926082868820    0.7500000000000000    0.3281250000000000 T T T Pd
   0.0000000000000000    0.5000000000000000    0.4218750000000000 T T T Pd
   0.0000000000000000    0.0000000000000000    0.3593750000000000 T T T Pd
   0.0000000000000000    0.2500000000000000    0.3281250000000000 T T T Pd
   0.0000000000000000    0.7500000000000000    0.3906250000000000 T T T Pd
   0.7500000000000000    0.5000000000000000    0.4218750000000000 T T T Pd
   0.7500000000000000    0.0000000000000000    0.3593750000000000 T T T Pd
   0.7500000000000000    0.2500000000000000    0.3281250000000000 T T T Pd
   0.7500000000000000    0.7500000000000000    0.3906250000000000 T T T Pd
   0.1254073917131180    0.2500000000000000    0.3906250000000000 T T T Pd
   0.1254073917131180    0.7500000000000000    0.3281250000000000 T T T Pd
   0.3745926082868819    0.5000000000000000    0.3593750000000000 T T T Pd
   0.3745926082868820    0.0000000000000000    0.4218750000000000 T T T Pd
   0.5000000000000000    0.2500000000000000    0.3281250000000000 T T T Pd
   0.5000000000000000    0.7500000000000000    0.3906250000000000 T T T Pd
   0.5000000000000000    0.5000000000000000    0.4218750000000000 T T T Pd
   0.5000000000000000    0.0000000000000000    0.3593750000000000 T T T Pd
   0.2499999999999999    0.2500000000000000    0.3281250000000000 T T T Pd
   0.2499999999999999    0.7500000000000000    0.3906250000000000 T T T Pd
   0.2499999999999999    0.5000000000000000    0.4218750000000000 T T T Pd
   0.2499999999999999    0.0000000000000000    0.3593750000000000 T T T Pd
   0.8762780364571725    0.5000000000000000    0.4843750000000000 F F F Mn
   0.8762780364571725    0.0000000000000000    0.5468750000000000 F F F Mn
   0.6237219635428275    0.2500000000000000    0.5156250000000000 F F F Mn
   0.6237219635428275    0.7500000000000000    0.4531250000000000 F F F Mn
   0.3762780364571725    0.2500000000000000    0.5156250000000000 F F F Mn
   0.3762780364571725    0.7500000000000000    0.4531250000000000 F F F Mn
   0.1237219635428275    0.5000000000000000    0.4843750000000000 F F F Mn
   0.1237219635428275    0.0000000000000000    0.5468750000000000 F F F Mn
   0.6254073917131180    0.5000000000000000    0.4843750000000000 F F F Pd
   0.6254073917131180    0.0000000000000000    0.5468750000000000 F F F Pd
   0.8745926082868820    0.2500000000000000    0.5156250000000000 F F F Pd
   0.8745926082868820    0.7500000000000000    0.4531250000000000 F F F Pd
   0.0000000000000000    0.5000000000000000    0.5468750000000000 F F F Pd
   0.0000000000000000    0.0000000000000000    0.4843750000000000 F F F Pd
   0.0000000000000000    0.2500000000000000    0.4531250000000000 F F F Pd
   0.0000000000000000    0.7500000000000000    0.5156250000000000 F F F Pd
   0.7500000000000000    0.5000000000000000    0.5468750000000000 F F F Pd
   0.7500000000000000    0.0000000000000000    0.4843750000000000 F F F Pd
   0.7500000000000000    0.2500000000000000    0.4531250000000000 F F F Pd
   0.7500000000000000    0.7500000000000000    0.5156250000000000 F F F Pd
   0.1254073917131180    0.2500000000000000    0.5156250000000000 F F F Pd
   0.1254073917131180    0.7500000000000000    0.4531250000000000 F F F Pd
   0.3745926082868819    0.5000000000000000    0.4843750000000000 F F F Pd
   0.3745926082868820    0.0000000000000000    0.5468750000000000 F F F Pd
   0.5000000000000000    0.2500000000000000    0.4531250000000000 F F F Pd
   0.5000000000000000    0.7500000000000000    0.5156250000000000 F F F Pd
   0.5000000000000000    0.5000000000000000    0.5468750000000000 F F F Pd
   0.5000000000000000    0.0000000000000000    0.4843750000000000 F F F Pd
   0.2499999999999999    0.2500000000000000    0.4531250000000000 F F F Pd
   0.2499999999999999    0.7500000000000000    0.5156250000000000 F F F Pd
   0.2499999999999999    0.5000000000000000    0.5468750000000000 F F F Pd
   0.2499999999999999    0.0000000000000000    0.4843750000000000 F F F Pd
   0.8762780364571725    0.5000000000000000    0.6093750000000000 T T T Mn
   0.8762780364571725    0.0000000000000000    0.6718750000000000 T T T Mn
   0.6237219635428275    0.2500000000000000    0.6406250000000000 T T T Mn
   0.6237219635428275    0.7500000000000000    0.5781250000000000 T T T Mn
   0.3762780364571725    0.2500000000000000    0.6406250000000000 T T T Mn
   0.3762780364571725    0.7500000000000000    0.5781250000000000 T T T Mn
   0.1237219635428275    0.5000000000000000    0.6093750000000000 T T T Mn
   0.1237219635428275    0.0000000000000000    0.6718750000000000 T T T Mn
   0.6254073917131180    0.5000000000000000    0.6093750000000000 T T T Pd
   0.6254073917131180    0.0000000000000000    0.6718750000000000 T T T Pd
   0.8745926082868820    0.2500000000000000    0.6406250000000000 T T T Pd
   0.8745926082868820    0.7500000000000000    0.5781250000000000 T T T Pd
   0.0000000000000000    0.5000000000000000    0.6718750000000000 T T T Pd
   0.0000000000000000    0.0000000000000000    0.6093750000000000 T T T Pd
   0.0000000000000000    0.2500000000000000    0.5781250000000000 T T T Pd
   0.0000000000000000    0.7500000000000000    0.6406250000000000 T T T Pd
   0.7500000000000000    0.5000000000000000    0.6718750000000000 T T T Pd
   0.7500000000000000    0.0000000000000000    0.6093750000000000 T T T Pd
   0.7500000000000000    0.2500000000000000    0.5781250000000000 T T T Pd
   0.7500000000000000    0.7500000000000000    0.6406250000000000 T T T Pd
   0.1254073917131180    0.2500000000000000    0.6406250000000000 T T T Pd
   0.1254073917131180    0.7500000000000000    0.5781250000000000 T T T Pd
   0.3745926082868819    0.5000000000000000    0.6093750000000000 T T T Pd
   0.3745926082868820    0.0000000000000000    0.6718750000000000 T T T Pd
   0.5000000000000000    0.2500000000000000    0.5781250000000000 T T T Pd
   0.5000000000000000    0.7500000000000000    0.6406250000000000 T T T Pd
   0.5000000000000000    0.5000000000000000    0.6718750000000000 T T T Pd
   0.5000000000000000    0.0000000000000000    0.6093750000000000 T T T Pd
   0.2499999999999999    0.2500000000000000    0.5781250000000000 T T T Pd
   0.2499999999999999    0.7500000000000000    0.6406250000000000 T T T Pd
   0.2499999999999999    0.5000000000000000    0.6718750000000000 T T T Pd
   0.2499999999999999    0.0000000000000000    0.6093750000000000 T T T Pd
