Nb16 Ir48
1.0
  14.7558760926865613    0.0000000000000000    0.0000000000000009
   4.2159645979104452    3.6511324432462944    4.4767495313220271
   0.0000000000000000    0.0000000000000000   44.7674953132202802
Nb Ir Nb Ir Nb Ir Nb Ir
4 12 4 12 4 12 4 12
Selective dynamics
direct
   0.6666666666666666    0.6666666666666666    0.3583333333333333 T T T Nb
   0.1666666666666666    0.1666666666666666    0.3083333333333333 T T T Nb
   0.8333333333333334    0.8333333333333333    0.3916666666666667 T T T Nb
   0.3333333333333334    0.3333333333333333    0.3416666666666667 T T T Nb
   0.5821232905388989    0.0893835473055056    0.3660616452694494 T T T Ir
   0.0821232905388988    0.5893835473055056    0.3160616452694494 T T T Ir
   0.5821232905388988    0.5821232905388989    0.3167876709461101 T T T Ir
   0.0821232905388988    0.0821232905388989    0.3667876709461101 T T T Ir
   0.8357534189222021    0.3284931621555955    0.3421506837844404 T T T Ir
   0.3357534189222022    0.8284931621555955    0.3921506837844404 T T T Ir
   0.9178767094611010    0.4106164526944944    0.3839383547305505 T T T Ir
   0.4178767094611011    0.9106164526944944    0.3339383547305506 T T T Ir
   0.9178767094611011    0.9178767094611011    0.3332123290538899 T T T Ir
   0.4178767094611011    0.4178767094611011    0.3832123290538899 T T T Ir
   0.6642465810777978    0.1715068378444045    0.3078493162155596 T T T Ir
   0.1642465810777977    0.6715068378444045    0.3578493162155595 T T T Ir
   0.6666666666666666    0.6666666666666666    0.4583333333333334 F F F Nb
   0.1666666666666666    0.1666666666666666    0.4083333333333333 T T T Nb
   0.8333333333333334    0.8333333333333333    0.4916666666666667 F F F Nb
   0.3333333333333334    0.3333333333333333    0.4416666666666667 F F F Nb
   0.5821232905388989    0.0893835473055056    0.4660616452694494 F F F Ir
   0.0821232905388988    0.5893835473055056    0.4160616452694494 F F F Ir
   0.5821232905388988    0.5821232905388989    0.4167876709461101 F F F Ir
   0.0821232905388988    0.0821232905388989    0.4667876709461101 F F F Ir
   0.8357534189222021    0.3284931621555955    0.4421506837844404 F F F Ir
   0.3357534189222022    0.8284931621555955    0.4921506837844404 F F F Ir
   0.9178767094611010    0.4106164526944944    0.4839383547305506 F F F Ir
   0.4178767094611011    0.9106164526944944    0.4339383547305505 F F F Ir
   0.9178767094611011    0.9178767094611011    0.4332123290538899 F F F Ir
   0.4178767094611011    0.4178767094611011    0.4832123290538899 F F F Ir
   0.6642465810777978    0.1715068378444045    0.4078493162155595 T T T Ir
   0.1642465810777977    0.6715068378444045    0.4578493162155596 F F F Ir
   0.6666666666666666    0.6666666666666666    0.5583333333333333 F F F Nb
   0.1666666666666666    0.1666666666666666    0.5083333333333333 F F F Nb
   0.8333333333333334    0.8333333333333333    0.5916666666666667 T T T Nb
   0.3333333333333334    0.3333333333333333    0.5416666666666667 F F F Nb
   0.5821232905388989    0.0893835473055056    0.5660616452694494 F F F Ir
   0.0821232905388988    0.5893835473055056    0.5160616452694494 F F F Ir
   0.5821232905388988    0.5821232905388989    0.5167876709461101 F F F Ir
   0.0821232905388988    0.0821232905388989    0.5667876709461102 F F F Ir
   0.8357534189222021    0.3284931621555955    0.5421506837844404 F F F Ir
   0.3357534189222022    0.8284931621555955    0.5921506837844404 T T T Ir
   0.9178767094611010    0.4106164526944944    0.5839383547305506 F F F Ir
   0.4178767094611011    0.9106164526944944    0.5339383547305505 F F F Ir
   0.9178767094611011    0.9178767094611011    0.5332123290538899 F F F Ir
   0.4178767094611011    0.4178767094611011    0.5832123290538900 F F F Ir
   0.6642465810777978    0.1715068378444045    0.5078493162155595 F F F Ir
   0.1642465810777977    0.6715068378444045    0.5578493162155596 F F F Ir
   0.6666666666666666    0.6666666666666666    0.6583333333333333 T T T Nb
   0.1666666666666666    0.1666666666666666    0.6083333333333334 T T T Nb
   0.8333333333333334    0.8333333333333333    0.6916666666666667 T T T Nb
   0.3333333333333334    0.3333333333333333    0.6416666666666666 T T T Nb
   0.5821232905388989    0.0893835473055056    0.6660616452694494 T T T Ir
   0.0821232905388988    0.5893835473055056    0.6160616452694494 T T T Ir
   0.5821232905388988    0.5821232905388989    0.6167876709461101 T T T Ir
   0.0821232905388988    0.0821232905388989    0.6667876709461100 T T T Ir
   0.8357534189222021    0.3284931621555955    0.6421506837844404 T T T Ir
   0.3357534189222022    0.8284931621555955    0.6921506837844404 T T T Ir
   0.9178767094611010    0.4106164526944944    0.6839383547305505 T T T Ir
   0.4178767094611011    0.9106164526944944    0.6339383547305506 T T T Ir
   0.9178767094611011    0.9178767094611011    0.6332123290538898 T T T Ir
   0.4178767094611011    0.4178767094611011    0.6832123290538898 T T T Ir
   0.6642465810777978    0.1715068378444045    0.6078493162155596 T T T Ir
   0.1642465810777977    0.6715068378444045    0.6578493162155595 T T T Ir
