Fe16 Si16
1.0
   4.4489130324878161    0.0000000000000000    0.0000000000000003
   0.0000000000000007    4.4489130324878161   -4.4489130324878152
   0.0000000000000000    0.0000000000000000   40.0402172923903450
Fe Si Fe Si Fe Si Fe Si
4 4 4 4 4 4 4 4
Selective dynamics
direct
   0.6365778465832209    0.3634221534167791    0.3055555555555556 T T T Fe
   0.1365778465832209    0.6365778465832209    0.3611111111111111 T T T Fe
   0.3634221534167791    0.1365778465832209    0.3359061881296047 T T T Fe
   0.8634221534167791    0.8634221534167792    0.3307604785370620 T T T Fe
   0.3406444919809044    0.6593555080190956    0.3055555555555556 T T T Si
   0.8406444919809044    0.3406444919809044    0.3611111111111111 T T T Si
   0.6593555080190956    0.8406444919809044    0.3812543315513121 T T T Si
   0.1593555080190956    0.1593555080190956    0.2854123351153546 T T T Si
   0.6365778465832209    0.3634221534167791    0.4166666666666666 F F F Fe
   0.1365778465832209    0.6365778465832209    0.4722222222222222 F F F Fe
   0.3634221534167791    0.1365778465832209    0.4470172992407158 F F F Fe
   0.8634221534167791    0.8634221534167792    0.4418715896481731 F F F Fe
   0.3406444919809044    0.6593555080190956    0.4166666666666666 F F F Si
   0.8406444919809044    0.3406444919809044    0.4722222222222222 F F F Si
   0.6593555080190956    0.8406444919809044    0.4923654426624232 F F F Si
   0.1593555080190956    0.1593555080190956    0.3965234462264657 F F F Si
   0.6365778465832209    0.3634221534167791    0.5277777777777778 F F F Fe
   0.1365778465832209    0.6365778465832209    0.5833333333333333 F F F Fe
   0.3634221534167791    0.1365778465832209    0.5581284103518269 F F F Fe
   0.8634221534167791    0.8634221534167792    0.5529827007592842 F F F Fe
   0.3406444919809044    0.6593555080190956    0.5277777777777778 F F F Si
   0.8406444919809044    0.3406444919809044    0.5833333333333333 F F F Si
   0.6593555080190956    0.8406444919809044    0.6034765537735343 F F F Si
   0.1593555080190956    0.1593555080190956    0.5076345573375768 F F F Si
   0.6365778465832209    0.3634221534167791    0.6388888888888888 T T T Fe
   0.1365778465832209    0.6365778465832209    0.6944444444444444 T T T Fe
   0.3634221534167791    0.1365778465832209    0.6692395214629380 T T T Fe
   0.8634221534167791    0.8634221534167792    0.6640938118703954 T T T Fe
   0.3406444919809044    0.6593555080190956    0.6388888888888888 T T T Si
   0.8406444919809044    0.3406444919809044    0.6944444444444444 T T T Si
   0.6593555080190956    0.8406444919809044    0.7145876648846454 T T T Si
   0.1593555080190956    0.1593555080190956    0.6187456684486878 T T T Si
