Be30 Ir10
1.0
   7.2594073248966122    0.0000000000000000    0.0000000000000004
   0.0000000000000005    3.2723168236387759   -3.2723168236387754
   0.0000000000000000    0.0000000000000000   39.2678018836653138
Be Ir Be Ir Be Ir Be Ir Be Ir
6 2 6 2 6 2 6 2 6 2
Selective dynamics
direct
   0.7500000000000000    0.5000000000000000    0.3125000000000000 T T T Be
   0.7500000000000000    0.0000000000000000    0.3125000000000000 T T T Be
   0.0000000000000000    0.5000000000000000    0.3541666666666667 T T T Be
   0.2499999999999999    0.0000000000000000    0.3125000000000000 T T T Be
   0.2499999999999999    0.5000000000000000    0.3125000000000000 T T T Be
   0.5000000000000000    0.0000000000000000    0.3541666666666667 T T T Be
   0.0000000000000000    0.0000000000000000    0.3541666666666667 T T T Ir
   0.5000000000000000    0.5000000000000000    0.3541666666666667 T T T Ir
   0.7500000000000000    0.5000000000000000    0.3958333333333334 T T T Be
   0.7500000000000000    0.0000000000000000    0.3958333333333334 T T T Be
   0.0000000000000000    0.5000000000000000    0.4375000000000000 F F F Be
   0.2499999999999999    0.0000000000000000    0.3958333333333334 T T T Be
   0.2499999999999999    0.5000000000000000    0.3958333333333334 T T T Be
   0.5000000000000000    0.0000000000000000    0.4375000000000000 F F F Be
   0.0000000000000000    0.0000000000000000    0.4375000000000000 F F F Ir
   0.5000000000000000    0.5000000000000000    0.4375000000000000 F F F Ir
   0.7500000000000000    0.5000000000000000    0.4791666666666667 F F F Be
   0.7500000000000000    0.0000000000000000    0.4791666666666667 F F F Be
   0.0000000000000000    0.5000000000000000    0.5208333333333334 F F F Be
   0.2499999999999999    0.0000000000000000    0.4791666666666667 F F F Be
   0.2499999999999999    0.5000000000000000    0.4791666666666667 F F F Be
   0.5000000000000000    0.0000000000000000    0.5208333333333334 F F F Be
   0.0000000000000000    0.0000000000000000    0.5208333333333334 F F F Ir
   0.5000000000000000    0.5000000000000000    0.5208333333333334 F F F Ir
   0.7500000000000000    0.5000000000000000    0.5625000000000000 F F F Be
   0.7500000000000000    0.0000000000000000    0.5625000000000000 F F F Be
   0.0000000000000000    0.5000000000000000    0.6041666666666667 T T T Be
   0.2499999999999999    0.0000000000000000    0.5625000000000000 F F F Be
   0.2499999999999999    0.5000000000000000    0.5625000000000000 F F F Be
   0.5000000000000000    0.0000000000000000    0.6041666666666667 T T T Be
   0.0000000000000000    0.0000000000000000    0.6041666666666667 T T T Ir
   0.5000000000000000    0.5000000000000000    0.6041666666666667 T T T Ir
   0.7500000000000000    0.5000000000000000    0.6458333333333333 T T T Be
   0.7500000000000000    0.0000000000000000    0.6458333333333333 T T T Be
   0.0000000000000000    0.5000000000000000    0.6875000000000000 T T T Be
   0.2499999999999999    0.0000000000000000    0.6458333333333333 T T T Be
   0.2499999999999999    0.5000000000000000    0.6458333333333333 T T T Be
   0.5000000000000000    0.0000000000000000    0.6875000000000000 T T T Be
   0.0000000000000000    0.0000000000000000    0.6875000000000000 T T T Ir
   0.5000000000000000    0.5000000000000000    0.6875000000000000 T T T Ir
