Be30 Rh10
1.0
   8.3582039559366557    0.0000000000000000    0.0000000000000005
   4.1791019779683269    2.4128056519509107    3.7499945885365160
   0.0000000000000000    0.0000000000000000   48.7499296509747140
Be Rh Be Rh Be Rh Be Rh Be Rh
6 2 6 2 6 2 6 2 6 2
Selective dynamics
direct
   0.1598211055254453    0.5205366834236642    0.3253433320443335 T T T Be
   0.1598211055254453    0.0000000000000000    0.3653846153846154 T T T Be
   0.6803577889491094    0.4794633165763360    0.3285028218018203 T T T Be
   0.8401788944745547    0.4794633165763358    0.3669643602633588 T T T Be
   0.8401788944745547    0.0000000000000000    0.3269230769230769 T T T Be
   0.3196422110508905    0.5205366834236642    0.3638048705058720 T T T Be
   0.3333333333333333    0.0000000000000000    0.3269230769230769 T T T Rh
   0.6666666666666666    0.0000000000000000    0.3653846153846154 T T T Rh
   0.1598211055254453    0.5205366834236642    0.4022664089674104 T T T Be
   0.1598211055254453    0.0000000000000000    0.4423076923076923 F F F Be
   0.6803577889491094    0.4794633165763360    0.4054258987248973 T T T Be
   0.8401788944745547    0.4794633165763358    0.4438874371864358 F F F Be
   0.8401788944745547    0.0000000000000000    0.4038461538461539 T T T Be
   0.3196422110508905    0.5205366834236642    0.4407279474289489 F F F Be
   0.3333333333333333    0.0000000000000000    0.4038461538461539 T T T Rh
   0.6666666666666666    0.0000000000000000    0.4423076923076923 F F F Rh
   0.1598211055254453    0.5205366834236642    0.4791894858904874 F F F Be
   0.1598211055254453    0.0000000000000000    0.5192307692307693 F F F Be
   0.6803577889491094    0.4794633165763360    0.4823489756479742 F F F Be
   0.8401788944745547    0.4794633165763358    0.5208105141095126 F F F Be
   0.8401788944745547    0.0000000000000000    0.4807692307692308 F F F Be
   0.3196422110508905    0.5205366834236642    0.5176510243520258 F F F Be
   0.3333333333333333    0.0000000000000000    0.4807692307692308 F F F Rh
   0.6666666666666666    0.0000000000000000    0.5192307692307693 F F F Rh
   0.1598211055254453    0.5205366834236642    0.5561125628135644 F F F Be
   0.1598211055254453    0.0000000000000000    0.5961538461538463 T T T Be
   0.6803577889491094    0.4794633165763360    0.5592720525710511 F F F Be
   0.8401788944745547    0.4794633165763358    0.5977335910325896 T T T Be
   0.8401788944745547    0.0000000000000000    0.5576923076923077 F F F Be
   0.3196422110508905    0.5205366834236642    0.5945741012751028 T T T Be
   0.3333333333333333    0.0000000000000000    0.5576923076923077 F F F Rh
   0.6666666666666666    0.0000000000000000    0.5961538461538463 T T T Rh
   0.1598211055254453    0.5205366834236642    0.6330356397366412 T T T Be
   0.1598211055254453    0.0000000000000000    0.6730769230769231 T T T Be
   0.6803577889491094    0.4794633165763360    0.6361951294941280 T T T Be
   0.8401788944745547    0.4794633165763358    0.6746566679556665 T T T Be
   0.8401788944745547    0.0000000000000000    0.6346153846153846 T T T Be
   0.3196422110508905    0.5205366834236642    0.6714971781981798 T T T Be
   0.3333333333333333    0.0000000000000000    0.6346153846153846 T T T Rh
   0.6666666666666666    0.0000000000000000    0.6730769230769231 T T T Rh
