Al12 V36
1.0
   4.8048663684773301    0.0000000000000000    0.0000000000000003
   0.0000000000000015    9.6097327369546583   -4.8048663684773292
   0.0000000000000000    0.0000000000000000   33.6340645793413131
Al V Al V Al V
4 12 4 12 4 12
Selective dynamics
direct
   0.0000000000000000    0.5000000000000000    0.3437500000000001 T T T Al
   0.0000000000000000    0.0000000000000000    0.4151785714285715 F F F Al
   0.5000000000000000    0.2500000000000000    0.3794642857142858 T T T Al
   0.5000000000000000    0.7500000000000000    0.3080357142857143 T T T Al
   0.5000000000000000    0.5000000000000000    0.3080357142857144 T T T V
   0.5000000000000000    0.0000000000000000    0.3794642857142858 T T T V
   0.5000000000000001    0.5000000000000000    0.3794642857142858 T T T V
   0.5000000000000000    0.0000000000000000    0.3080357142857144 T T T V
   0.7500000000000000    0.2500000000000000    0.3080357142857144 T T T V
   0.7500000000000000    0.7500000000000000    0.3794642857142858 T T T V
   0.2500000000000000    0.2500000000000000    0.3080357142857144 T T T V
   0.2500000000000000    0.7500000000000000    0.3794642857142858 T T T V
   0.0000000000000000    0.1250000000000000    0.3616071428571429 T T T V
   0.0000000000000000    0.6250000000000000    0.4330357142857143 F F F V
   0.0000000000000000    0.3749999999999999    0.3973214285714286 T T T V
   0.0000000000000000    0.8750000000000000    0.3258928571428572 T T T V
   0.0000000000000000    0.5000000000000000    0.4866071428571429 F F F Al
   0.0000000000000000    0.0000000000000000    0.5580357142857143 F F F Al
   0.5000000000000000    0.2500000000000000    0.5223214285714286 F F F Al
   0.5000000000000000    0.7500000000000000    0.4508928571428572 F F F Al
   0.5000000000000000    0.5000000000000000    0.4508928571428572 F F F V
   0.5000000000000000    0.0000000000000000    0.5223214285714286 F F F V
   0.5000000000000001    0.5000000000000000    0.5223214285714286 F F F V
   0.5000000000000000    0.0000000000000000    0.4508928571428572 F F F V
   0.7500000000000000    0.2500000000000000    0.4508928571428572 F F F V
   0.7500000000000000    0.7500000000000000    0.5223214285714286 F F F V
   0.2500000000000000    0.2500000000000000    0.4508928571428572 F F F V
   0.2500000000000000    0.7500000000000000    0.5223214285714286 F F F V
   0.0000000000000000    0.1250000000000000    0.5044642857142858 F F F V
   0.0000000000000000    0.6250000000000000    0.5758928571428572 F F F V
   0.0000000000000000    0.3749999999999999    0.5401785714285714 F F F V
   0.0000000000000000    0.8750000000000000    0.4687500000000000 F F F V
   0.0000000000000000    0.5000000000000000    0.6294642857142858 T T T Al
   0.0000000000000000    0.0000000000000000    0.7008928571428572 T T T Al
   0.5000000000000000    0.2500000000000000    0.6651785714285714 T T T Al
   0.5000000000000000    0.7500000000000000    0.5937500000000000 F F F Al
   0.5000000000000000    0.5000000000000000    0.5937500000000000 F F F V
   0.5000000000000000    0.0000000000000000    0.6651785714285714 T T T V
   0.5000000000000001    0.5000000000000000    0.6651785714285715 T T T V
   0.5000000000000000    0.0000000000000000    0.5937500000000000 F F F V
   0.7500000000000000    0.2500000000000000    0.5937500000000000 F F F V
   0.7500000000000000    0.7500000000000000    0.6651785714285714 T T T V
   0.2500000000000000    0.2500000000000000    0.5937500000000000 F F F V
   0.2500000000000000    0.7500000000000000    0.6651785714285714 T T T V
   0.0000000000000000    0.1250000000000000    0.6473214285714286 T T T V
   0.0000000000000000    0.6250000000000000    0.7187500000000000 T T T V
   0.0000000000000000    0.3749999999999999    0.6830357142857143 T T T V
   0.0000000000000000    0.8750000000000000    0.6116071428571429 F F F V
