Zr16 Cu8
1.0
   3.2343392298906117    0.0000000000000000    0.0000000000000002
   0.0000000000000018   11.1935594325436725   -3.2343392298906100
   0.0000000000000000    0.0000000000000000   29.1090530690155056
Zr Cu Zr Cu Zr Cu Zr Cu
4 2 4 2 4 2 4 2
Selective dynamics
direct
   0.0000000000000000    0.3457400975975631    0.3717488997330626 T T T Zr
   0.5000000000000000    0.1542599024024369    0.2949177669336041 T T T Zr
   0.5000000000000000    0.8457400975975630    0.3717488997330626 T T T Zr
   0.0000000000000000    0.6542599024024369    0.2949177669336041 T T T Zr
   0.0000000000000000    0.0000000000000000    0.3333333333333334 T T T Cu
   0.5000000000000000    0.5000000000000000    0.3333333333333334 T T T Cu
   0.0000000000000000    0.3457400975975631    0.4828600108441737 F F F Zr
   0.5000000000000000    0.1542599024024369    0.4060288780447152 F F F Zr
   0.5000000000000000    0.8457400975975630    0.4828600108441737 F F F Zr
   0.0000000000000000    0.6542599024024369    0.4060288780447152 F F F Zr
   0.0000000000000000    0.0000000000000000    0.4444444444444445 F F F Cu
   0.5000000000000000    0.5000000000000000    0.4444444444444444 F F F Cu
   0.0000000000000000    0.3457400975975631    0.5939711219552848 F F F Zr
   0.5000000000000000    0.1542599024024369    0.5171399891558264 F F F Zr
   0.5000000000000000    0.8457400975975630    0.5939711219552848 F F F Zr
   0.0000000000000000    0.6542599024024369    0.5171399891558264 F F F Zr
   0.0000000000000000    0.0000000000000000    0.5555555555555556 F F F Cu
   0.5000000000000000    0.5000000000000000    0.5555555555555556 F F F Cu
   0.0000000000000000    0.3457400975975631    0.7050822330663959 T T T Zr
   0.5000000000000000    0.1542599024024369    0.6282511002669374 T T T Zr
   0.5000000000000000    0.8457400975975630    0.7050822330663959 T T T Zr
   0.0000000000000000    0.6542599024024369    0.6282511002669374 T T T Zr
   0.0000000000000000    0.0000000000000000    0.6666666666666667 T T T Cu
   0.5000000000000000    0.5000000000000000    0.6666666666666666 T T T Cu
