Zr80 Te64
1.0
  24.3215515609437318    0.0000000000000000    0.0000000000000015
   4.8643103121887483    9.7286206243774966    7.7398095400490732
   0.0000000000000000    0.0000000000000000   34.8291429302208400
Zr Te Zr Te Zr Te Zr Te
20 16 20 16 20 16 20 16
Selective dynamics
direct
   0.5000000000000000    0.4999999999999999    0.3333333333333333 T T T Zr
   0.0000000000000000    0.0000000000000000    0.3333333333333333 T T T Zr
   0.6845321807703523    0.6248867356589700    0.3055807254091177 T T T Zr
   0.1845321807703524    0.1248867356589700    0.3055807254091178 T T T Zr
   0.9047094582146612    0.2262261802446340    0.3386164043900813 T T T Zr
   0.4047094582146612    0.7262261802446341    0.3386164043900813 T T T Zr
   0.5952905417853388    0.2737738197553660    0.3280502622765853 T T T Zr
   0.0952905417853388    0.7737738197553660    0.3280502622765853 T T T Zr
   0.8154678192296475    0.8751132643410300    0.3610859412575489 T T T Zr
   0.3154678192296476    0.3751132643410300    0.3610859412575489 T T T Zr
   0.7499999999999999    0.7500000000000000    0.3333333333333333 T T T Zr
   0.2500000000000000    0.2500000000000000    0.3333333333333333 T T T Zr
   0.9345321807703524    0.8748867356589700    0.3055807254091177 T T T Zr
   0.4345321807703524    0.3748867356589700    0.3055807254091177 T T T Zr
   0.6547094582146612    0.9762261802446340    0.3386164043900813 T T T Zr
   0.1547094582146612    0.4762261802446340    0.3386164043900813 T T T Zr
   0.8452905417853389    0.5237738197553659    0.3280502622765853 T T T Zr
   0.3452905417853388    0.0237738197553660    0.3280502622765853 T T T Zr
   0.5654678192296476    0.6251132643410300    0.3610859412575489 T T T Zr
   0.0654678192296476    0.1251132643410300    0.3610859412575489 T T T Zr
   0.6403847369460820    0.4123431683312333    0.3528126292597259 T T T Te
   0.1403847369460820    0.9123431683312333    0.3528126292597259 T T T Te
   0.7763639526386577    0.4428665734691782    0.2904740947846270 T T T Te
   0.2763639526386576    0.9428665734691783    0.2904740947846270 T T T Te
   0.7236360473613423    0.0571334265308218    0.3761925718820396 T T T Te
   0.2236360473613423    0.5571334265308217    0.3761925718820396 T T T Te
   0.8596152630539181    0.0876568316687666    0.3138540374069407 T T T Te
   0.3596152630539180    0.5876568316687668    0.3138540374069407 T T T Te
   0.8903847369460820    0.6623431683312333    0.3528126292597259 T T T Te
   0.3903847369460820    0.1623431683312332    0.3528126292597260 T T T Te
   0.5263639526386575    0.1928665734691785    0.2904740947846270 T T T Te
   0.0263639526386577    0.6928665734691783    0.2904740947846270 T T T Te
   0.9736360473613425    0.3071334265308214    0.3761925718820397 T T T Te
   0.4736360473613423    0.8071334265308217    0.3761925718820397 T T T Te
   0.6096152630539180    0.8376568316687668    0.3138540374069407 T T T Te
   0.1096152630539180    0.3376568316687668    0.3138540374069407 T T T Te
   0.5000000000000000    0.4999999999999999    0.4444444444444444 F F F Zr
   0.0000000000000000    0.0000000000000000    0.4444444444444444 F F F Zr
   0.6845321807703523    0.6248867356589700    0.4166918365202289 F F F Zr
   0.1845321807703524    0.1248867356589700    0.4166918365202289 F F F Zr
   0.9047094582146612    0.2262261802446340    0.4497275155011924 F F F Zr
   0.4047094582146612    0.7262261802446341    0.4497275155011924 F F F Zr
   0.5952905417853388    0.2737738197553660    0.4391613733876964 F F F Zr
   0.0952905417853388    0.7737738197553660    0.4391613733876965 F F F Zr
   0.8154678192296475    0.8751132643410300    0.4721970523686600 F F F Zr
   0.3154678192296476    0.3751132643410300    0.4721970523686600 F F F Zr
   0.7499999999999999    0.7500000000000000    0.4444444444444444 F F F Zr
   0.2500000000000000    0.2500000000000000    0.4444444444444444 F F F Zr
   0.9345321807703524    0.8748867356589700    0.4166918365202289 F F F Zr
   0.4345321807703524    0.3748867356589700    0.4166918365202289 F F F Zr
   0.6547094582146612    0.9762261802446340    0.4497275155011924 F F F Zr
   0.1547094582146612    0.4762261802446340    0.4497275155011924 F F F Zr
   0.8452905417853389    0.5237738197553659    0.4391613733876965 F F F Zr
   0.3452905417853388    0.0237738197553660    0.4391613733876965 F F F Zr
   0.5654678192296476    0.6251132643410300    0.4721970523686600 F F F Zr
   0.0654678192296476    0.1251132643410300    0.4721970523686600 F F F Zr
   0.6403847369460820    0.4123431683312333    0.4639237403708371 F F F Te
   0.1403847369460820    0.9123431683312333    0.4639237403708371 F F F Te
   0.7763639526386577    0.4428665734691782    0.4015852058957381 F F F Te
   0.2763639526386576    0.9428665734691783    0.4015852058957382 F F F Te
   0.7236360473613423    0.0571334265308218    0.4873036829931507 F F F Te
   0.2236360473613423    0.5571334265308217    0.4873036829931507 F F F Te
   0.8596152630539181    0.0876568316687666    0.4249651485180518 F F F Te
   0.3596152630539180    0.5876568316687668    0.4249651485180518 F F F Te
   0.8903847369460820    0.6623431683312333    0.4639237403708371 F F F Te
   0.3903847369460820    0.1623431683312332    0.4639237403708371 F F F Te
   0.5263639526386575    0.1928665734691785    0.4015852058957381 F F F Te
   0.0263639526386577    0.6928665734691783    0.4015852058957382 F F F Te
   0.9736360473613425    0.3071334265308214    0.4873036829931507 F F F Te
   0.4736360473613423    0.8071334265308217    0.4873036829931507 F F F Te
   0.6096152630539180    0.8376568316687668    0.4249651485180518 F F F Te
   0.1096152630539180    0.3376568316687668    0.4249651485180518 F F F Te
   0.5000000000000000    0.4999999999999999    0.5555555555555556 F F F Zr
   0.0000000000000000    0.0000000000000000    0.5555555555555556 F F F Zr
   0.6845321807703523    0.6248867356589700    0.5278029476313399 F F F Zr
   0.1845321807703524    0.1248867356589700    0.5278029476313399 F F F Zr
   0.9047094582146612    0.2262261802446340    0.5608386266123035 F F F Zr
   0.4047094582146612    0.7262261802446341    0.5608386266123035 F F F Zr
   0.5952905417853388    0.2737738197553660    0.5502724844988075 F F F Zr
   0.0952905417853388    0.7737738197553660    0.5502724844988076 F F F Zr
   0.8154678192296475    0.8751132643410300    0.5833081634797711 F F F Zr
   0.3154678192296476    0.3751132643410300    0.5833081634797711 F F F Zr
   0.7499999999999999    0.7500000000000000    0.5555555555555556 F F F Zr
   0.2500000000000000    0.2500000000000000    0.5555555555555556 F F F Zr
   0.9345321807703524    0.8748867356589700    0.5278029476313399 F F F Zr
   0.4345321807703524    0.3748867356589700    0.5278029476313399 F F F Zr
   0.6547094582146612    0.9762261802446340    0.5608386266123035 F F F Zr
   0.1547094582146612    0.4762261802446340    0.5608386266123035 F F F Zr
   0.8452905417853389    0.5237738197553659    0.5502724844988076 F F F Zr
   0.3452905417853388    0.0237738197553660    0.5502724844988076 F F F Zr
   0.5654678192296476    0.6251132643410300    0.5833081634797711 F F F Zr
   0.0654678192296476    0.1251132643410300    0.5833081634797711 F F F Zr
   0.6403847369460820    0.4123431683312333    0.5750348514819481 F F F Te
   0.1403847369460820    0.9123431683312333    0.5750348514819481 F F F Te
   0.7763639526386577    0.4428665734691782    0.5126963170068493 F F F Te
   0.2763639526386576    0.9428665734691783    0.5126963170068493 F F F Te
   0.7236360473613423    0.0571334265308218    0.5984147941042618 F F F Te
   0.2236360473613423    0.5571334265308217    0.5984147941042619 F F F Te
   0.8596152630539181    0.0876568316687666    0.5360762596291629 F F F Te
   0.3596152630539180    0.5876568316687668    0.5360762596291628 F F F Te
   0.8903847369460820    0.6623431683312333    0.5750348514819481 F F F Te
   0.3903847369460820    0.1623431683312332    0.5750348514819481 F F F Te
   0.5263639526386575    0.1928665734691785    0.5126963170068493 F F F Te
   0.0263639526386577    0.6928665734691783    0.5126963170068493 F F F Te
   0.9736360473613425    0.3071334265308214    0.5984147941042619 F F F Te
   0.4736360473613423    0.8071334265308217    0.5984147941042619 F F F Te
   0.6096152630539180    0.8376568316687668    0.5360762596291628 F F F Te
   0.1096152630539180    0.3376568316687668    0.5360762596291628 F F F Te
   0.5000000000000000    0.4999999999999999    0.6666666666666666 T T T Zr
   0.0000000000000000    0.0000000000000000    0.6666666666666666 T T T Zr
   0.6845321807703523    0.6248867356589700    0.6389140587424511 T T T Zr
   0.1845321807703524    0.1248867356589700    0.6389140587424511 T T T Zr
   0.9047094582146612    0.2262261802446340    0.6719497377234147 T T T Zr
   0.4047094582146612    0.7262261802446341    0.6719497377234147 T T T Zr
   0.5952905417853388    0.2737738197553660    0.6613835956099186 T T T Zr
   0.0952905417853388    0.7737738197553660    0.6613835956099187 T T T Zr
   0.8154678192296475    0.8751132643410300    0.6944192745908822 T T T Zr
   0.3154678192296476    0.3751132643410300    0.6944192745908822 T T T Zr
   0.7499999999999999    0.7500000000000000    0.6666666666666666 T T T Zr
   0.2500000000000000    0.2500000000000000    0.6666666666666666 T T T Zr
   0.9345321807703524    0.8748867356589700    0.6389140587424511 T T T Zr
   0.4345321807703524    0.3748867356589700    0.6389140587424511 T T T Zr
   0.6547094582146612    0.9762261802446340    0.6719497377234146 T T T Zr
   0.1547094582146612    0.4762261802446340    0.6719497377234147 T T T Zr
   0.8452905417853389    0.5237738197553659    0.6613835956099187 T T T Zr
   0.3452905417853388    0.0237738197553660    0.6613835956099187 T T T Zr
   0.5654678192296476    0.6251132643410300    0.6944192745908822 T T T Zr
   0.0654678192296476    0.1251132643410300    0.6944192745908822 T T T Zr
   0.6403847369460820    0.4123431683312333    0.6861459625930593 T T T Te
   0.1403847369460820    0.9123431683312333    0.6861459625930593 T T T Te
   0.7763639526386577    0.4428665734691782    0.6238074281179604 T T T Te
   0.2763639526386576    0.9428665734691783    0.6238074281179604 T T T Te
   0.7236360473613423    0.0571334265308218    0.7095259052153728 T T T Te
   0.2236360473613423    0.5571334265308217    0.7095259052153730 T T T Te
   0.8596152630539181    0.0876568316687666    0.6471873707402740 T T T Te
   0.3596152630539180    0.5876568316687668    0.6471873707402740 T T T Te
   0.8903847369460820    0.6623431683312333    0.6861459625930593 T T T Te
   0.3903847369460820    0.1623431683312332    0.6861459625930593 T T T Te
   0.5263639526386575    0.1928665734691785    0.6238074281179603 T T T Te
   0.0263639526386577    0.6928665734691783    0.6238074281179604 T T T Te
   0.9736360473613425    0.3071334265308214    0.7095259052153730 T T T Te
   0.4736360473613423    0.8071334265308217    0.7095259052153730 T T T Te
   0.6096152630539180    0.8376568316687668    0.6471873707402740 T T T Te
   0.1096152630539180    0.3376568316687668    0.6471873707402740 T T T Te
