Mn24 As24
1.0
   6.8397894487674629    0.0000000000000000    5.5514130353674602
   6.8397894487674602    6.0261366214172067   -0.0000000000000015
   0.0000000000000000    0.0000000000000000   44.4113042829396960
Mn As Mn As Mn As
8 8 8 8 8 8
Selective dynamics
direct
   0.9352274790949406    0.1897725209050594    0.3201746082726578 T T T Mn
   0.4352274790949405    0.1897725209050594    0.3826746082726578 T T T Mn
   0.5647725209050594    0.8102274790949406    0.3673253917273422 T T T Mn
   0.0647725209050592    0.8102274790949408    0.4298253917273422 F F F Mn
   0.8147725209050594    0.3102274790949407    0.3977314780463930 T T T Mn
   0.3147725209050592    0.3102274790949407    0.3352314780463930 T T T Mn
   0.6852274790949406    0.6897725209050592    0.4147685219536070 T T T Mn
   0.1852274790949406    0.6897725209050594    0.3522685219536070 T T T Mn
   0.5437802269397307    0.5812197730602693    0.3449462699347139 T T T As
   0.0437802269397306    0.5812197730602693    0.4074462699347139 T T T As
   0.9562197730602693    0.4187802269397307    0.3425537300652861 T T T As
   0.4562197730602693    0.4187802269397307    0.4050537300652861 T T T As
   0.2062197730602693    0.9187802269397307    0.3246413266696466 T T T As
   0.7062197730602693    0.9187802269397307    0.3871413266696466 T T T As
   0.2937802269397307    0.0812197730602693    0.3628586733303534 T T T As
   0.7937802269397307    0.0812197730602693    0.4253586733303534 T T T As
   0.9352274790949406    0.1897725209050594    0.4451746082726578 F F F Mn
   0.4352274790949405    0.1897725209050594    0.5076746082726578 F F F Mn
   0.5647725209050594    0.8102274790949406    0.4923253917273422 F F F Mn
   0.0647725209050592    0.8102274790949408    0.5548253917273422 F F F Mn
   0.8147725209050594    0.3102274790949407    0.5227314780463930 F F F Mn
   0.3147725209050592    0.3102274790949407    0.4602314780463930 F F F Mn
   0.6852274790949406    0.6897725209050592    0.5397685219536070 F F F Mn
   0.1852274790949406    0.6897725209050594    0.4772685219536070 F F F Mn
   0.5437802269397307    0.5812197730602693    0.4699462699347139 F F F As
   0.0437802269397306    0.5812197730602693    0.5324462699347139 F F F As
   0.9562197730602693    0.4187802269397307    0.4675537300652861 F F F As
   0.4562197730602693    0.4187802269397307    0.5300537300652861 F F F As
   0.2062197730602693    0.9187802269397307    0.4496413266696466 F F F As
   0.7062197730602693    0.9187802269397307    0.5121413266696466 F F F As
   0.2937802269397307    0.0812197730602693    0.4878586733303534 F F F As
   0.7937802269397307    0.0812197730602693    0.5503586733303534 F F F As
   0.9352274790949406    0.1897725209050594    0.5701746082726578 F F F Mn
   0.4352274790949405    0.1897725209050594    0.6326746082726578 T T T Mn
   0.5647725209050594    0.8102274790949406    0.6173253917273422 T T T Mn
   0.0647725209050592    0.8102274790949408    0.6798253917273422 T T T Mn
   0.8147725209050594    0.3102274790949407    0.6477314780463930 T T T Mn
   0.3147725209050592    0.3102274790949407    0.5852314780463930 T T T Mn
   0.6852274790949406    0.6897725209050592    0.6647685219536070 T T T Mn
   0.1852274790949406    0.6897725209050594    0.6022685219536070 T T T Mn
   0.5437802269397307    0.5812197730602693    0.5949462699347139 T T T As
   0.0437802269397306    0.5812197730602693    0.6574462699347139 T T T As
   0.9562197730602693    0.4187802269397307    0.5925537300652861 T T T As
   0.4562197730602693    0.4187802269397307    0.6550537300652861 T T T As
   0.2062197730602693    0.9187802269397307    0.5746413266696466 T T T As
   0.7062197730602693    0.9187802269397307    0.6371413266696466 T T T As
   0.2937802269397307    0.0812197730602693    0.6128586733303534 T T T As
   0.7937802269397307    0.0812197730602693    0.6753586733303534 T T T As
