Pt20 Pb20
1.0
   3.7867833455355444    0.0000000000000000   -6.5589011517232088
  -0.0000000000000007   11.1196508036138333   -4.3726007678154746
   0.0000000000000000    0.0000000000000000   52.4712092137856843
Pt Pb Pt Pb Pt Pb Pt Pb Pt Pb
4 4 4 4 4 4 4 4 4 4
Selective dynamics
direct
   0.0000000000000000    0.0000000000000000    0.3697916666666667 T T T Pt
   0.0000000000000000    0.5000000000000000    0.3281250000000000 T T T Pt
   0.0000000000000000    0.2500000000000000    0.3072916666666667 T T T Pt
   0.0000000000000000    0.7500000000000000    0.3489583333333334 T T T Pt
   0.3333333333333333    0.3750000000000001    0.3177083333333334 T T T Pb
   0.3333333333333333    0.8750000000000001    0.3593750000000000 T T T Pb
   0.6666666666666666    0.1250000000000001    0.2968750000000000 T T T Pb
   0.6666666666666666    0.6250000000000001    0.3385416666666667 T T T Pb
   0.0000000000000000    0.0000000000000000    0.4531250000000000 F F F Pt
   0.0000000000000000    0.5000000000000000    0.4114583333333334 T T T Pt
   0.0000000000000000    0.2500000000000000    0.3906250000000000 T T T Pt
   0.0000000000000000    0.7500000000000000    0.4322916666666667 F F F Pt
   0.3333333333333333    0.3750000000000001    0.4010416666666667 T T T Pb
   0.3333333333333333    0.8750000000000001    0.4427083333333334 F F F Pb
   0.6666666666666666    0.1250000000000001    0.3802083333333334 T T T Pb
   0.6666666666666666    0.6250000000000001    0.4218750000000000 F F F Pb
   0.0000000000000000    0.0000000000000000    0.5364583333333334 F F F Pt
   0.0000000000000000    0.5000000000000000    0.4947916666666667 F F F Pt
   0.0000000000000000    0.2500000000000000    0.4739583333333334 F F F Pt
   0.0000000000000000    0.7500000000000000    0.5156250000000000 F F F Pt
   0.3333333333333333    0.3750000000000001    0.4843750000000000 F F F Pb
   0.3333333333333333    0.8750000000000001    0.5260416666666667 F F F Pb
   0.6666666666666666    0.1250000000000001    0.4635416666666667 F F F Pb
   0.6666666666666666    0.6250000000000001    0.5052083333333334 F F F Pb
   0.0000000000000000    0.0000000000000000    0.6197916666666667 T T T Pt
   0.0000000000000000    0.5000000000000000    0.5781250000000000 F F F Pt
   0.0000000000000000    0.2500000000000000    0.5572916666666667 F F F Pt
   0.0000000000000000    0.7500000000000000    0.5989583333333334 T T T Pt
   0.3333333333333333    0.3750000000000001    0.5677083333333334 F F F Pb
   0.3333333333333333    0.8750000000000001    0.6093750000000000 T T T Pb
   0.6666666666666666    0.1250000000000001    0.5468750000000000 F F F Pb
   0.6666666666666666    0.6250000000000001    0.5885416666666667 T T T Pb
   0.0000000000000000    0.0000000000000000    0.7031250000000000 T T T Pt
   0.0000000000000000    0.5000000000000000    0.6614583333333333 T T T Pt
   0.0000000000000000    0.2500000000000000    0.6406250000000000 T T T Pt
   0.0000000000000000    0.7500000000000000    0.6822916666666667 T T T Pt
   0.3333333333333333    0.3750000000000001    0.6510416666666667 T T T Pb
   0.3333333333333333    0.8750000000000001    0.6927083333333333 T T T Pb
   0.6666666666666666    0.1250000000000001    0.6302083333333333 T T T Pb
   0.6666666666666666    0.6250000000000001    0.6718750000000000 T T T Pb
