Sc8 Be40
1.0
   3.5107800772918130    0.0000000000000000    0.0000000000000002
   0.0000000000000013    7.8361084038425899   -9.0483585927152177
   0.0000000000000000    0.0000000000000000   45.2417929635760814
Sc Be Sc Be Sc Be Sc Be
2 10 2 10 2 10 2 10
Selective dynamics
direct
   0.0000000000000000    0.5000000000000000    0.3333333333333334 T T T Sc
   0.0000000000000000    0.0000000000000000    0.3833333333333334 T T T Sc
   0.0000000000000000    0.3333333333333333    0.3500000000000000 T T T Be
   0.0000000000000000    0.8333333333333334    0.4000000000000000 T T T Be
   0.0000000000000000    0.1666666666666666    0.3666666666666667 T T T Be
   0.0000000000000000    0.6666666666666666    0.3166666666666667 T T T Be
   0.5000000000000000    0.2500000000000000    0.3083333333333333 T T T Be
   0.5000000000000000    0.7500000000000000    0.3583333333333334 T T T Be
   0.5000000000000000    0.5000000000000000    0.3833333333333334 T T T Be
   0.5000000000000000    0.0000000000000000    0.3333333333333334 T T T Be
   0.5000000000000000    0.2500000000000000    0.3583333333333334 T T T Be
   0.5000000000000000    0.7500000000000000    0.3083333333333333 T T T Be
   0.0000000000000000    0.5000000000000000    0.4333333333333333 F F F Sc
   0.0000000000000000    0.0000000000000000    0.4833333333333334 F F F Sc
   0.0000000000000000    0.3333333333333333    0.4500000000000001 F F F Be
   0.0000000000000000    0.8333333333333334    0.5000000000000000 F F F Be
   0.0000000000000000    0.1666666666666666    0.4666666666666667 F F F Be
   0.0000000000000000    0.6666666666666666    0.4166666666666667 F F F Be
   0.5000000000000000    0.2500000000000000    0.4083333333333334 T T T Be
   0.5000000000000000    0.7500000000000000    0.4583333333333334 F F F Be
   0.5000000000000000    0.5000000000000000    0.4833333333333334 F F F Be
   0.5000000000000000    0.0000000000000000    0.4333333333333333 F F F Be
   0.5000000000000000    0.2500000000000000    0.4583333333333334 F F F Be
   0.5000000000000000    0.7500000000000000    0.4083333333333334 T T T Be
   0.0000000000000000    0.5000000000000000    0.5333333333333334 F F F Sc
   0.0000000000000000    0.0000000000000000    0.5833333333333334 F F F Sc
   0.0000000000000000    0.3333333333333333    0.5500000000000000 F F F Be
   0.0000000000000000    0.8333333333333334    0.6000000000000001 T T T Be
   0.0000000000000000    0.1666666666666666    0.5666666666666667 F F F Be
   0.0000000000000000    0.6666666666666666    0.5166666666666667 F F F Be
   0.5000000000000000    0.2500000000000000    0.5083333333333334 F F F Be
   0.5000000000000000    0.7500000000000000    0.5583333333333333 F F F Be
   0.5000000000000000    0.5000000000000000    0.5833333333333334 F F F Be
   0.5000000000000000    0.0000000000000000    0.5333333333333334 F F F Be
   0.5000000000000000    0.2500000000000000    0.5583333333333333 F F F Be
   0.5000000000000000    0.7500000000000000    0.5083333333333334 F F F Be
   0.0000000000000000    0.5000000000000000    0.6333333333333333 T T T Sc
   0.0000000000000000    0.0000000000000000    0.6833333333333333 T T T Sc
   0.0000000000000000    0.3333333333333333    0.6500000000000000 T T T Be
   0.0000000000000000    0.8333333333333334    0.7000000000000000 T T T Be
   0.0000000000000000    0.1666666666666666    0.6666666666666667 T T T Be
   0.0000000000000000    0.6666666666666666    0.6166666666666667 T T T Be
   0.5000000000000000    0.2500000000000000    0.6083333333333334 T T T Be
   0.5000000000000000    0.7500000000000000    0.6583333333333334 T T T Be
   0.5000000000000000    0.5000000000000000    0.6833333333333333 T T T Be
   0.5000000000000000    0.0000000000000000    0.6333333333333333 T T T Be
   0.5000000000000000    0.2500000000000000    0.6583333333333334 T T T Be
   0.5000000000000000    0.7500000000000000    0.6083333333333334 T T T Be
