Sc3 Be15
1.0
   3.9180542019212958    0.0000000000000000   -2.2620896481788035
   0.0000000000000006    3.5107800772918130    0.0000000000000002
   0.0000000000000000    0.0000000000000000   31.6692550745032619
Sc Be Sc Be Sc Be
1 5 1 5 1 5
Selective dynamics
direct
   0.0000000000000000    0.0000000000000000    0.4047619047619048 T T T Sc
   0.3333333333333333    0.0000000000000000    0.3571428571428571 T T T Be
   0.6666666666666667    0.0000000000000000    0.3095238095238095 T T T Be
   0.5000000000000000    0.4999999999999999    0.4047619047619048 T T T Be
   0.0000000000000000    0.4999999999999999    0.3333333333333333 T T T Be
   0.5000000000000000    0.4999999999999999    0.3333333333333333 T T T Be
   0.0000000000000000    0.0000000000000000    0.5476190476190476 F F F Sc
   0.3333333333333333    0.0000000000000000    0.4999999999999999 F F F Be
   0.6666666666666667    0.0000000000000000    0.4523809523809523 F F F Be
   0.5000000000000000    0.4999999999999999    0.5476190476190476 F F F Be
   0.0000000000000000    0.4999999999999999    0.4761904761904762 F F F Be
   0.5000000000000000    0.4999999999999999    0.4761904761904762 F F F Be
   0.0000000000000000    0.0000000000000000    0.6904761904761905 T T T Sc
   0.3333333333333333    0.0000000000000000    0.6428571428571428 T T T Be
   0.6666666666666667    0.0000000000000000    0.5952380952380952 T T T Be
   0.5000000000000000    0.4999999999999999    0.6904761904761905 T T T Be
   0.0000000000000000    0.4999999999999999    0.6190476190476191 T T T Be
   0.5000000000000000    0.4999999999999999    0.6190476190476191 T T T Be
