Co24 Pt8
1.0
   5.2229877197005248    0.0000000000000000    0.0000000000000003
   2.6114938598502642    4.5232400489148121    4.1344914057801523
   0.0000000000000000    0.0000000000000000   37.2104226520213786
Co Pt Co Pt Co Pt Co Pt
6 2 6 2 6 2 6 2
Selective dynamics
direct
   0.1576893880166524    0.6846212239666951    0.2850420862259228 T T T Co
   0.1576893880166524    0.1576893880166524    0.3435900679981497 T T T Co
   0.6846212239666951    0.1576893880166523    0.3435900679981497 T T T Co
   0.8423106119833477    0.3153787760333049    0.3816245804407439 T T T Co
   0.8423106119833476    0.8423106119833476    0.3230765986685170 T T T Co
   0.3153787760333048    0.8423106119833476    0.3230765986685170 T T T Co
   0.3333333333333333    0.3333333333333334    0.3796296296296297 T T T Pt
   0.6666666666666667    0.6666666666666665    0.2870370370370371 T T T Pt
   0.1576893880166524    0.6846212239666951    0.3961531973370339 F F F Co
   0.1576893880166524    0.1576893880166524    0.4547011791092608 F F F Co
   0.6846212239666951    0.1576893880166523    0.4547011791092609 F F F Co
   0.8423106119833477    0.3153787760333049    0.4927356915518550 F F F Co
   0.8423106119833476    0.8423106119833476    0.4341877097796281 F F F Co
   0.3153787760333048    0.8423106119833476    0.4341877097796281 F F F Co
   0.3333333333333333    0.3333333333333334    0.4907407407407408 F F F Pt
   0.6666666666666667    0.6666666666666665    0.3981481481481481 F F F Pt
   0.1576893880166524    0.6846212239666951    0.5072643084481450 F F F Co
   0.1576893880166524    0.1576893880166524    0.5658122902203719 F F F Co
   0.6846212239666951    0.1576893880166523    0.5658122902203719 F F F Co
   0.8423106119833477    0.3153787760333049    0.6038468026629662 F F F Co
   0.8423106119833476    0.8423106119833476    0.5452988208907392 F F F Co
   0.3153787760333048    0.8423106119833476    0.5452988208907392 F F F Co
   0.3333333333333333    0.3333333333333334    0.6018518518518519 F F F Pt
   0.6666666666666667    0.6666666666666665    0.5092592592592593 F F F Pt
   0.1576893880166524    0.6846212239666951    0.6183754195592561 T T T Co
   0.1576893880166524    0.1576893880166524    0.6769234013314831 T T T Co
   0.6846212239666951    0.1576893880166523    0.6769234013314831 T T T Co
   0.8423106119833477    0.3153787760333049    0.7149579137740772 T T T Co
   0.8423106119833476    0.8423106119833476    0.6564099320018503 T T T Co
   0.3153787760333048    0.8423106119833476    0.6564099320018503 T T T Co
   0.3333333333333333    0.3333333333333334    0.7129629629629630 T T T Pt
   0.6666666666666667    0.6666666666666665    0.6203703703703705 T T T Pt
