Co48 Pt16
1.0
  13.8187266070719197    0.0000000000000000    0.0000000000000008
   3.9482076020205468    3.4192480827646397    4.1344914057801523
   0.0000000000000000    0.0000000000000000   41.3449140578015317
Co Pt Co Pt Co Pt Co Pt
12 4 12 4 12 4 12 4
Selective dynamics
direct
   0.5788446940083263    0.1057765299583690    0.3519223470041631 T T T Co
   0.0788446940083262    0.6057765299583691    0.3019223470041631 T T T Co
   0.5788446940083263    0.5788446940083262    0.3046155305991674 T T T Co
   0.0788446940083263    0.0788446940083262    0.3546155305991674 T T T Co
   0.8423106119833477    0.3153787760333048    0.3309621223966696 T T T Co
   0.3423106119833476    0.8153787760333049    0.3809621223966695 T T T Co
   0.9211553059916738    0.3942234700416309    0.3730776529958370 T T T Co
   0.4211553059916739    0.8942234700416309    0.3230776529958369 T T T Co
   0.9211553059916738    0.9211553059916738    0.3203844694008326 T T T Co
   0.4211553059916738    0.4211553059916738    0.3703844694008326 T T T Co
   0.6576893880166523    0.1846212239666951    0.3940378776033305 T T T Co
   0.1576893880166524    0.6846212239666951    0.3440378776033305 T T T Co
   0.6666666666666667    0.6666666666666666    0.3458333333333333 T T T Pt
   0.1666666666666667    0.1666666666666666    0.3958333333333334 T T T Pt
   0.8333333333333334    0.8333333333333333    0.3791666666666667 T T T Pt
   0.3333333333333334    0.3333333333333333    0.3291666666666667 T T T Pt
   0.5788446940083263    0.1057765299583690    0.4519223470041631 F F F Co
   0.0788446940083262    0.6057765299583691    0.4019223470041631 T T T Co
   0.5788446940083263    0.5788446940083262    0.4046155305991674 T T T Co
   0.0788446940083263    0.0788446940083262    0.4546155305991674 F F F Co
   0.8423106119833477    0.3153787760333048    0.4309621223966695 F F F Co
   0.3423106119833476    0.8153787760333049    0.4809621223966695 F F F Co
   0.9211553059916738    0.3942234700416309    0.4730776529958369 F F F Co
   0.4211553059916739    0.8942234700416309    0.4230776529958369 F F F Co
   0.9211553059916738    0.9211553059916738    0.4203844694008326 F F F Co
   0.4211553059916738    0.4211553059916738    0.4703844694008326 F F F Co
   0.6576893880166523    0.1846212239666951    0.4940378776033305 F F F Co
   0.1576893880166524    0.6846212239666951    0.4440378776033305 F F F Co
   0.6666666666666667    0.6666666666666666    0.4458333333333334 F F F Pt
   0.1666666666666667    0.1666666666666666    0.4958333333333333 F F F Pt
   0.8333333333333334    0.8333333333333333    0.4791666666666667 F F F Pt
   0.3333333333333334    0.3333333333333333    0.4291666666666667 F F F Pt
   0.5788446940083263    0.1057765299583690    0.5519223470041631 F F F Co
   0.0788446940083262    0.6057765299583691    0.5019223470041632 F F F Co
   0.5788446940083263    0.5788446940083262    0.5046155305991674 F F F Co
   0.0788446940083263    0.0788446940083262    0.5546155305991674 F F F Co
   0.8423106119833477    0.3153787760333048    0.5309621223966696 F F F Co
   0.3423106119833476    0.8153787760333049    0.5809621223966696 F F F Co
   0.9211553059916738    0.3942234700416309    0.5730776529958369 F F F Co
   0.4211553059916739    0.8942234700416309    0.5230776529958370 F F F Co
   0.9211553059916738    0.9211553059916738    0.5203844694008326 F F F Co
   0.4211553059916738    0.4211553059916738    0.5703844694008326 F F F Co
   0.6576893880166523    0.1846212239666951    0.5940378776033305 T T T Co
   0.1576893880166524    0.6846212239666951    0.5440378776033306 F F F Co
   0.6666666666666667    0.6666666666666666    0.5458333333333334 F F F Pt
   0.1666666666666667    0.1666666666666666    0.5958333333333333 T T T Pt
   0.8333333333333334    0.8333333333333333    0.5791666666666667 F F F Pt
   0.3333333333333334    0.3333333333333333    0.5291666666666667 F F F Pt
   0.5788446940083263    0.1057765299583690    0.6519223470041631 T T T Co
   0.0788446940083262    0.6057765299583691    0.6019223470041630 T T T Co
   0.5788446940083263    0.5788446940083262    0.6046155305991674 T T T Co
   0.0788446940083263    0.0788446940083262    0.6546155305991674 T T T Co
   0.8423106119833477    0.3153787760333048    0.6309621223966695 T T T Co
   0.3423106119833476    0.8153787760333049    0.6809621223966695 T T T Co
   0.9211553059916738    0.3942234700416309    0.6730776529958369 T T T Co
   0.4211553059916739    0.8942234700416309    0.6230776529958368 T T T Co
   0.9211553059916738    0.9211553059916738    0.6203844694008326 T T T Co
   0.4211553059916738    0.4211553059916738    0.6703844694008326 T T T Co
   0.6576893880166523    0.1846212239666951    0.6940378776033305 T T T Co
   0.1576893880166524    0.6846212239666951    0.6440378776033304 T T T Co
   0.6666666666666667    0.6666666666666666    0.6458333333333333 T T T Pt
   0.1666666666666667    0.1666666666666666    0.6958333333333333 T T T Pt
   0.8333333333333334    0.8333333333333333    0.6791666666666667 T T T Pt
   0.3333333333333334    0.3333333333333333    0.6291666666666667 T T T Pt
