V10 Pt20
1.0
   3.8236339345458505    0.0000000000000000   -2.7413687750406153
  -0.0000000000000005    8.4083227343611746   -2.7413687750406162
   0.0000000000000000    0.0000000000000000   32.8964253004873868
V Pt V Pt V Pt V Pt V Pt
2 4 2 4 2 4 2 4 2 4
Selective dynamics
direct
   0.0000000000000000    0.0000000000000000    0.3541666666666666 T T T V
   0.5000000000000000    0.4999999999999998    0.3124999999999999 T T T V
   0.5000000000000000    0.1604730705611316    0.3675394225467609 T T T Pt
   0.0000000000000000    0.3395269294388683    0.2991272441199057 T T T Pt
   0.0000000000000000    0.6604730705611316    0.3258727558800943 T T T Pt
   0.5000000000000000    0.8395269294388681    0.3407939107865723 T T T Pt
   0.0000000000000000    0.0000000000000000    0.4374999999999999 F F F V
   0.5000000000000000    0.4999999999999998    0.3958333333333333 T T T V
   0.5000000000000000    0.1604730705611316    0.4508727558800942 F F F Pt
   0.0000000000000000    0.3395269294388683    0.3824605774532390 T T T Pt
   0.0000000000000000    0.6604730705611316    0.4092060892134276 T T T Pt
   0.5000000000000000    0.8395269294388681    0.4241272441199057 F F F Pt
   0.0000000000000000    0.0000000000000000    0.5208333333333333 F F F V
   0.5000000000000000    0.4999999999999998    0.4791666666666666 F F F V
   0.5000000000000000    0.1604730705611316    0.5342060892134276 F F F Pt
   0.0000000000000000    0.3395269294388683    0.4657939107865723 F F F Pt
   0.0000000000000000    0.6604730705611316    0.4925394225467609 F F F Pt
   0.5000000000000000    0.8395269294388681    0.5074605774532390 F F F Pt
   0.0000000000000000    0.0000000000000000    0.6041666666666666 T T T V
   0.5000000000000000    0.4999999999999998    0.5625000000000000 F F F V
   0.5000000000000000    0.1604730705611316    0.6175394225467610 T T T Pt
   0.0000000000000000    0.3395269294388683    0.5491272441199057 F F F Pt
   0.0000000000000000    0.6604730705611316    0.5758727558800942 F F F Pt
   0.5000000000000000    0.8395269294388681    0.5907939107865723 T T T Pt
   0.0000000000000000    0.0000000000000000    0.6875000000000000 T T T V
   0.5000000000000000    0.4999999999999998    0.6458333333333333 T T T V
   0.5000000000000000    0.1604730705611316    0.7008727558800942 T T T Pt
   0.0000000000000000    0.3395269294388683    0.6324605774532390 T T T Pt
   0.0000000000000000    0.6604730705611316    0.6592060892134276 T T T Pt
   0.5000000000000000    0.8395269294388681    0.6741272441199055 T T T Pt
