Cr40 As40
1.0
   6.3247405335351665    0.0000000000000000   -7.3031812991821328
  -0.0000000000000007   11.2395831175999756   -3.6515906495910668
   0.0000000000000000    0.0000000000000000   43.8190877950927984
Cr As Cr As Cr As Cr As Cr As
8 8 8 8 8 8 8 8 8 8
Selective dynamics
direct
   0.5000000000000000    0.7500000000000000    0.3072916666666667 T T T Cr
   0.0000000000000000    0.2500000000000000    0.3072916666666667 T T T Cr
   0.0000000000000000    0.7500000000000000    0.3489583333333333 T T T Cr
   0.5000000000000000    0.2500000000000001    0.3489583333333333 T T T Cr
   0.5000000000000000    0.5000000000000000    0.3697916666666667 T T T Cr
   0.0000000000000000    0.0000000000000000    0.3697916666666667 T T T Cr
   0.0000000000000000    0.5000000000000000    0.3281250000000000 T T T Cr
   0.5000000000000000    0.0000000000000000    0.3281250000000000 T T T Cr
   0.6666666666666667    0.8750000000000000    0.3038194444444444 T T T As
   0.1666666666666667    0.3750000000000001    0.3038194444444444 T T T As
   0.1666666666666667    0.8750000000000001    0.3454861111111111 T T T As
   0.6666666666666667    0.3750000000000001    0.3454861111111111 T T T As
   0.8333333333333335    0.6250000000000001    0.3524305555555556 T T T As
   0.3333333333333335    0.1250000000000001    0.3524305555555556 T T T As
   0.3333333333333335    0.6250000000000001    0.3107638888888889 T T T As
   0.8333333333333334    0.1250000000000001    0.3107638888888889 T T T As
   0.5000000000000000    0.7500000000000000    0.3906250000000000 T T T Cr
   0.0000000000000000    0.2500000000000000    0.3906250000000000 T T T Cr
   0.0000000000000000    0.7500000000000000    0.4322916666666666 F F F Cr
   0.5000000000000000    0.2500000000000001    0.4322916666666666 F F F Cr
   0.5000000000000000    0.5000000000000000    0.4531250000000000 F F F Cr
   0.0000000000000000    0.0000000000000000    0.4531250000000000 F F F Cr
   0.0000000000000000    0.5000000000000000    0.4114583333333333 F F F Cr
   0.5000000000000000    0.0000000000000000    0.4114583333333333 F F F Cr
   0.6666666666666667    0.8750000000000000    0.3871527777777777 T T T As
   0.1666666666666667    0.3750000000000001    0.3871527777777778 T T T As
   0.1666666666666667    0.8750000000000001    0.4288194444444444 F F F As
   0.6666666666666667    0.3750000000000001    0.4288194444444444 F F F As
   0.8333333333333335    0.6250000000000001    0.4357638888888889 F F F As
   0.3333333333333335    0.1250000000000001    0.4357638888888889 F F F As
   0.3333333333333335    0.6250000000000001    0.3940972222222222 T T T As
   0.8333333333333334    0.1250000000000001    0.3940972222222222 T T T As
   0.5000000000000000    0.7500000000000000    0.4739583333333333 F F F Cr
   0.0000000000000000    0.2500000000000000    0.4739583333333333 F F F Cr
   0.0000000000000000    0.7500000000000000    0.5156250000000000 F F F Cr
   0.5000000000000000    0.2500000000000001    0.5156250000000000 F F F Cr
   0.5000000000000000    0.5000000000000000    0.5364583333333333 F F F Cr
   0.0000000000000000    0.0000000000000000    0.5364583333333333 F F F Cr
   0.0000000000000000    0.5000000000000000    0.4947916666666666 F F F Cr
   0.5000000000000000    0.0000000000000000    0.4947916666666666 F F F Cr
   0.6666666666666667    0.8750000000000000    0.4704861111111110 F F F As
   0.1666666666666667    0.3750000000000001    0.4704861111111111 F F F As
   0.1666666666666667    0.8750000000000001    0.5121527777777778 F F F As
   0.6666666666666667    0.3750000000000001    0.5121527777777778 F F F As
   0.8333333333333335    0.6250000000000001    0.5190972222222222 F F F As
   0.3333333333333335    0.1250000000000001    0.5190972222222222 F F F As
   0.3333333333333335    0.6250000000000001    0.4774305555555556 F F F As
   0.8333333333333334    0.1250000000000001    0.4774305555555555 F F F As
   0.5000000000000000    0.7500000000000000    0.5572916666666667 F F F Cr
   0.0000000000000000    0.2500000000000000    0.5572916666666667 F F F Cr
   0.0000000000000000    0.7500000000000000    0.5989583333333333 T T T Cr
   0.5000000000000000    0.2500000000000001    0.5989583333333333 T T T Cr
   0.5000000000000000    0.5000000000000000    0.6197916666666667 T T T Cr
   0.0000000000000000    0.0000000000000000    0.6197916666666667 T T T Cr
   0.0000000000000000    0.5000000000000000    0.5781250000000000 F F F Cr
   0.5000000000000000    0.0000000000000000    0.5781250000000000 F F F Cr
   0.6666666666666667    0.8750000000000000    0.5538194444444444 F F F As
   0.1666666666666667    0.3750000000000001    0.5538194444444444 F F F As
   0.1666666666666667    0.8750000000000001    0.5954861111111112 F F F As
   0.6666666666666667    0.3750000000000001    0.5954861111111112 F F F As
   0.8333333333333335    0.6250000000000001    0.6024305555555556 T T T As
   0.3333333333333335    0.1250000000000001    0.6024305555555556 T T T As
   0.3333333333333335    0.6250000000000001    0.5607638888888888 F F F As
   0.8333333333333334    0.1250000000000001    0.5607638888888888 F F F As
   0.5000000000000000    0.7500000000000000    0.6406250000000000 T T T Cr
   0.0000000000000000    0.2500000000000000    0.6406250000000000 T T T Cr
   0.0000000000000000    0.7500000000000000    0.6822916666666666 T T T Cr
   0.5000000000000000    0.2500000000000001    0.6822916666666666 T T T Cr
   0.5000000000000000    0.5000000000000000    0.7031250000000000 T T T Cr
   0.0000000000000000    0.0000000000000000    0.7031250000000000 T T T Cr
   0.0000000000000000    0.5000000000000000    0.6614583333333333 T T T Cr
   0.5000000000000000    0.0000000000000000    0.6614583333333333 T T T Cr
   0.6666666666666667    0.8750000000000000    0.6371527777777777 T T T As
   0.1666666666666667    0.3750000000000001    0.6371527777777777 T T T As
   0.1666666666666667    0.8750000000000001    0.6788194444444444 T T T As
   0.6666666666666667    0.3750000000000001    0.6788194444444444 T T T As
   0.8333333333333335    0.6250000000000001    0.6857638888888888 T T T As
   0.3333333333333335    0.1250000000000001    0.6857638888888888 T T T As
   0.3333333333333335    0.6250000000000001    0.6440972222222222 T T T As
   0.8333333333333334    0.1250000000000001    0.6440972222222222 T T T As
