Ni9 Pt3
1.0
   3.6561820162377798    0.0000000000000000    0.0000000000000002
   0.0000000000000006    3.6561820162377798    0.0000000000000002
   0.0000000000000000    0.0000000000000000   29.2494561299022386
Ni Pt Ni Pt Ni Pt
3 1 3 1 3 1
Selective dynamics
direct
   0.0000000000000000    0.5000000000000001    0.3437500000000000 T T T Ni
   0.5000000000000000    0.5000000000000001    0.4062500000000000 T T T Ni
   0.5000000000000000    0.0000000000000000    0.3437500000000000 T T T Ni
   0.0000000000000000    0.0000000000000000    0.4062500000000000 T T T Pt
   0.0000000000000000    0.5000000000000001    0.4687500000000000 F F F Ni
   0.5000000000000000    0.5000000000000001    0.5312500000000000 F F F Ni
   0.5000000000000000    0.0000000000000000    0.4687500000000000 F F F Ni
   0.0000000000000000    0.0000000000000000    0.5312500000000000 F F F Pt
   0.0000000000000000    0.5000000000000001    0.5937500000000000 T T T Ni
   0.5000000000000000    0.5000000000000001    0.6562500000000000 T T T Ni
   0.5000000000000000    0.0000000000000000    0.5937500000000000 T T T Ni
   0.0000000000000000    0.0000000000000000    0.6562500000000000 T T T Pt
