Hf12 Te24
1.0
   3.4431701391573353    0.0000000000000000   -5.9637456201245138
  -0.0000000000000135   14.2569513794710172   -3.9758304134163431
   0.0000000000000000    0.0000000000000000   55.6616257878287755
Hf Te Hf Te Hf Te Hf Te Hf Te Hf Te
2 4 2 4 2 4 2 4 2 4 2 4
Selective dynamics
direct
   0.0000000000000000    0.0000000000000000    0.3392857142857143 T T T Hf
   0.0000000000000000    0.4999999999999999    0.3035714285714285 T T T Hf
   0.6666666666666666    0.1240540261067586    0.3481467161504828 T T T Te
   0.6666666666666666    0.6240540261067585    0.3124324304361970 T T T Te
   0.3333333333333334    0.3759459738932412    0.2947104267066601 T T T Te
   0.3333333333333334    0.8759459738932412    0.3304247124209458 T T T Te
   0.0000000000000000    0.0000000000000000    0.4107142857142857 F F F Hf
   0.0000000000000000    0.4999999999999999    0.3750000000000000 T T T Hf
   0.6666666666666666    0.1240540261067586    0.4195752875790542 F F F Te
   0.6666666666666666    0.6240540261067585    0.3838610018647685 T T T Te
   0.3333333333333334    0.3759459738932412    0.3661389981352315 T T T Te
   0.3333333333333334    0.8759459738932412    0.4018532838495172 T T T Te
   0.0000000000000000    0.0000000000000000    0.4821428571428571 F F F Hf
   0.0000000000000000    0.4999999999999999    0.4464285714285714 F F F Hf
   0.6666666666666666    0.1240540261067586    0.4910038590076256 F F F Te
   0.6666666666666666    0.6240540261067585    0.4552895732933399 F F F Te
   0.3333333333333334    0.3759459738932412    0.4375675695638029 F F F Te
   0.3333333333333334    0.8759459738932412    0.4732818552780886 F F F Te
   0.0000000000000000    0.0000000000000000    0.5535714285714286 F F F Hf
   0.0000000000000000    0.4999999999999999    0.5178571428571428 F F F Hf
   0.6666666666666666    0.1240540261067586    0.5624324304361970 F F F Te
   0.6666666666666666    0.6240540261067585    0.5267181447219114 F F F Te
   0.3333333333333334    0.3759459738932412    0.5089961409923743 F F F Te
   0.3333333333333334    0.8759459738932412    0.5447104267066600 F F F Te
   0.0000000000000000    0.0000000000000000    0.6250000000000000 T T T Hf
   0.0000000000000000    0.4999999999999999    0.5892857142857142 F F F Hf
   0.6666666666666666    0.1240540261067586    0.6338610018647685 T T T Te
   0.6666666666666666    0.6240540261067585    0.5981467161504828 T T T Te
   0.3333333333333334    0.3759459738932412    0.5804247124209458 F F F Te
   0.3333333333333334    0.8759459738932412    0.6161389981352314 T T T Te
   0.0000000000000000    0.0000000000000000    0.6964285714285714 T T T Hf
   0.0000000000000000    0.4999999999999999    0.6607142857142857 T T T Hf
   0.6666666666666666    0.1240540261067586    0.7052895732933400 T T T Te
   0.6666666666666666    0.6240540261067585    0.6695752875790542 T T T Te
   0.3333333333333334    0.3759459738932412    0.6518532838495172 T T T Te
   0.3333333333333334    0.8759459738932412    0.6875675695638029 T T T Te
