Ga24 Pt24
1.0
   4.9711712885481836    0.0000000000000000    0.0000000000000003
   0.0000000000000016    9.9423425770963654   -4.9711712885481827
   0.0000000000000000    0.0000000000000000   34.7981990198372841
Ga Pt Ga Pt Ga Pt
8 8 8 8 8 8
Selective dynamics
direct
   0.9071645784790192    0.4535822892395096    0.3372495525312184 T T T Ga
   0.9071645784790192    0.9535822892395096    0.4086781239597898 F F F Ga
   0.4071645784790193    0.0464177107604904    0.3770361617544958 T T T Ga
   0.4071645784790192    0.5464177107604904    0.3056075903259244 T T T Ga
   0.5928354215209808    0.2035822892395096    0.3280596729657843 T T T Ga
   0.5928354215209808    0.7035822892395096    0.3994882443943558 F F F Ga
   0.0928354215209807    0.2964177107604904    0.3862260413199299 T T T Ga
   0.0928354215209807    0.7964177107604904    0.3147974698913585 T T T Ga
   0.6018102493352515    0.3009051246676258    0.4146736248575539 F F F Pt
   0.6018102493352515    0.8009051246676258    0.3432450534289825 T T T Pt
   0.1018102493352514    0.1990948753323742    0.2996120894281604 T T T Pt
   0.1018102493352514    0.6990948753323742    0.3710406608567318 T T T Pt
   0.8981897506647485    0.0509051246676258    0.3498706964760535 T T T Pt
   0.8981897506647484    0.5509051246676258    0.4212992679046249 F F F Pt
   0.3981897506647485    0.4490948753323742    0.3644150178096608 T T T Pt
   0.3981897506647485    0.9490948753323742    0.2929864463810894 T T T Pt
   0.9071645784790192    0.4535822892395096    0.4801066953883613 F F F Ga
   0.9071645784790192    0.9535822892395096    0.5515352668169327 F F F Ga
   0.4071645784790193    0.0464177107604904    0.5198933046116387 F F F Ga
   0.4071645784790192    0.5464177107604904    0.4484647331830673 F F F Ga
   0.5928354215209808    0.2035822892395096    0.4709168158229272 F F F Ga
   0.5928354215209808    0.7035822892395096    0.5423453872514986 F F F Ga
   0.0928354215209807    0.2964177107604904    0.5290831841770728 F F F Ga
   0.0928354215209807    0.7964177107604904    0.4576546127485014 F F F Ga
   0.6018102493352515    0.3009051246676258    0.5575307677146968 F F F Pt
   0.6018102493352515    0.8009051246676258    0.4861021962861253 F F F Pt
   0.1018102493352514    0.1990948753323742    0.4424692322853032 F F F Pt
   0.1018102493352514    0.6990948753323742    0.5138978037138746 F F F Pt
   0.8981897506647485    0.0509051246676258    0.4927278393331963 F F F Pt
   0.8981897506647484    0.5509051246676258    0.5641564107617677 F F F Pt
   0.3981897506647485    0.4490948753323742    0.5072721606668036 F F F Pt
   0.3981897506647485    0.9490948753323742    0.4358435892382322 F F F Pt
   0.9071645784790192    0.4535822892395096    0.6229638382455041 T T T Ga
   0.9071645784790192    0.9535822892395096    0.6943924096740755 T T T Ga
   0.4071645784790193    0.0464177107604904    0.6627504474687815 T T T Ga
   0.4071645784790192    0.5464177107604904    0.5913218760402101 F F F Ga
   0.5928354215209808    0.2035822892395096    0.6137739586800700 T T T Ga
   0.5928354215209808    0.7035822892395096    0.6852025301086415 T T T Ga
   0.0928354215209807    0.2964177107604904    0.6719403270342157 T T T Ga
   0.0928354215209807    0.7964177107604904    0.6005117556056442 F F F Ga
   0.6018102493352515    0.3009051246676258    0.7003879105718396 T T T Pt
   0.6018102493352515    0.8009051246676258    0.6289593391432682 T T T Pt
   0.1018102493352514    0.1990948753323742    0.5853263751424460 F F F Pt
   0.1018102493352514    0.6990948753323742    0.6567549465710175 T T T Pt
   0.8981897506647485    0.0509051246676258    0.6355849821903392 T T T Pt
   0.8981897506647484    0.5509051246676258    0.7070135536189106 T T T Pt
   0.3981897506647485    0.4490948753323742    0.6501293035239465 T T T Pt
   0.3981897506647485    0.9490948753323742    0.5787007320953751 F F F Pt
