Ga16 Pt16
1.0
   4.9711712885481836    0.0000000000000000    4.9711712885481827
   4.9711712885481827    4.9711712885481836   -0.0000000000000011
   0.0000000000000000    0.0000000000000000   49.7117128854818375
Ga Pt Ga Pt Ga Pt Ga Pt
4 4 4 4 4 4 4 4
Selective dynamics
direct
   0.8143291569580384    0.0928354215209808    0.3903506264562943 T T T Ga
   0.0000000000000000    0.5928354215209807    0.3532164578479019 T T T Ga
   0.6856708430419616    0.4071645784790190    0.3532164578479020 T T T Ga
   0.4999999999999998    0.9071645784790191    0.3532164578479020 T T T Ga
   0.2036204986705031    0.3981897506647483    0.3819569251994245 T T T Pt
   0.9999999999999998    0.8981897506647484    0.3226810249335252 T T T Pt
   0.2963795013294969    0.1018102493352515    0.3226810249335252 T T T Pt
   0.5000000000000000    0.6018102493352514    0.3226810249335252 T T T Pt
   0.8143291569580384    0.0928354215209808    0.4903506264562942 F F F Ga
   0.0000000000000000    0.5928354215209807    0.4532164578479019 F F F Ga
   0.6856708430419616    0.4071645784790190    0.4532164578479019 F F F Ga
   0.4999999999999998    0.9071645784790191    0.4532164578479020 F F F Ga
   0.2036204986705031    0.3981897506647483    0.4819569251994246 F F F Pt
   0.9999999999999998    0.8981897506647484    0.4226810249335252 T T T Pt
   0.2963795013294969    0.1018102493352515    0.4226810249335252 T T T Pt
   0.5000000000000000    0.6018102493352514    0.4226810249335252 T T T Pt
   0.8143291569580384    0.0928354215209808    0.5903506264562943 T T T Ga
   0.0000000000000000    0.5928354215209807    0.5532164578479020 F F F Ga
   0.6856708430419616    0.4071645784790190    0.5532164578479020 F F F Ga
   0.4999999999999998    0.9071645784790191    0.5532164578479020 F F F Ga
   0.2036204986705031    0.3981897506647483    0.5819569251994245 F F F Pt
   0.9999999999999998    0.8981897506647484    0.5226810249335252 F F F Pt
   0.2963795013294969    0.1018102493352515    0.5226810249335252 F F F Pt
   0.5000000000000000    0.6018102493352514    0.5226810249335252 F F F Pt
   0.8143291569580384    0.0928354215209808    0.6903506264562942 T T T Ga
   0.0000000000000000    0.5928354215209807    0.6532164578479018 T T T Ga
   0.6856708430419616    0.4071645784790190    0.6532164578479019 T T T Ga
   0.4999999999999998    0.9071645784790191    0.6532164578479019 T T T Ga
   0.2036204986705031    0.3981897506647483    0.6819569251994245 T T T Pt
   0.9999999999999998    0.8981897506647484    0.6226810249335252 T T T Pt
   0.2963795013294969    0.1018102493352515    0.6226810249335252 T T T Pt
   0.5000000000000000    0.6018102493352514    0.6226810249335252 T T T Pt
