Ga12 Pt12
1.0
   4.9711712885481836    0.0000000000000000    0.0000000000000003
  -0.0000000000000003    4.9711712885481836    4.9711712885481827
   0.0000000000000000    0.0000000000000000   39.7693703083854686
Ga Pt Ga Pt Ga Pt
4 4 4 4 4 4
Selective dynamics
direct
   0.9071645784790192    0.0928354215209808    0.3361661446197548 T T T Ga
   0.4071645784790192    0.4071645784790192    0.3200838553802452 T T T Ga
   0.5928354215209808    0.9071645784790192    0.4218750000000000 T T T Ga
   0.0928354215209807    0.5928354215209808    0.3593750000000000 T T T Ga
   0.6018102493352515    0.3981897506647484    0.3848275623338129 T T T Pt
   0.1018102493352514    0.1018102493352516    0.3964224376661871 T T T Pt
   0.8981897506647484    0.6018102493352515    0.4218750000000000 T T T Pt
   0.3981897506647485    0.8981897506647484    0.3593750000000000 T T T Pt
   0.9071645784790192    0.0928354215209808    0.4611661446197548 F F F Ga
   0.4071645784790192    0.4071645784790192    0.4450838553802452 F F F Ga
   0.5928354215209808    0.9071645784790192    0.5468750000000000 F F F Ga
   0.0928354215209807    0.5928354215209808    0.4843750000000000 F F F Ga
   0.6018102493352515    0.3981897506647484    0.5098275623338129 F F F Pt
   0.1018102493352514    0.1018102493352516    0.5214224376661871 F F F Pt
   0.8981897506647484    0.6018102493352515    0.5468750000000000 F F F Pt
   0.3981897506647485    0.8981897506647484    0.4843750000000000 F F F Pt
   0.9071645784790192    0.0928354215209808    0.5861661446197548 T T T Ga
   0.4071645784790192    0.4071645784790192    0.5700838553802452 T T T Ga
   0.5928354215209808    0.9071645784790192    0.6718750000000000 T T T Ga
   0.0928354215209807    0.5928354215209808    0.6093750000000000 T T T Ga
   0.6018102493352515    0.3981897506647484    0.6348275623338129 T T T Pt
   0.1018102493352514    0.1018102493352516    0.6464224376661871 T T T Pt
   0.8981897506647484    0.6018102493352515    0.6718750000000000 T T T Pt
   0.3981897506647485    0.8981897506647484    0.6093750000000000 T T T Pt
