Al24 Au24
1.0
   7.1899474213075223    0.0000000000000000    0.0465764323483538
  10.8693343971772816    6.1771721202316083    6.4531037968671852
   0.0000000000000000    0.0000000000000000   44.5196565251933265
Al Au Al Au Al Au
8 8 8 8 8 8
Selective dynamics
direct
   0.2500000000000000    0.9637890691057933    0.3720330751351310 T T T Al
   0.2500000000000000    0.4637890691057933    0.3006045037065595 T T T Al
   0.7499999999999999    0.0362109308942068    0.3422526391505833 T T T Al
   0.7499999999999999    0.5362109308942067    0.4136812105791547 F F F Al
   0.2500000000000000    0.2139897093849115    0.3874213632477073 T T T Al
   0.2500000000000000    0.7139897093849115    0.3159927918191358 T T T Al
   0.7499999999999999    0.7860102906150886    0.3268643510380070 T T T Al
   0.7499999999999999    0.2860102906150886    0.3982929224665784 F F F Al
   0.2500000000000000    0.1307341499611497    0.3114584761892947 T T T Au
   0.2500000000000000    0.6307341499611496    0.3828870476178662 T T T Au
   0.7499999999999999    0.8692658500388505    0.4028272380964195 F F F Au
   0.7499999999999999    0.3692658500388505    0.3313986666678481 T T T Au
   0.2500000000000000    0.8778961473067427    0.3300871859282459 T T T Au
   0.2500000000000000    0.3778961473067426    0.4015157573568173 F F F Au
   0.7499999999999999    0.1221038526932575    0.3841985283574683 T T T Au
   0.7499999999999999    0.6221038526932574    0.3127699569288969 T T T Au
   0.2500000000000000    0.9637890691057933    0.5148902179922737 F F F Al
   0.2500000000000000    0.4637890691057933    0.4434616465637023 F F F Al
   0.7499999999999999    0.0362109308942068    0.4851097820077261 F F F Al
   0.7499999999999999    0.5362109308942067    0.5565383534362975 F F F Al
   0.2500000000000000    0.2139897093849115    0.5302785061048501 F F F Al
   0.2500000000000000    0.7139897093849115    0.4588499346762787 F F F Al
   0.7499999999999999    0.7860102906150886    0.4697214938951498 F F F Al
   0.7499999999999999    0.2860102906150886    0.5411500653237213 F F F Al
   0.2500000000000000    0.1307341499611497    0.4543156190464376 F F F Au
   0.2500000000000000    0.6307341499611496    0.5257441904750091 F F F Au
   0.7499999999999999    0.8692658500388505    0.5456843809535623 F F F Au
   0.7499999999999999    0.3692658500388505    0.4742558095249909 F F F Au
   0.2500000000000000    0.8778961473067427    0.4729443287853888 F F F Au
   0.2500000000000000    0.3778961473067426    0.5443729002139602 F F F Au
   0.7499999999999999    0.1221038526932575    0.5270556712146112 F F F Au
   0.7499999999999999    0.6221038526932574    0.4556270997860398 F F F Au
   0.2500000000000000    0.9637890691057933    0.6577473608494167 T T T Al
   0.2500000000000000    0.4637890691057933    0.5863187894208453 F F F Al
   0.7499999999999999    0.0362109308942068    0.6279669248648689 T T T Al
   0.7499999999999999    0.5362109308942067    0.6993954962934404 T T T Al
   0.2500000000000000    0.2139897093849115    0.6731356489619930 T T T Al
   0.2500000000000000    0.7139897093849115    0.6017070775334215 F F F Al
   0.7499999999999999    0.7860102906150886    0.6125786367522927 T T T Al
   0.7499999999999999    0.2860102906150886    0.6840072081808641 T T T Al
   0.2500000000000000    0.1307341499611497    0.5971727619035805 F F F Au
   0.2500000000000000    0.6307341499611496    0.6686013333321519 T T T Au
   0.7499999999999999    0.8692658500388505    0.6885415238107052 T T T Au
   0.7499999999999999    0.3692658500388505    0.6171129523821337 T T T Au
   0.2500000000000000    0.8778961473067427    0.6158014716425316 T T T Au
   0.2500000000000000    0.3778961473067426    0.6872300430711030 T T T Au
   0.7499999999999999    0.1221038526932575    0.6699128140717541 T T T Au
   0.7499999999999999    0.6221038526932574    0.5984842426431826 F F F Au
