Al24 Pt24
1.0
   4.9142404494491165    0.0000000000000000    0.0000000000000003
   0.0000000000000016    9.8284808988982313   -4.9142404494491156
   0.0000000000000000    0.0000000000000000   34.3996831461438148
Al Pt Al Pt Al Pt
8 8 8 8 8 8
Selective dynamics
direct
   0.1559537109111062    0.0779768554555531    0.3905615094809513 T T T Al
   0.1559537109111062    0.5779768554555531    0.3191329380523799 T T T Al
   0.6559537109111062    0.4220231445444469    0.3237242048047629 T T T Al
   0.6559537109111062    0.9220231445444469    0.3951527762333343 T T T Al
   0.8440462890888938    0.1720231445444469    0.3325681222079361 T T T Al
   0.8440462890888938    0.6720231445444469    0.4039966936365076 T T T Al
   0.3440462890888939    0.3279768554555531    0.3817175920777781 T T T Al
   0.3440462890888938    0.8279768554555531    0.3102890206492067 T T T Al
   0.8450460644382147    0.4225230322191074    0.3953670138081888 T T T Pt
   0.8450460644382147    0.9225230322191074    0.3239384423796174 T T T Pt
   0.3450460644382147    0.0774769677808926    0.3189187004775254 T T T Pt
   0.3450460644382147    0.5774769677808926    0.3903472719060969 T T T Pt
   0.1549539355617853    0.3274769677808926    0.3103604331741582 T T T Pt
   0.1549539355617854    0.8274769677808926    0.3817890046027296 T T T Pt
   0.6549539355617853    0.1725230322191074    0.4039252811115561 T T T Pt
   0.6549539355617853    0.6725230322191074    0.3324967096829846 T T T Pt
   0.1559537109111062    0.0779768554555531    0.5334186523380942 F F F Al
   0.1559537109111062    0.5779768554555531    0.4619900809095227 F F F Al
   0.6559537109111062    0.4220231445444469    0.4665813476619058 F F F Al
   0.6559537109111062    0.9220231445444469    0.5380099190904772 F F F Al
   0.8440462890888938    0.1720231445444469    0.4754252650650790 F F F Al
   0.8440462890888938    0.6720231445444469    0.5468538364936504 F F F Al
   0.3440462890888939    0.3279768554555531    0.5245747349349210 F F F Al
   0.3440462890888938    0.8279768554555531    0.4531461635063495 F F F Al
   0.8450460644382147    0.4225230322191074    0.5382241566653316 F F F Pt
   0.8450460644382147    0.9225230322191074    0.4667955852367603 F F F Pt
   0.3450460644382147    0.0774769677808926    0.4617758433346683 F F F Pt
   0.3450460644382147    0.5774769677808926    0.5332044147632397 F F F Pt
   0.1549539355617853    0.3274769677808926    0.4532175760313010 F F F Pt
   0.1549539355617854    0.8274769677808926    0.5246461474598725 F F F Pt
   0.6549539355617853    0.1725230322191074    0.5467824239686989 F F F Pt
   0.6549539355617853    0.6725230322191074    0.4753538525401275 F F F Pt
   0.1559537109111062    0.0779768554555531    0.6762757951952370 T T T Al
   0.1559537109111062    0.5779768554555531    0.6048472237666656 T T T Al
   0.6559537109111062    0.4220231445444469    0.6094384905190486 T T T Al
   0.6559537109111062    0.9220231445444469    0.6808670619476200 T T T Al
   0.8440462890888938    0.1720231445444469    0.6182824079222218 T T T Al
   0.8440462890888938    0.6720231445444469    0.6897109793507933 T T T Al
   0.3440462890888939    0.3279768554555531    0.6674318777920638 T T T Al
   0.3440462890888938    0.8279768554555531    0.5960033063634924 T T T Al
   0.8450460644382147    0.4225230322191074    0.6810812995224745 T T T Pt
   0.8450460644382147    0.9225230322191074    0.6096527280939031 T T T Pt
   0.3450460644382147    0.0774769677808926    0.6046329861918112 T T T Pt
   0.3450460644382147    0.5774769677808926    0.6760615576203826 T T T Pt
   0.1549539355617853    0.3274769677808926    0.5960747188884439 T T T Pt
   0.1549539355617854    0.8274769677808926    0.6675032903170153 T T T Pt
   0.6549539355617853    0.1725230322191074    0.6896395668258417 T T T Pt
   0.6549539355617853    0.6725230322191074    0.6182109953972703 T T T Pt
