Al16 Pt16
1.0
   4.9142404494491165    0.0000000000000000   -4.9142404494491156
  -0.0000000000000003    4.9142404494491165   -4.9142404494491165
   0.0000000000000000    0.0000000000000000   49.1424044944911671
Al Pt Al Pt Al Pt Al Pt
4 4 4 4 4 4 4 4
Selective dynamics
direct
   0.8440462890888939    0.8440462890888939    0.3907138867266682 T T T Al
   0.1559537109111062    0.3440462890888938    0.3530953710911106 T T T Al
   0.6559537109111062    0.1559537109111063    0.3530953710911106 T T T Al
   0.3440462890888938    0.6559537109111062    0.3530953710911106 T T T Al
   0.1549539355617853    0.1549539355617853    0.3839861806685356 T T T Pt
   0.8450460644382147    0.6549539355617854    0.3220046064438215 T T T Pt
   0.3450460644382147    0.8450460644382147    0.3220046064438215 T T T Pt
   0.6549539355617853    0.3450460644382148    0.3220046064438215 T T T Pt
   0.8440462890888939    0.8440462890888939    0.4907138867266682 F F F Al
   0.1559537109111062    0.3440462890888938    0.4530953710911106 F F F Al
   0.6559537109111062    0.1559537109111063    0.4530953710911106 F F F Al
   0.3440462890888938    0.6559537109111062    0.4530953710911106 F F F Al
   0.1549539355617853    0.1549539355617853    0.4839861806685356 F F F Pt
   0.8450460644382147    0.6549539355617854    0.4220046064438215 T T T Pt
   0.3450460644382147    0.8450460644382147    0.4220046064438215 T T T Pt
   0.6549539355617853    0.3450460644382148    0.4220046064438215 T T T Pt
   0.8440462890888939    0.8440462890888939    0.5907138867266681 T T T Al
   0.1559537109111062    0.3440462890888938    0.5530953710911106 F F F Al
   0.6559537109111062    0.1559537109111063    0.5530953710911106 F F F Al
   0.3440462890888938    0.6559537109111062    0.5530953710911106 F F F Al
   0.1549539355617853    0.1549539355617853    0.5839861806685356 F F F Pt
   0.8450460644382147    0.6549539355617854    0.5220046064438215 F F F Pt
   0.3450460644382147    0.8450460644382147    0.5220046064438215 F F F Pt
   0.6549539355617853    0.3450460644382148    0.5220046064438215 F F F Pt
   0.8440462890888939    0.8440462890888939    0.6907138867266682 T T T Al
   0.1559537109111062    0.3440462890888938    0.6530953710911106 T T T Al
   0.6559537109111062    0.1559537109111063    0.6530953710911106 T T T Al
   0.3440462890888938    0.6559537109111062    0.6530953710911106 T T T Al
   0.1549539355617853    0.1549539355617853    0.6839861806685356 T T T Pt
   0.8450460644382147    0.6549539355617854    0.6220046064438214 T T T Pt
   0.3450460644382147    0.8450460644382147    0.6220046064438214 T T T Pt
   0.6549539355617853    0.3450460644382148    0.6220046064438214 T T T Pt
