Ti48 Al16
1.0
  15.2126119065335672    0.0000000000000000    0.0000000000000009
   4.3464605447238762    3.7641452482776283    4.6547459088150092
   0.0000000000000000    0.0000000000000000   46.5474590881500916
Ti Al Ti Al Ti Al Ti Al
12 4 12 4 12 4 12 4
Selective dynamics
direct
   0.9151580341135154    0.4242098294324224    0.3200790170567577 T T T Ti
   0.4151580341135154    0.9242098294324224    0.3700790170567577 T T T Ti
   0.8303160682270309    0.3393678635459378    0.3785632136454062 T T T Ti
   0.3303160682270309    0.8393678635459378    0.3285632136454062 T T T Ti
   0.5848419658864844    0.5848419658864844    0.3540158034113515 T T T Ti
   0.0848419658864844    0.0848419658864844    0.3040158034113515 T T T Ti
   0.9151580341135154    0.9151580341135154    0.3709841965886485 T T T Ti
   0.4151580341135154    0.4151580341135154    0.3209841965886485 T T T Ti
   0.6696839317729690    0.1606321364540619    0.3464367863545938 T T T Ti
   0.1696839317729690    0.6606321364540618    0.3964367863545938 T T T Ti
   0.5848419658864845    0.0757901705675773    0.3049209829432423 T T T Ti
   0.0848419658864845    0.5757901705675773    0.3549209829432423 T T T Ti
   0.6666666666666666    0.6666666666666665    0.3958333333333334 T T T Al
   0.1666666666666666    0.1666666666666665    0.3458333333333333 T T T Al
   0.8333333333333334    0.8333333333333331    0.3291666666666667 T T T Al
   0.3333333333333333    0.3333333333333331    0.3791666666666667 T T T Al
   0.9151580341135154    0.4242098294324224    0.4200790170567578 F F F Ti
   0.4151580341135154    0.9242098294324224    0.4700790170567578 F F F Ti
   0.8303160682270309    0.3393678635459378    0.4785632136454062 F F F Ti
   0.3303160682270309    0.8393678635459378    0.4285632136454062 F F F Ti
   0.5848419658864844    0.5848419658864844    0.4540158034113516 F F F Ti
   0.0848419658864844    0.0848419658864844    0.4040158034113516 T T T Ti
   0.9151580341135154    0.9151580341135154    0.4709841965886484 F F F Ti
   0.4151580341135154    0.4151580341135154    0.4209841965886484 F F F Ti
   0.6696839317729690    0.1606321364540619    0.4464367863545938 F F F Ti
   0.1696839317729690    0.6606321364540618    0.4964367863545938 F F F Ti
   0.5848419658864845    0.0757901705675773    0.4049209829432422 T T T Ti
   0.0848419658864845    0.5757901705675773    0.4549209829432422 F F F Ti
   0.6666666666666666    0.6666666666666665    0.4958333333333333 F F F Al
   0.1666666666666666    0.1666666666666665    0.4458333333333333 F F F Al
   0.8333333333333334    0.8333333333333331    0.4291666666666667 F F F Al
   0.3333333333333333    0.3333333333333331    0.4791666666666667 F F F Al
   0.9151580341135154    0.4242098294324224    0.5200790170567577 F F F Ti
   0.4151580341135154    0.9242098294324224    0.5700790170567578 F F F Ti
   0.8303160682270309    0.3393678635459378    0.5785632136454062 F F F Ti
   0.3303160682270309    0.8393678635459378    0.5285632136454061 F F F Ti
   0.5848419658864844    0.5848419658864844    0.5540158034113516 F F F Ti
   0.0848419658864844    0.0848419658864844    0.5040158034113515 F F F Ti
   0.9151580341135154    0.9151580341135154    0.5709841965886484 F F F Ti
   0.4151580341135154    0.4151580341135154    0.5209841965886485 F F F Ti
   0.6696839317729690    0.1606321364540619    0.5464367863545938 F F F Ti
   0.1696839317729690    0.6606321364540618    0.5964367863545939 T T T Ti
   0.5848419658864845    0.0757901705675773    0.5049209829432423 F F F Ti
   0.0848419658864845    0.5757901705675773    0.5549209829432422 F F F Ti
   0.6666666666666666    0.6666666666666665    0.5958333333333333 T T T Al
   0.1666666666666666    0.1666666666666665    0.5458333333333334 F F F Al
   0.8333333333333334    0.8333333333333331    0.5291666666666667 F F F Al
   0.3333333333333333    0.3333333333333331    0.5791666666666667 F F F Al
   0.9151580341135154    0.4242098294324224    0.6200790170567577 T T T Ti
   0.4151580341135154    0.9242098294324224    0.6700790170567578 T T T Ti
   0.8303160682270309    0.3393678635459378    0.6785632136454062 T T T Ti
   0.3303160682270309    0.8393678635459378    0.6285632136454062 T T T Ti
   0.5848419658864844    0.5848419658864844    0.6540158034113515 T T T Ti
   0.0848419658864844    0.0848419658864844    0.6040158034113515 T T T Ti
   0.9151580341135154    0.9151580341135154    0.6709841965886485 T T T Ti
   0.4151580341135154    0.4151580341135154    0.6209841965886485 T T T Ti
   0.6696839317729690    0.1606321364540619    0.6464367863545938 T T T Ti
   0.1696839317729690    0.6606321364540618    0.6964367863545938 T T T Ti
   0.5848419658864845    0.0757901705675773    0.6049209829432423 T T T Ti
   0.0848419658864845    0.5757901705675773    0.6549209829432423 T T T Ti
   0.6666666666666666    0.6666666666666665    0.6958333333333333 T T T Al
   0.1666666666666666    0.1666666666666665    0.6458333333333333 T T T Al
   0.8333333333333334    0.8333333333333331    0.6291666666666667 T T T Al
   0.3333333333333333    0.3333333333333331    0.6791666666666667 T T T Al
