Ba32 Pd32
1.0
  23.9200220522076634    0.0000000000000000   -4.5020076299131997
  -0.0000000000000003    4.7134732790665161   -4.5020076299132041
   0.0000000000000000    0.0000000000000000   40.5180686692188345
Ba Pd Ba Pd Ba Pd Ba Pd
8 8 8 8 8 8 8 8
Selective dynamics
direct
   0.3193210498737464    0.7500000000000001    0.3827023388748607 T T T Ba
   0.8193210498737464    0.7500000000000002    0.3271467833193052 T T T Ba
   0.4306789501262535    0.2500000000000001    0.2839643277918060 T T T Ba
   0.9306789501262535    0.2500000000000001    0.3395198833473615 T T T Ba
   0.0693210498737464    0.7500000000000000    0.2993690055415274 T T T Ba
   0.5693210498737464    0.7500000000000001    0.3549245610970830 T T T Ba
   0.1806789501262535    0.2500000000000000    0.3117421055695837 T T T Ba
   0.6806789501262536    0.2500000000000001    0.3672976611251393 T T T Ba
   0.4663422116557001    0.7500000000000001    0.2879269124061890 T T T Pd
   0.9663422116557001    0.7500000000000002    0.3434824679617445 T T T Pd
   0.2836577883442999    0.2500000000000001    0.3787397542604778 T T T Pd
   0.7836577883442998    0.2500000000000001    0.3231841987049222 T T T Pd
   0.2163422116557001    0.7500000000000001    0.3157046901839667 T T T Pd
   0.7163422116557000    0.7500000000000002    0.3712602457395222 T T T Pd
   0.0336577883442999    0.2500000000000000    0.2954064209271444 T T T Pd
   0.5336577883442999    0.2500000000000001    0.3509619764827000 T T T Pd
   0.3193210498737464    0.7500000000000001    0.4938134499859719 F F F Ba
   0.8193210498737464    0.7500000000000002    0.4382578944304163 F F F Ba
   0.4306789501262535    0.2500000000000001    0.3950754389029171 F F F Ba
   0.9306789501262535    0.2500000000000001    0.4506309944584726 F F F Ba
   0.0693210498737464    0.7500000000000000    0.4104801166526385 F F F Ba
   0.5693210498737464    0.7500000000000001    0.4660356722081941 F F F Ba
   0.1806789501262535    0.2500000000000000    0.4228532166806949 F F F Ba
   0.6806789501262536    0.2500000000000001    0.4784087722362504 F F F Ba
   0.4663422116557001    0.7500000000000001    0.3990380235173000 F F F Pd
   0.9663422116557001    0.7500000000000002    0.4545935790728556 F F F Pd
   0.2836577883442999    0.2500000000000001    0.4898508653715888 F F F Pd
   0.7836577883442998    0.2500000000000001    0.4342953098160333 F F F Pd
   0.2163422116557001    0.7500000000000001    0.4268158012950778 F F F Pd
   0.7163422116557000    0.7500000000000002    0.4823713568506334 F F F Pd
   0.0336577883442999    0.2500000000000000    0.4065175320382555 F F F Pd
   0.5336577883442999    0.2500000000000001    0.4620730875938111 F F F Pd
   0.3193210498737464    0.7500000000000001    0.6049245610970829 F F F Ba
   0.8193210498737464    0.7500000000000002    0.5493690055415275 F F F Ba
   0.4306789501262535    0.2500000000000001    0.5061865500140281 F F F Ba
   0.9306789501262535    0.2500000000000001    0.5617421055695837 F F F Ba
   0.0693210498737464    0.7500000000000000    0.5215912277637496 F F F Ba
   0.5693210498737464    0.7500000000000001    0.5771467833193051 F F F Ba
   0.1806789501262535    0.2500000000000000    0.5339643277918059 F F F Ba
   0.6806789501262536    0.2500000000000001    0.5895198833473615 F F F Ba
   0.4663422116557001    0.7500000000000001    0.5101491346284112 F F F Pd
   0.9663422116557001    0.7500000000000002    0.5657046901839666 F F F Pd
   0.2836577883442999    0.2500000000000001    0.6009619764827000 F F F Pd
   0.7836577883442998    0.2500000000000001    0.5454064209271444 F F F Pd
   0.2163422116557001    0.7500000000000001    0.5379269124061890 F F F Pd
   0.7163422116557000    0.7500000000000002    0.5934824679617444 F F F Pd
   0.0336577883442999    0.2500000000000000    0.5176286431493666 F F F Pd
   0.5336577883442999    0.2500000000000001    0.5731841987049222 F F F Pd
   0.3193210498737464    0.7500000000000001    0.7160356722081941 T T T Ba
   0.8193210498737464    0.7500000000000002    0.6604801166526385 T T T Ba
   0.4306789501262535    0.2500000000000001    0.6172976611251393 T T T Ba
   0.9306789501262535    0.2500000000000001    0.6728532166806949 T T T Ba
   0.0693210498737464    0.7500000000000000    0.6327023388748607 T T T Ba
   0.5693210498737464    0.7500000000000001    0.6882578944304163 T T T Ba
   0.1806789501262535    0.2500000000000000    0.6450754389029171 T T T Ba
   0.6806789501262536    0.2500000000000001    0.7006309944584725 T T T Ba
   0.4663422116557001    0.7500000000000001    0.6212602457395222 T T T Pd
   0.9663422116557001    0.7500000000000002    0.6768158012950778 T T T Pd
   0.2836577883442999    0.2500000000000001    0.7120730875938110 T T T Pd
   0.7836577883442998    0.2500000000000001    0.6565175320382555 T T T Pd
   0.2163422116557001    0.7500000000000001    0.6490380235173000 T T T Pd
   0.7163422116557000    0.7500000000000002    0.7045935790728556 T T T Pd
   0.0336577883442999    0.2500000000000000    0.6287397542604778 T T T Pd
   0.5336577883442999    0.2500000000000001    0.6842953098160334 T T T Pd
