Co96 W32
1.0
   8.8448003078691890    0.0000000000000000  -10.2130956773535235
   0.0000000000000013    8.1736694913945307   -5.1065478386767591
   0.0000000000000000    0.0000000000000000   45.9589305480908550
Co W Co W Co W Co W
24 8 24 8 24 8 24 8
Selective dynamics
direct
   0.9191679717199771    0.8750000000000001    0.3023155398444318 T T T Co
   0.4191679717199772    0.3750000000000001    0.3023155398444318 T T T Co
   0.4191679717199772    0.8750000000000001    0.3578710953999873 T T T Co
   0.9191679717199771    0.3750000000000001    0.3578710953999873 T T T Co
   0.8383359434399543    0.6250000000000000    0.2835190985422121 T T T Co
   0.3383359434399543    0.1250000000000001    0.2835190985422121 T T T Co
   0.3383359434399543    0.6250000000000001    0.3390746540977676 T T T Co
   0.8383359434399543    0.1250000000000001    0.3390746540977676 T T T Co
   0.5808320282800229    0.6250000000000000    0.3660186635244419 T T T Co
   0.0808320282800228    0.1250000000000001    0.3660186635244420 T T T Co
   0.0808320282800228    0.6250000000000000    0.3104631079688864 T T T Co
   0.5808320282800228    0.1250000000000001    0.3104631079688864 T T T Co
   0.9191679717199771    0.8750000000000001    0.3562035586977803 T T T Co
   0.4191679717199771    0.3750000000000001    0.3562035586977803 T T T Co
   0.4191679717199771    0.8750000000000001    0.3006480031422247 T T T Co
   0.9191679717199770    0.3750000000000001    0.3006480031422247 T T T Co
   0.6616640565600456    0.8750000000000001    0.3275920125688990 T T T Co
   0.1616640565600456    0.3750000000000001    0.3275920125688990 T T T Co
   0.1616640565600456    0.8750000000000001    0.3831475681244546 T T T Co
   0.6616640565600456    0.3750000000000001    0.3831475681244546 T T T Co
   0.5808320282800228    0.6250000000000000    0.3087955712666793 T T T Co
   0.0808320282800228    0.1250000000000000    0.3087955712666793 T T T Co
   0.0808320282800228    0.6250000000000000    0.3643511268222349 T T T Co
   0.5808320282800227    0.1250000000000001    0.3643511268222349 T T T Co
   0.6666666666666666    0.8750000000000001    0.3842592592592593 T T T W
   0.1666666666666666    0.3750000000000001    0.3842592592592593 T T T W
   0.1666666666666666    0.8750000000000001    0.3287037037037037 T T T W
   0.6666666666666666    0.3750000000000001    0.3287037037037037 T T T W
   0.8333333333333334    0.6250000000000000    0.3379629629629630 T T T W
   0.3333333333333334    0.1250000000000000    0.3379629629629630 T T T W
   0.3333333333333334    0.6250000000000000    0.2824074074074074 T T T W
   0.8333333333333334    0.1250000000000001    0.2824074074074074 T T T W
   0.9191679717199771    0.8750000000000001    0.4134266509555429 F F F Co
   0.4191679717199772    0.3750000000000001    0.4134266509555429 F F F Co
   0.4191679717199772    0.8750000000000001    0.4689822065110985 F F F Co
   0.9191679717199771    0.3750000000000001    0.4689822065110985 F F F Co
   0.8383359434399543    0.6250000000000000    0.3946302096533232 F F F Co
   0.3383359434399543    0.1250000000000001    0.3946302096533232 F F F Co
   0.3383359434399543    0.6250000000000001    0.4501857652088788 F F F Co
   0.8383359434399543    0.1250000000000001    0.4501857652088788 F F F Co
   0.5808320282800229    0.6250000000000000    0.4771297746355530 F F F Co
   0.0808320282800228    0.1250000000000001    0.4771297746355531 F F F Co
   0.0808320282800228    0.6250000000000000    0.4215742190799975 F F F Co
   0.5808320282800228    0.1250000000000001    0.4215742190799975 F F F Co
   0.9191679717199771    0.8750000000000001    0.4673146698088914 F F F Co
   0.4191679717199771    0.3750000000000001    0.4673146698088914 F F F Co
   0.4191679717199771    0.8750000000000001    0.4117591142533359 F F F Co
   0.9191679717199770    0.3750000000000001    0.4117591142533358 F F F Co
   0.6616640565600456    0.8750000000000001    0.4387031236800101 F F F Co
   0.1616640565600456    0.3750000000000001    0.4387031236800101 F F F Co
   0.1616640565600456    0.8750000000000001    0.4942586792355657 F F F Co
   0.6616640565600456    0.3750000000000001    0.4942586792355657 F F F Co
   0.5808320282800228    0.6250000000000000    0.4199066823777904 F F F Co
   0.0808320282800228    0.1250000000000000    0.4199066823777904 F F F Co
   0.0808320282800228    0.6250000000000000    0.4754622379333460 F F F Co
   0.5808320282800227    0.1250000000000001    0.4754622379333460 F F F Co
   0.6666666666666666    0.8750000000000001    0.4953703703703703 F F F W
   0.1666666666666666    0.3750000000000001    0.4953703703703703 F F F W
   0.1666666666666666    0.8750000000000001    0.4398148148148148 F F F W
   0.6666666666666666    0.3750000000000001    0.4398148148148148 F F F W
   0.8333333333333334    0.6250000000000000    0.4490740740740741 F F F W
   0.3333333333333334    0.1250000000000000    0.4490740740740741 F F F W
   0.3333333333333334    0.6250000000000000    0.3935185185185185 F F F W
   0.8333333333333334    0.1250000000000001    0.3935185185185185 F F F W
   0.9191679717199771    0.8750000000000001    0.5245377620666540 F F F Co
   0.4191679717199772    0.3750000000000001    0.5245377620666540 F F F Co
   0.4191679717199772    0.8750000000000001    0.5800933176222096 F F F Co
   0.9191679717199771    0.3750000000000001    0.5800933176222096 F F F Co
   0.8383359434399543    0.6250000000000000    0.5057413207644343 F F F Co
   0.3383359434399543    0.1250000000000001    0.5057413207644343 F F F Co
   0.3383359434399543    0.6250000000000001    0.5612968763199898 F F F Co
   0.8383359434399543    0.1250000000000001    0.5612968763199898 F F F Co
   0.5808320282800229    0.6250000000000000    0.5882408857466641 F F F Co
   0.0808320282800228    0.1250000000000001    0.5882408857466641 F F F Co
   0.0808320282800228    0.6250000000000000    0.5326853301911085 F F F Co
   0.5808320282800228    0.1250000000000001    0.5326853301911085 F F F Co
   0.9191679717199771    0.8750000000000001    0.5784257809200025 F F F Co
   0.4191679717199771    0.3750000000000001    0.5784257809200025 F F F Co
   0.4191679717199771    0.8750000000000001    0.5228702253644469 F F F Co
   0.9191679717199770    0.3750000000000001    0.5228702253644469 F F F Co
   0.6616640565600456    0.8750000000000001    0.5498142347911212 F F F Co
   0.1616640565600456    0.3750000000000001    0.5498142347911212 F F F Co
   0.1616640565600456    0.8750000000000001    0.6053697903466768 F F F Co
   0.6616640565600456    0.3750000000000001    0.6053697903466768 F F F Co
   0.5808320282800228    0.6250000000000000    0.5310177934889015 F F F Co
   0.0808320282800228    0.1250000000000000    0.5310177934889015 F F F Co
   0.0808320282800228    0.6250000000000000    0.5865733490444571 F F F Co
   0.5808320282800227    0.1250000000000001    0.5865733490444571 F F F Co
   0.6666666666666666    0.8750000000000001    0.6064814814814815 F F F W
   0.1666666666666666    0.3750000000000001    0.6064814814814815 F F F W
   0.1666666666666666    0.8750000000000001    0.5509259259259259 F F F W
   0.6666666666666666    0.3750000000000001    0.5509259259259259 F F F W
   0.8333333333333334    0.6250000000000000    0.5601851851851851 F F F W
   0.3333333333333334    0.1250000000000000    0.5601851851851851 F F F W
   0.3333333333333334    0.6250000000000000    0.5046296296296297 F F F W
   0.8333333333333334    0.1250000000000001    0.5046296296296297 F F F W
   0.9191679717199771    0.8750000000000001    0.6356488731777651 T T T Co
   0.4191679717199772    0.3750000000000001    0.6356488731777651 T T T Co
   0.4191679717199772    0.8750000000000001    0.6912044287333207 T T T Co
   0.9191679717199771    0.3750000000000001    0.6912044287333207 T T T Co
   0.8383359434399543    0.6250000000000000    0.6168524318755454 T T T Co
   0.3383359434399543    0.1250000000000001    0.6168524318755454 T T T Co
   0.3383359434399543    0.6250000000000001    0.6724079874311010 T T T Co
   0.8383359434399543    0.1250000000000001    0.6724079874311010 T T T Co
   0.5808320282800229    0.6250000000000000    0.6993519968577753 T T T Co
   0.0808320282800228    0.1250000000000001    0.6993519968577753 T T T Co
   0.0808320282800228    0.6250000000000000    0.6437964413022197 T T T Co
   0.5808320282800228    0.1250000000000001    0.6437964413022197 T T T Co
   0.9191679717199771    0.8750000000000001    0.6895368920311136 T T T Co
   0.4191679717199771    0.3750000000000001    0.6895368920311136 T T T Co
   0.4191679717199771    0.8750000000000001    0.6339813364755580 T T T Co
   0.9191679717199770    0.3750000000000001    0.6339813364755580 T T T Co
   0.6616640565600456    0.8750000000000001    0.6609253459022324 T T T Co
   0.1616640565600456    0.3750000000000001    0.6609253459022324 T T T Co
   0.1616640565600456    0.8750000000000001    0.7164809014577880 T T T Co
   0.6616640565600456    0.3750000000000001    0.7164809014577880 T T T Co
   0.5808320282800228    0.6250000000000000    0.6421289046000127 T T T Co
   0.0808320282800228    0.1250000000000000    0.6421289046000127 T T T Co
   0.0808320282800228    0.6250000000000000    0.6976844601555683 T T T Co
   0.5808320282800227    0.1250000000000001    0.6976844601555683 T T T Co
   0.6666666666666666    0.8750000000000001    0.7175925925925926 T T T W
   0.1666666666666666    0.3750000000000001    0.7175925925925926 T T T W
   0.1666666666666666    0.8750000000000001    0.6620370370370370 T T T W
   0.6666666666666666    0.3750000000000001    0.6620370370370370 T T T W
   0.8333333333333334    0.6250000000000000    0.6712962962962963 T T T W
   0.3333333333333334    0.1250000000000000    0.6712962962962963 T T T W
   0.3333333333333334    0.6250000000000000    0.6157407407407407 T T T W
   0.8333333333333334    0.1250000000000001    0.6157407407407407 T T T W
