Pd16 Pb32
1.0
   7.0133637359112537    0.0000000000000000    0.0000000000000004
   0.0000000000000019   11.8219780261154543   -7.0133637359112520
   0.0000000000000000    0.0000000000000000   35.0668186795562704
Pd Pb Pd Pb
8 16 8 16
Selective dynamics
direct
   0.0000000000000000    0.1250000000000000    0.3250000000000001 T T T Pd
   0.0000000000000000    0.6250000000000000    0.4250000000000000 F F F Pd
   0.0000000000000000    0.3749999999999999    0.3750000000000000 T T T Pd
   0.0000000000000000    0.8750000000000000    0.4750000000000000 F F F Pd
   0.5000000000000000    0.3750000000000001    0.4750000000000000 F F F Pd
   0.5000000000000000    0.8750000000000000    0.3750000000000000 T T T Pd
   0.5000000000000000    0.1250000000000000    0.4250000000000000 F F F Pd
   0.5000000000000000    0.6250000000000000    0.3250000000000001 T T T Pd
   0.1628409199950979    0.2500000000000000    0.4174318160009804 F F F Pb
   0.1628409199950979    0.7499999999999999    0.3174318160009805 T T T Pb
   0.3371590800049021    0.2500000000000001    0.3174318160009805 T T T Pb
   0.3371590800049021    0.7500000000000001    0.4174318160009804 F F F Pb
   0.3371590800049021    0.0000000000000000    0.3325681839990196 T T T Pb
   0.3371590800049021    0.5000000000000000    0.4325681839990196 F F F Pb
   0.1628409199950979    0.0000000000000000    0.4325681839990196 F F F Pb
   0.1628409199950979    0.5000000000000000    0.3325681839990197 T T T Pb
   0.6628409199950979    0.0000000000000000    0.4674318160009805 F F F Pb
   0.6628409199950979    0.5000000000000001    0.3674318160009805 T T T Pb
   0.8371590800049021    0.0000000000000000    0.3674318160009805 T T T Pb
   0.8371590800049021    0.5000000000000001    0.4674318160009804 F F F Pb
   0.8371590800049021    0.2500000000000000    0.4825681839990196 F F F Pb
   0.8371590800049021    0.7500000000000001    0.3825681839990197 T T T Pb
   0.6628409199950979    0.2500000000000000    0.3825681839990197 T T T Pb
   0.6628409199950979    0.7500000000000001    0.4825681839990196 F F F Pb
   0.0000000000000000    0.1250000000000000    0.5250000000000000 F F F Pd
   0.0000000000000000    0.6250000000000000    0.6250000000000000 T T T Pd
   0.0000000000000000    0.3749999999999999    0.5750000000000001 F F F Pd
   0.0000000000000000    0.8750000000000000    0.6750000000000000 T T T Pd
   0.5000000000000000    0.3750000000000001    0.6750000000000000 T T T Pd
   0.5000000000000000    0.8750000000000000    0.5750000000000000 F F F Pd
   0.5000000000000000    0.1250000000000000    0.6250000000000000 T T T Pd
   0.5000000000000000    0.6250000000000000    0.5250000000000000 F F F Pd
   0.1628409199950979    0.2500000000000000    0.6174318160009805 T T T Pb
   0.1628409199950979    0.7499999999999999    0.5174318160009804 F F F Pb
   0.3371590800049021    0.2500000000000001    0.5174318160009804 F F F Pb
   0.3371590800049021    0.7500000000000001    0.6174318160009804 T T T Pb
   0.3371590800049021    0.0000000000000000    0.5325681839990196 F F F Pb
   0.3371590800049021    0.5000000000000000    0.6325681839990196 T T T Pb
   0.1628409199950979    0.0000000000000000    0.6325681839990196 T T T Pb
   0.1628409199950979    0.5000000000000000    0.5325681839990196 F F F Pb
   0.6628409199950979    0.0000000000000000    0.6674318160009804 T T T Pb
   0.6628409199950979    0.5000000000000001    0.5674318160009805 F F F Pb
   0.8371590800049021    0.0000000000000000    0.5674318160009805 F F F Pb
   0.8371590800049021    0.5000000000000001    0.6674318160009804 T T T Pb
   0.8371590800049021    0.2500000000000000    0.6825681839990196 T T T Pb
   0.8371590800049021    0.7500000000000001    0.5825681839990197 F F F Pb
   0.6628409199950979    0.2500000000000000    0.5825681839990197 F F F Pb
   0.6628409199950979    0.7500000000000001    0.6825681839990196 T T T Pb
