Pd16 Pb32
1.0
   9.9183941131813320    0.0000000000000000    0.0000000000000006
   9.9183941131813320    9.9183941131813338    5.9109890130577272
   0.0000000000000000    0.0000000000000000   29.5549450652886421
Pd Pb Pd Pb
8 16 8 16
Selective dynamics
direct
   0.0000000000000000    0.5000000000000000    0.4333333333333333 T T T Pd
   0.0000000000000000    0.0000000000000000    0.3333333333333333 T T T Pd
   0.0000000000000000    0.5000000000000000    0.3333333333333333 T T T Pd
   0.0000000000000000    0.0000000000000000    0.4333333333333333 T T T Pd
   0.5000000000000000    0.0000000000000000    0.4333333333333332 T T T Pd
   0.5000000000000000    0.5000000000000000    0.3333333333333333 T T T Pd
   0.5000000000000000    0.0000000000000000    0.3333333333333333 T T T Pd
   0.5000000000000000    0.5000000000000000    0.4333333333333333 T T T Pd
   0.1628409199950979    0.2500000000000000    0.3333333333333333 T T T Pb
   0.1628409199950979    0.7500000000000000    0.4333333333333333 T T T Pb
   0.3371590800049021    0.9128409199950979    0.4007651493343137 T T T Pb
   0.3371590800049021    0.4128409199950979    0.5007651493343137 F F F Pb
   0.3371590800049021    0.2500000000000000    0.4333333333333333 T T T Pb
   0.3371590800049021    0.7500000000000000    0.3333333333333333 T T T Pb
   0.1628409199950979    0.0871590800049021    0.4659015173323529 F F F Pb
   0.1628409199950979    0.5871590800049021    0.3659015173323529 T T T Pb
   0.6628409199950979    0.7500000000000000    0.3333333333333333 T T T Pb
   0.6628409199950979    0.2500000000000000    0.4333333333333333 T T T Pb
   0.8371590800049021    0.9128409199950979    0.5007651493343137 F F F Pb
   0.8371590800049021    0.4128409199950979    0.4007651493343137 T T T Pb
   0.8371590800049021    0.7500000000000000    0.4333333333333333 T T T Pb
   0.8371590800049021    0.2500000000000000    0.3333333333333333 T T T Pb
   0.6628409199950979    0.0871590800049020    0.3659015173323529 T T T Pb
   0.6628409199950979    0.5871590800049020    0.4659015173323529 F F F Pb
   0.0000000000000000    0.5000000000000000    0.6333333333333333 T T T Pd
   0.0000000000000000    0.0000000000000000    0.5333333333333333 F F F Pd
   0.0000000000000000    0.5000000000000000    0.5333333333333333 F F F Pd
   0.0000000000000000    0.0000000000000000    0.6333333333333333 T T T Pd
   0.5000000000000000    0.0000000000000000    0.6333333333333333 T T T Pd
   0.5000000000000000    0.5000000000000000    0.5333333333333333 F F F Pd
   0.5000000000000000    0.0000000000000000    0.5333333333333333 F F F Pd
   0.5000000000000000    0.5000000000000000    0.6333333333333333 T T T Pd
   0.1628409199950979    0.2500000000000000    0.5333333333333332 F F F Pb
   0.1628409199950979    0.7500000000000000    0.6333333333333333 T T T Pb
   0.3371590800049021    0.9128409199950979    0.6007651493343138 T T T Pb
   0.3371590800049021    0.4128409199950979    0.7007651493343137 T T T Pb
   0.3371590800049021    0.2500000000000000    0.6333333333333333 T T T Pb
   0.3371590800049021    0.7500000000000000    0.5333333333333333 F F F Pb
   0.1628409199950979    0.0871590800049021    0.6659015173323529 T T T Pb
   0.1628409199950979    0.5871590800049021    0.5659015173323529 F F F Pb
   0.6628409199950979    0.7500000000000000    0.5333333333333333 F F F Pb
   0.6628409199950979    0.2500000000000000    0.6333333333333333 T T T Pb
   0.8371590800049021    0.9128409199950979    0.7007651493343137 T T T Pb
   0.8371590800049021    0.4128409199950979    0.6007651493343137 T T T Pb
   0.8371590800049021    0.7500000000000000    0.6333333333333333 T T T Pb
   0.8371590800049021    0.2500000000000000    0.5333333333333333 F F F Pb
   0.6628409199950979    0.0871590800049020    0.5659015173323529 F F F Pb
   0.6628409199950979    0.5871590800049020    0.6659015173323529 T T T Pb
