Ta32 Te48
1.0
  15.9050370126843319    0.0000000000000000    3.4795604346599669
  38.9570271846025662   10.3030830849650687    0.0000000000000025
   0.0000000000000000    0.0000000000000000   34.7956043465996530
Ta Te Ta Te Ta Te Ta Te
8 12 8 12 8 12 8 12
Selective dynamics
direct
   0.1258145773887243    0.1454360628546635    0.3674185422611276 T T T Ta
   0.8741854226112760    0.8545639371453365    0.2925814577388724 T T T Ta
   0.4987642139109456    0.6122357949427338    0.3801235786089054 T T T Ta
   0.5012357860890546    0.3877642050572662    0.3798764213910946 T T T Ta
   0.6258145773887243    0.1454360628546635    0.3674185422611276 T T T Ta
   0.3741854226112755    0.8545639371453365    0.2925814577388725 T T T Ta
   0.9987642139109458    0.6122357949427338    0.3801235786089054 T T T Ta
   0.0012357860890545    0.3877642050572662    0.3798764213910946 T T T Ta
   0.1957348371315185    0.3645243085107235    0.3104265162868482 T T T Te
   0.8042651628684818    0.6354756914892764    0.3495734837131518 T T T Te
   0.6371125166638985    0.2826325388219001    0.3162887483336101 T T T Te
   0.3628874833361020    0.7173674611780999    0.3437112516663898 T T T Te
   0.0292142125995847    0.0320357935750262    0.3770785787400416 T T T Te
   0.9707857874004158    0.9679642064249738    0.3829214212599584 T T T Te
   0.6957348371315186    0.3645243085107235    0.3104265162868481 T T T Te
   0.3042651628684818    0.6354756914892764    0.3495734837131518 T T T Te
   0.1371125166638982    0.2826325388219001    0.3162887483336102 T T T Te
   0.8628874833361020    0.7173674611780999    0.3437112516663898 T T T Te
   0.5292142125995845    0.0320357935750262    0.3770785787400416 T T T Te
   0.4707857874004158    0.9679642064249738    0.3829214212599584 T T T Te
   0.1258145773887243    0.1454360628546635    0.4674185422611276 F F F Ta
   0.8741854226112760    0.8545639371453365    0.3925814577388724 T T T Ta
   0.4987642139109456    0.6122357949427338    0.4801235786089055 F F F Ta
   0.5012357860890546    0.3877642050572662    0.4798764213910945 F F F Ta
   0.6258145773887243    0.1454360628546635    0.4674185422611276 F F F Ta
   0.3741854226112755    0.8545639371453365    0.3925814577388725 T T T Ta
   0.9987642139109458    0.6122357949427338    0.4801235786089054 F F F Ta
   0.0012357860890545    0.3877642050572662    0.4798764213910945 F F F Ta
   0.1957348371315185    0.3645243085107235    0.4104265162868482 F F F Te
   0.8042651628684818    0.6354756914892764    0.4495734837131519 F F F Te
   0.6371125166638985    0.2826325388219001    0.4162887483336102 F F F Te
   0.3628874833361020    0.7173674611780999    0.4437112516663898 F F F Te
   0.0292142125995847    0.0320357935750262    0.4770785787400416 F F F Te
   0.9707857874004158    0.9679642064249738    0.4829214212599585 F F F Te
   0.6957348371315186    0.3645243085107235    0.4104265162868482 F F F Te
   0.3042651628684818    0.6354756914892764    0.4495734837131519 F F F Te
   0.1371125166638982    0.2826325388219001    0.4162887483336102 F F F Te
   0.8628874833361020    0.7173674611780999    0.4437112516663898 F F F Te
   0.5292142125995845    0.0320357935750262    0.4770785787400416 F F F Te
   0.4707857874004158    0.9679642064249738    0.4829214212599585 F F F Te
   0.1258145773887243    0.1454360628546635    0.5674185422611275 F F F Ta
   0.8741854226112760    0.8545639371453365    0.4925814577388724 F F F Ta
   0.4987642139109456    0.6122357949427338    0.5801235786089054 T T T Ta
   0.5012357860890546    0.3877642050572662    0.5798764213910945 T T T Ta
   0.6258145773887243    0.1454360628546635    0.5674185422611275 F F F Ta
   0.3741854226112755    0.8545639371453365    0.4925814577388725 F F F Ta
   0.9987642139109458    0.6122357949427338    0.5801235786089054 T T T Ta
   0.0012357860890545    0.3877642050572662    0.5798764213910945 T T T Ta
   0.1957348371315185    0.3645243085107235    0.5104265162868482 F F F Te
   0.8042651628684818    0.6354756914892764    0.5495734837131518 F F F Te
   0.6371125166638985    0.2826325388219001    0.5162887483336102 F F F Te
   0.3628874833361020    0.7173674611780999    0.5437112516663898 F F F Te
   0.0292142125995847    0.0320357935750262    0.5770785787400416 T T T Te
   0.9707857874004158    0.9679642064249738    0.5829214212599585 T T T Te
   0.6957348371315186    0.3645243085107235    0.5104265162868482 F F F Te
   0.3042651628684818    0.6354756914892764    0.5495734837131518 F F F Te
   0.1371125166638982    0.2826325388219001    0.5162887483336103 F F F Te
   0.8628874833361020    0.7173674611780999    0.5437112516663898 F F F Te
   0.5292142125995845    0.0320357935750262    0.5770785787400416 T T T Te
   0.4707857874004158    0.9679642064249738    0.5829214212599585 T T T Te
   0.1258145773887243    0.1454360628546635    0.6674185422611276 T T T Ta
   0.8741854226112760    0.8545639371453365    0.5925814577388724 T T T Ta
   0.4987642139109456    0.6122357949427338    0.6801235786089055 T T T Ta
   0.5012357860890546    0.3877642050572662    0.6798764213910946 T T T Ta
   0.6258145773887243    0.1454360628546635    0.6674185422611276 T T T Ta
   0.3741854226112755    0.8545639371453365    0.5925814577388724 T T T Ta
   0.9987642139109458    0.6122357949427338    0.6801235786089055 T T T Ta
   0.0012357860890545    0.3877642050572662    0.6798764213910946 T T T Ta
   0.1957348371315185    0.3645243085107235    0.6104265162868482 T T T Te
   0.8042651628684818    0.6354756914892764    0.6495734837131518 T T T Te
   0.6371125166638985    0.2826325388219001    0.6162887483336101 T T T Te
   0.3628874833361020    0.7173674611780999    0.6437112516663899 T T T Te
   0.0292142125995847    0.0320357935750262    0.6770785787400415 T T T Te
   0.9707857874004158    0.9679642064249738    0.6829214212599584 T T T Te
   0.6957348371315186    0.3645243085107235    0.6104265162868481 T T T Te
   0.3042651628684818    0.6354756914892764    0.6495734837131518 T T T Te
   0.1371125166638982    0.2826325388219001    0.6162887483336101 T T T Te
   0.8628874833361020    0.7173674611780999    0.6437112516663899 T T T Te
   0.5292142125995845    0.0320357935750262    0.6770785787400415 T T T Te
   0.4707857874004158    0.9679642064249738    0.6829214212599584 T T T Te
