Sc36 In12
1.0
   5.2182045188136774    0.0000000000000000    0.0000000000000003
   0.0000000000000018   11.1207289771745490  -12.8411117371131880
   0.0000000000000000    0.0000000000000000   44.9438910798961615
Sc In Sc In Sc In
12 4 12 4 12 4
Selective dynamics
direct
   0.2500000000000000    0.3314981245577258    0.2911423213022074 T T T Sc
   0.2500000000000000    0.8314981245577258    0.3625708927307788 T T T Sc
   0.7500000000000000    0.4157490622788629    0.3513215625315911 T T T Sc
   0.7500000000000000    0.9157490622788630    0.4227501339601625 F F F Sc
   0.7500000000000000    0.4157490622788629    0.4219636159134735 F F F Sc
   0.7500000000000000    0.9157490622788629    0.3505350444849021 T T T Sc
   0.2500000000000000    0.0842509377211372    0.3280363840865265 T T T Sc
   0.2500000000000000    0.5842509377211371    0.3994649555150980 F F F Sc
   0.2500000000000000    0.0842509377211371    0.3986784374684090 F F F Sc
   0.2500000000000000    0.5842509377211371    0.3272498660398376 T T T Sc
   0.7500000000000000    0.1685018754422743    0.3160005358406498 T T T Sc
   0.7500000000000000    0.6685018754422742    0.3874291072692212 T T T Sc
   0.2500000000000000    0.3333333333333334    0.3630952380952381 T T T In
   0.2500000000000000    0.8333333333333335    0.2916666666666667 T T T In
   0.7500000000000000    0.1666666666666666    0.3869047619047619 T T T In
   0.7500000000000000    0.6666666666666667    0.3154761904761905 T T T In
   0.2500000000000000    0.3314981245577258    0.4339994641593503 F F F Sc
   0.2500000000000000    0.8314981245577258    0.5054280355879217 F F F Sc
   0.7500000000000000    0.4157490622788629    0.4941787053887339 F F F Sc
   0.7500000000000000    0.9157490622788630    0.5656072768173053 F F F Sc
   0.7500000000000000    0.4157490622788629    0.5648207587706164 F F F Sc
   0.7500000000000000    0.9157490622788629    0.4933921873420449 F F F Sc
   0.2500000000000000    0.0842509377211372    0.4708935269436694 F F F Sc
   0.2500000000000000    0.5842509377211371    0.5423220983722408 F F F Sc
   0.2500000000000000    0.0842509377211371    0.5415355803255519 F F F Sc
   0.2500000000000000    0.5842509377211371    0.4701070088969804 F F F Sc
   0.7500000000000000    0.1685018754422743    0.4588576786977926 F F F Sc
   0.7500000000000000    0.6685018754422742    0.5302862501263641 F F F Sc
   0.2500000000000000    0.3333333333333334    0.5059523809523809 F F F In
   0.2500000000000000    0.8333333333333335    0.4345238095238095 F F F In
   0.7500000000000000    0.1666666666666666    0.5297619047619048 F F F In
   0.7500000000000000    0.6666666666666667    0.4583333333333334 F F F In
   0.2500000000000000    0.3314981245577258    0.5768566070164931 F F F Sc
   0.2500000000000000    0.8314981245577258    0.6482851784450645 T T T Sc
   0.7500000000000000    0.4157490622788629    0.6370358482458768 T T T Sc
   0.7500000000000000    0.9157490622788630    0.7084644196744482 T T T Sc
   0.7500000000000000    0.4157490622788629    0.7076779016277592 T T T Sc
   0.7500000000000000    0.9157490622788629    0.6362493301991878 T T T Sc
   0.2500000000000000    0.0842509377211372    0.6137506698008122 T T T Sc
   0.2500000000000000    0.5842509377211371    0.6851792412293837 T T T Sc
   0.2500000000000000    0.0842509377211371    0.6843927231826947 T T T Sc
   0.2500000000000000    0.5842509377211371    0.6129641517541233 T T T Sc
   0.7500000000000000    0.1685018754422743    0.6017148215549355 F F F Sc
   0.7500000000000000    0.6685018754422742    0.6731433929835069 T T T Sc
   0.2500000000000000    0.3333333333333334    0.6488095238095238 T T T In
   0.2500000000000000    0.8333333333333335    0.5773809523809523 F F F In
   0.7500000000000000    0.1666666666666666    0.6726190476190477 T T T In
   0.7500000000000000    0.6666666666666667    0.6011904761904762 F F F In
