Zr8 Ge8
1.0
   3.9386348451605397    0.0000000000000000    0.0000000000000002
   0.0000000000000011    7.1062417336810562    0.0000000000000004
   0.0000000000000000    0.0000000000000000   27.1395883130580629
Zr Ge Zr Ge
4 4 4 4
Selective dynamics
direct
   0.7500000000000000    0.8234130813364260    0.3486174619185590 T T T Zr
   0.2500000000000000    0.1765869186635740    0.4013825380814410 T T T Zr
   0.2500000000000000    0.6765869186635740    0.4486174619185590 F F F Zr
   0.7500000000000000    0.3234130813364260    0.5013825380814410 F F F Zr
   0.7500000000000000    0.9517086551078576    0.4443263128378035 F F F Ge
   0.2500000000000000    0.0482913448921423    0.3056736871621965 T T T Ge
   0.2500000000000000    0.5482913448921423    0.3443263128378035 T T T Ge
   0.7500000000000000    0.4517086551078576    0.4056736871621964 T T T Ge
   0.7500000000000000    0.8234130813364260    0.5486174619185590 F F F Zr
   0.2500000000000000    0.1765869186635740    0.6013825380814410 T T T Zr
   0.2500000000000000    0.6765869186635740    0.6486174619185590 T T T Zr
   0.7500000000000000    0.3234130813364260    0.7013825380814409 T T T Zr
   0.7500000000000000    0.9517086551078576    0.6443263128378036 T T T Ge
   0.2500000000000000    0.0482913448921423    0.5056736871621965 F F F Ge
   0.2500000000000000    0.5482913448921423    0.5443263128378035 F F F Ge
   0.7500000000000000    0.4517086551078576    0.6056736871621964 T T T Ge
