Ir18 W6
1.0
   4.8048125422776904    0.0000000000000000   -2.7740598146897133
   0.0000000000000007    4.4254821313912505    0.0000000000000003
   0.0000000000000000    0.0000000000000000   38.8368374056560128
Ir W Ir W Ir W
6 2 6 2 6 2
Selective dynamics
direct
   0.1663502804285528    0.2500000000000000    0.4048071027959210 F F F Ir
   0.8336497195714472    0.7500000000000000    0.3094786114897932 T T T Ir
   0.3327005608571056    0.7500000000000000    0.3094786114897932 T T T Ir
   0.1663502804285528    0.2500000000000000    0.3332429372653008 T T T Ir
   0.6672994391428944    0.2500000000000000    0.4048071027959210 F F F Ir
   0.8336497195714472    0.7500000000000000    0.3810427770204134 T T T Ir
   0.6666666666666666    0.2500000000000000    0.3333333333333333 T T T W
   0.3333333333333334    0.7500000000000000    0.3809523809523809 T T T W
   0.1663502804285528    0.2500000000000000    0.5476642456530638 F F F Ir
   0.8336497195714472    0.7500000000000000    0.4523357543469361 F F F Ir
   0.3327005608571056    0.7500000000000000    0.4523357543469361 F F F Ir
   0.1663502804285528    0.2500000000000000    0.4761000801224436 F F F Ir
   0.6672994391428944    0.2500000000000000    0.5476642456530638 F F F Ir
   0.8336497195714472    0.7500000000000000    0.5238999198775562 F F F Ir
   0.6666666666666666    0.2500000000000000    0.4761904761904762 F F F W
   0.3333333333333334    0.7500000000000000    0.5238095238095238 F F F W
   0.1663502804285528    0.2500000000000000    0.6905213885102067 T T T Ir
   0.8336497195714472    0.7500000000000000    0.5951928972040790 F F F Ir
   0.3327005608571056    0.7500000000000000    0.5951928972040790 F F F Ir
   0.1663502804285528    0.2500000000000000    0.6189572229795866 T T T Ir
   0.6672994391428944    0.2500000000000000    0.6905213885102067 T T T Ir
   0.8336497195714472    0.7500000000000000    0.6667570627346991 T T T Ir
   0.6666666666666666    0.2500000000000000    0.6190476190476191 T T T W
   0.3333333333333334    0.7500000000000000    0.6666666666666666 T T T W
