V20 As40
1.0
   9.1197880418368626    0.0000000000000000   -3.2855470055946419
  14.5002706948275915    6.5133940581944492    0.0000000000000010
   0.0000000000000000    0.0000000000000000   39.4265640671357147
V As V As V As V As V As
4 8 4 8 4 8 4 8 4 8
Selective dynamics
direct
   0.2664835565792461    0.1939308298368586    0.3416514074927150 T T T V
   0.7335164434207538    0.8060691701631415    0.2972374813961740 T T T V
   0.7664835565792459    0.1939308298368586    0.3416514074927150 T T T V
   0.2335164434207539    0.8060691701631414    0.2972374813961740 T T T V
   0.6916624371637710    0.1063124884435068    0.2937496475414254 T T T As
   0.3083375628362288    0.8936875115564933    0.3451392413474635 T T T As
   0.9210933099424352    0.4656140615529621    0.3545355536063141 T T T As
   0.0789066900575648    0.5343859384470377    0.3676866686159082 T T T As
   0.1916624371637712    0.1063124884435068    0.2937496475414254 T T T As
   0.8083375628362289    0.8936875115564932    0.3451392413474635 T T T As
   0.4210933099424352    0.4656140615529623    0.3545355536063141 T T T As
   0.5789066900575648    0.5343859384470377    0.3676866686159082 T T T As
   0.2664835565792461    0.1939308298368586    0.4249847408260483 F F F V
   0.7335164434207538    0.8060691701631415    0.3805708147295073 T T T V
   0.7664835565792459    0.1939308298368586    0.4249847408260483 F F F V
   0.2335164434207539    0.8060691701631414    0.3805708147295073 T T T V
   0.6916624371637710    0.1063124884435068    0.3770829808747587 T T T As
   0.3083375628362288    0.8936875115564933    0.4284725746807969 F F F As
   0.9210933099424352    0.4656140615529621    0.4378688869396474 F F F As
   0.0789066900575648    0.5343859384470377    0.4510200019492415 F F F As
   0.1916624371637712    0.1063124884435068    0.3770829808747588 T T T As
   0.8083375628362289    0.8936875115564932    0.4284725746807969 F F F As
   0.4210933099424352    0.4656140615529623    0.4378688869396474 F F F As
   0.5789066900575648    0.5343859384470377    0.4510200019492415 F F F As
   0.2664835565792461    0.1939308298368586    0.5083180741593816 F F F V
   0.7335164434207538    0.8060691701631415    0.4639041480628406 F F F V
   0.7664835565792459    0.1939308298368586    0.5083180741593816 F F F V
   0.2335164434207539    0.8060691701631414    0.4639041480628406 F F F V
   0.6916624371637710    0.1063124884435068    0.4604163142080920 F F F As
   0.3083375628362288    0.8936875115564933    0.5118059080141302 F F F As
   0.9210933099424352    0.4656140615529621    0.5212022202729807 F F F As
   0.0789066900575648    0.5343859384470377    0.5343533352825749 F F F As
   0.1916624371637712    0.1063124884435068    0.4604163142080920 F F F As
   0.8083375628362289    0.8936875115564932    0.5118059080141302 F F F As
   0.4210933099424352    0.4656140615529623    0.5212022202729807 F F F As
   0.5789066900575648    0.5343859384470377    0.5343533352825749 F F F As
   0.2664835565792461    0.1939308298368586    0.5916514074927151 F F F V
   0.7335164434207538    0.8060691701631415    0.5472374813961740 F F F V
   0.7664835565792459    0.1939308298368586    0.5916514074927151 F F F V
   0.2335164434207539    0.8060691701631414    0.5472374813961740 F F F V
   0.6916624371637710    0.1063124884435068    0.5437496475414254 F F F As
   0.3083375628362288    0.8936875115564933    0.5951392413474635 F F F As
   0.9210933099424352    0.4656140615529621    0.6045355536063141 T T T As
   0.0789066900575648    0.5343859384470377    0.6176866686159082 T T T As
   0.1916624371637712    0.1063124884435068    0.5437496475414254 F F F As
   0.8083375628362289    0.8936875115564932    0.5951392413474635 F F F As
   0.4210933099424352    0.4656140615529623    0.6045355536063141 T T T As
   0.5789066900575648    0.5343859384470377    0.6176866686159082 T T T As
   0.2664835565792461    0.1939308298368586    0.6749847408260483 T T T V
   0.7335164434207538    0.8060691701631415    0.6305708147295073 T T T V
   0.7664835565792459    0.1939308298368586    0.6749847408260483 T T T V
   0.2335164434207539    0.8060691701631414    0.6305708147295073 T T T V
   0.6916624371637710    0.1063124884435068    0.6270829808747587 T T T As
   0.3083375628362288    0.8936875115564933    0.6784725746807969 T T T As
   0.9210933099424352    0.4656140615529621    0.6878688869396474 T T T As
   0.0789066900575648    0.5343859384470377    0.7010200019492415 T T T As
   0.1916624371637712    0.1063124884435068    0.6270829808747587 T T T As
   0.8083375628362289    0.8936875115564932    0.6784725746807969 T T T As
   0.4210933099424352    0.4656140615529623    0.6878688869396474 T T T As
   0.5789066900575648    0.5343859384470377    0.7010200019492415 T T T As
