Hf5 Rh5
1.0
   3.2715164314342027    0.0000000000000000    0.0000000000000002
   0.0000000000000005    3.2715164314342009   -3.2715164314342036
   0.0000000000000000    0.0000000000000000   39.2581971772104339
Hf Rh Hf Rh Hf Rh Hf Rh Hf Rh
1 1 1 1 1 1 1 1 1 1
Selective dynamics
direct
   0.0000000000000000    0.0000000000000000    0.3333333333333333 T T T Hf
   0.5000000000000000    0.5000000000000000    0.3333333333333333 T T T Rh
   0.0000000000000000    0.0000000000000000    0.4166666666666666 T T T Hf
   0.5000000000000000    0.5000000000000000    0.4166666666666666 T T T Rh
   0.0000000000000000    0.0000000000000000    0.4999999999999999 F F F Hf
   0.5000000000000000    0.5000000000000000    0.5000000000000000 F F F Rh
   0.0000000000000000    0.0000000000000000    0.5833333333333333 T T T Hf
   0.5000000000000000    0.5000000000000000    0.5833333333333333 T T T Rh
   0.0000000000000000    0.0000000000000000    0.6666666666666666 T T T Hf
   0.5000000000000000    0.5000000000000000    0.6666666666666666 T T T Rh
