Re24 Ru8
1.0
   4.8040148329583250    0.0000000000000000    0.0000000000000003
   0.0000000000000014    8.8339567380417936   -2.7535837624279007
   0.0000000000000000    0.0000000000000000   27.5358376242790079
Re Ru Re Ru Re Ru Re Ru
6 2 6 2 6 2 6 2
Selective dynamics
direct
   0.8294223126525465    0.0000000000000000    0.3124999999999999 T T T Re
   0.0010245209966016    0.2513157687052184    0.3876315768705218 T T T Re
   0.5010245209966016    0.2486842312947815    0.3373684231294781 T T T Re
   0.3294223126525466    0.4999999999999999    0.3124999999999999 T T T Re
   0.5010245209966016    0.7513157687052184    0.3876315768705218 T T T Re
   0.0010245209966016    0.7486842312947816    0.3373684231294781 T T T Re
   0.3351261553542598    0.0000000000000000    0.3625000000000000 T T T Ru
   0.8351261553542597    0.4999999999999999    0.3624999999999999 T T T Ru
   0.8294223126525465    0.0000000000000000    0.4125000000000000 T T T Re
   0.0010245209966016    0.2513157687052184    0.4876315768705218 F F F Re
   0.5010245209966016    0.2486842312947815    0.4373684231294781 F F F Re
   0.3294223126525466    0.4999999999999999    0.4125000000000000 T T T Re
   0.5010245209966016    0.7513157687052184    0.4876315768705218 F F F Re
   0.0010245209966016    0.7486842312947816    0.4373684231294781 F F F Re
   0.3351261553542598    0.0000000000000000    0.4625000000000000 F F F Ru
   0.8351261553542597    0.4999999999999999    0.4625000000000000 F F F Ru
   0.8294223126525465    0.0000000000000000    0.5125000000000000 F F F Re
   0.0010245209966016    0.2513157687052184    0.5876315768705218 T T T Re
   0.5010245209966016    0.2486842312947815    0.5373684231294782 F F F Re
   0.3294223126525466    0.4999999999999999    0.5125000000000000 F F F Re
   0.5010245209966016    0.7513157687052184    0.5876315768705218 T T T Re
   0.0010245209966016    0.7486842312947816    0.5373684231294782 F F F Re
   0.3351261553542598    0.0000000000000000    0.5625000000000000 F F F Ru
   0.8351261553542597    0.4999999999999999    0.5625000000000000 F F F Ru
   0.8294223126525465    0.0000000000000000    0.6124999999999999 T T T Re
   0.0010245209966016    0.2513157687052184    0.6876315768705218 T T T Re
   0.5010245209966016    0.2486842312947815    0.6373684231294781 T T T Re
   0.3294223126525466    0.4999999999999999    0.6124999999999999 T T T Re
   0.5010245209966016    0.7513157687052184    0.6876315768705218 T T T Re
   0.0010245209966016    0.7486842312947816    0.6373684231294781 T T T Re
   0.3351261553542598    0.0000000000000000    0.6625000000000000 T T T Ru
   0.8351261553542597    0.4999999999999999    0.6624999999999999 T T T Ru
