Zr3 Te3
1.0
   3.7969813948567404    0.0000000000000000    0.0000000000000002
  -1.8984906974283715    3.2882823456428092    0.0000000000000002
   0.0000000000000000    0.0000000000000000   27.1856441613736237
Zr Te Zr Te Zr Te
1 1 1 1 1 1
Selective dynamics
direct
   0.6666666666666666    0.3333333333333334    0.3928571428571428 T T T Zr
   0.0000000000000000    0.0000000000000000    0.3214285714285714 T T T Te
   0.6666666666666666    0.3333333333333334    0.5357142857142857 F F F Zr
   0.0000000000000000    0.0000000000000000    0.4642857142857142 F F F Te
   0.6666666666666666    0.3333333333333334    0.6785714285714286 T T T Zr
   0.0000000000000000    0.0000000000000000    0.6071428571428571 T T T Te
