Y24 Cu24
1.0
   7.0205832972618030    0.0000000000000000    0.0000000000000004
   5.7523262912819391    6.9050788554928504    7.1826403337190001
   0.0000000000000000    0.0000000000000000   50.2784823360330222
Y Cu Y Cu Y Cu
8 8 8 8 8 8
Selective dynamics
direct
   0.3666885627983731    0.1916557186008134    0.4270909749126243 F F F Y
   0.3666885627983731    0.6916557186008134    0.3556624034840529 T T T Y
   0.1333114372016269    0.3083442813991865    0.3389926087985710 T T T Y
   0.1333114372016269    0.8083442813991866    0.4104211802271424 F F F Y
   0.6333114372016269    0.8083442813991866    0.2871947393730900 T T T Y
   0.6333114372016269    0.3083442813991866    0.3586233108016614 T T T Y
   0.8666885627983731    0.6916557186008134    0.3752931054871433 F F F Y
   0.8666885627983731    0.1916557186008134    0.3038645340585719 T T T Y
   0.8752585451306416    0.9373707274346792    0.2992313366129069 T T T Cu
   0.8752585451306416    0.4373707274346792    0.3706599080414783 T T T Cu
   0.6247414548693584    0.0626292725653208    0.3527658301656724 T T T Cu
   0.6247414548693584    0.5626292725653208    0.4241944015942438 F F F Cu
   0.1247414548693584    0.0626292725653208    0.4150543776728075 F F F Cu
   0.1247414548693584    0.5626292725653208    0.3436258062442360 T T T Cu
   0.3752585451306416    0.9373707274346792    0.3615198841200420 T T T Cu
   0.3752585451306416    0.4373707274346792    0.2900913126914705 T T T Cu
   0.3666885627983731    0.1916557186008134    0.5699481177697671 F F F Y
   0.3666885627983731    0.6916557186008134    0.4985195463411957 F F F Y
   0.1333114372016269    0.3083442813991865    0.4818497516557139 F F F Y
   0.1333114372016269    0.8083442813991866    0.5532783230842853 F F F Y
   0.6333114372016269    0.8083442813991866    0.4300518822302328 F F F Y
   0.6333114372016269    0.3083442813991866    0.5014804536588043 F F F Y
   0.8666885627983731    0.6916557186008134    0.5181502483442861 F F F Y
   0.8666885627983731    0.1916557186008134    0.4467216769157147 F F F Y
   0.8752585451306416    0.9373707274346792    0.4420884794700497 F F F Cu
   0.8752585451306416    0.4373707274346792    0.5135170508986211 F F F Cu
   0.6247414548693584    0.0626292725653208    0.4956229730228152 F F F Cu
   0.6247414548693584    0.5626292725653208    0.5670515444513866 F F F Cu
   0.1247414548693584    0.0626292725653208    0.5579115205299503 F F F Cu
   0.1247414548693584    0.5626292725653208    0.4864829491013788 F F F Cu
   0.3752585451306416    0.9373707274346792    0.5043770269771848 F F F Cu
   0.3752585451306416    0.4373707274346792    0.4329484555486134 F F F Cu
   0.3666885627983731    0.1916557186008134    0.7128052606269100 T T T Y
   0.3666885627983731    0.6916557186008134    0.6413766891983386 T T T Y
   0.1333114372016269    0.3083442813991865    0.6247068945128567 F F F Y
   0.1333114372016269    0.8083442813991866    0.6961354659414281 T T T Y
   0.6333114372016269    0.8083442813991866    0.5729090250873756 F F F Y
   0.6333114372016269    0.3083442813991866    0.6443375965159471 T T T Y
   0.8666885627983731    0.6916557186008134    0.6610073912014290 T T T Y
   0.8666885627983731    0.1916557186008134    0.5895788197728575 F F F Y
   0.8752585451306416    0.9373707274346792    0.5849456223271925 F F F Cu
   0.8752585451306416    0.4373707274346792    0.6563741937557640 T T T Cu
   0.6247414548693584    0.0626292725653208    0.6384801158799580 T T T Cu
   0.6247414548693584    0.5626292725653208    0.7099086873085295 T T T Cu
   0.1247414548693584    0.0626292725653208    0.7007686633870931 T T T Cu
   0.1247414548693584    0.5626292725653208    0.6293400919585217 T T T Cu
   0.3752585451306416    0.9373707274346792    0.6472341698343277 T T T Cu
   0.3752585451306416    0.4373707274346792    0.5758055984057562 F F F Cu
