Zr32 Ga48
1.0
   9.5336371519202174    0.0000000000000000    0.0000000000000006
   0.0000000000000022   13.8353559249870646   -5.5442043678335526
   0.0000000000000000    0.0000000000000000   27.7210218391677579
Zr Ga Zr Ga
16 24 16 24
Selective dynamics
direct
   0.3194017113191929    0.0521695871584491    0.3642336669661660 T T T Zr
   0.6805982886808071    0.4478304128415508    0.3433658321027864 T T T Zr
   0.9305982886808071    0.3021695871584490    0.4642336669661661 F F F Zr
   0.5694017113191929    0.1978304128415508    0.4433658321027864 T T T Zr
   0.3194017113191929    0.5521695871584491    0.3642336669661661 T T T Zr
   0.6805982886808071    0.9478304128415508    0.3433658321027865 T T T Zr
   0.9305982886808071    0.8021695871584490    0.4642336669661661 F F F Zr
   0.5694017113191929    0.6978304128415508    0.4433658321027865 T T T Zr
   0.8194017113191929    0.0521695871584491    0.4642336669661661 F F F Zr
   0.1805982886808071    0.4478304128415508    0.4433658321027865 T T T Zr
   0.4305982886808071    0.3021695871584490    0.3642336669661661 T T T Zr
   0.0694017113191929    0.1978304128415508    0.3433658321027864 T T T Zr
   0.8194017113191929    0.5521695871584490    0.4642336669661661 F F F Zr
   0.1805982886808071    0.9478304128415508    0.4433658321027865 T T T Zr
   0.4305982886808071    0.8021695871584490    0.3642336669661660 T T T Zr
   0.0694017113191929    0.6978304128415508    0.3433658321027864 T T T Zr
   0.0000000000000000    0.0000000000000000    0.3304565315128010 T T T Ga
   0.2500000000000000    0.2499999999999999    0.4304565315128011 T T T Ga
   0.8195667494487555    0.1342670412717126    0.3828253929634657 T T T Ga
   0.1804332505512445    0.3657329587282873    0.3291185764547807 T T T Ga
   0.9304332505512446    0.3842670412717126    0.3828253929634657 T T T Ga
   0.0695667494487555    0.1157329587282873    0.4291185764547806 T T T Ga
   0.0000000000000000    0.4999999999999999    0.3304565315128011 T T T Ga
   0.2500000000000000    0.7499999999999999    0.4304565315128011 T T T Ga
   0.8195667494487555    0.6342670412717125    0.3828253929634657 T T T Ga
   0.1804332505512445    0.8657329587282873    0.3291185764547806 T T T Ga
   0.9304332505512446    0.8842670412717125    0.3828253929634656 T T T Ga
   0.0695667494487555    0.6157329587282873    0.4291185764547806 T T T Ga
   0.5000000000000000    0.9999999999999999    0.4304565315128011 T T T Ga
   0.7500000000000000    0.2500000000000000    0.3304565315128010 T T T Ga
   0.3195667494487555    0.1342670412717126    0.4828253929634657 F F F Ga
   0.6804332505512445    0.3657329587282873    0.4291185764547806 T T T Ga
   0.4304332505512445    0.3842670412717125    0.4828253929634657 F F F Ga
   0.5695667494487555    0.1157329587282873    0.3291185764547807 T T T Ga
   0.5000000000000000    0.4999999999999999    0.4304565315128011 T T T Ga
   0.7500000000000000    0.7499999999999999    0.3304565315128011 T T T Ga
   0.3195667494487555    0.6342670412717125    0.4828253929634657 F F F Ga
   0.6804332505512445    0.8657329587282874    0.4291185764547806 T T T Ga
   0.4304332505512445    0.8842670412717125    0.4828253929634657 F F F Ga
   0.5695667494487555    0.6157329587282874    0.3291185764547806 T T T Ga
   0.3194017113191929    0.0521695871584491    0.5642336669661661 F F F Zr
   0.6805982886808071    0.4478304128415508    0.5433658321027864 F F F Zr
   0.9305982886808071    0.3021695871584490    0.6642336669661661 T T T Zr
   0.5694017113191929    0.1978304128415508    0.6433658321027864 T T T Zr
   0.3194017113191929    0.5521695871584491    0.5642336669661661 F F F Zr
   0.6805982886808071    0.9478304128415508    0.5433658321027864 F F F Zr
   0.9305982886808071    0.8021695871584490    0.6642336669661661 T T T Zr
   0.5694017113191929    0.6978304128415508    0.6433658321027864 T T T Zr
   0.8194017113191929    0.0521695871584491    0.6642336669661661 T T T Zr
   0.1805982886808071    0.4478304128415508    0.6433658321027864 T T T Zr
   0.4305982886808071    0.3021695871584490    0.5642336669661661 F F F Zr
   0.0694017113191929    0.1978304128415508    0.5433658321027864 F F F Zr
   0.8194017113191929    0.5521695871584490    0.6642336669661660 T T T Zr
   0.1805982886808071    0.9478304128415508    0.6433658321027864 T T T Zr
   0.4305982886808071    0.8021695871584490    0.5642336669661661 F F F Zr
   0.0694017113191929    0.6978304128415508    0.5433658321027864 F F F Zr
   0.0000000000000000    0.0000000000000000    0.5304565315128010 F F F Ga
   0.2500000000000000    0.2499999999999999    0.6304565315128010 T T T Ga
   0.8195667494487555    0.1342670412717126    0.5828253929634657 T T T Ga
   0.1804332505512445    0.3657329587282873    0.5291185764547807 F F F Ga
   0.9304332505512446    0.3842670412717126    0.5828253929634657 T T T Ga
   0.0695667494487555    0.1157329587282873    0.6291185764547806 T T T Ga
   0.0000000000000000    0.4999999999999999    0.5304565315128010 F F F Ga
   0.2500000000000000    0.7499999999999999    0.6304565315128010 T T T Ga
   0.8195667494487555    0.6342670412717125    0.5828253929634657 T T T Ga
   0.1804332505512445    0.8657329587282873    0.5291185764547806 F F F Ga
   0.9304332505512446    0.8842670412717125    0.5828253929634657 T T T Ga
   0.0695667494487555    0.6157329587282873    0.6291185764547806 T T T Ga
   0.5000000000000000    0.9999999999999999    0.6304565315128010 T T T Ga
   0.7500000000000000    0.2500000000000000    0.5304565315128010 F F F Ga
   0.3195667494487555    0.1342670412717126    0.6828253929634657 T T T Ga
   0.6804332505512445    0.3657329587282873    0.6291185764547806 T T T Ga
   0.4304332505512445    0.3842670412717125    0.6828253929634657 T T T Ga
   0.5695667494487555    0.1157329587282873    0.5291185764547807 F F F Ga
   0.5000000000000000    0.4999999999999999    0.6304565315128010 T T T Ga
   0.7500000000000000    0.7499999999999999    0.5304565315128010 F F F Ga
   0.3195667494487555    0.6342670412717125    0.6828253929634657 T T T Ga
   0.6804332505512445    0.8657329587282874    0.6291185764547806 T T T Ga
   0.4304332505512445    0.8842670412717125    0.6828253929634657 T T T Ga
   0.5695667494487555    0.6157329587282874    0.5291185764547806 F F F Ga
