Zr16 Ga24
1.0
   5.5442043678335517    0.0000000000000000    0.0000000000000003
   0.0000000000000015    9.5336371519202174    0.0000000000000006
   0.0000000000000000    0.0000000000000000   41.5060677749611955
Zr Ga
16 24
Selective dynamics
direct
   0.5149999456723807    0.3194017113191929    0.3423898623861497 T T T Zr
   0.0149999456723808    0.6805982886808071    0.4742768042805170 F F F Zr
   0.7649999456723809    0.9305982886808071    0.4257231957194830 F F F Zr
   0.7649999456723808    0.5694017113191929    0.3909434709471836 T T T Zr
   0.0149999456723808    0.3194017113191929    0.5090565290528164 F F F Zr
   0.5149999456723808    0.6805982886808071    0.6409434709471836 T T T Zr
   0.2649999456723808    0.9305982886808071    0.5923898623861497 T T T Zr
   0.2649999456723808    0.5694017113191929    0.5576101376138503 F F F Zr
   0.0149999456723808    0.8194017113191929    0.3423898623861497 T T T Zr
   0.5149999456723809    0.1805982886808071    0.4742768042805170 F F F Zr
   0.2649999456723808    0.4305982886808071    0.4257231957194830 F F F Zr
   0.2649999456723808    0.0694017113191929    0.3909434709471836 T T T Zr
   0.5149999456723808    0.8194017113191929    0.5090565290528164 F F F Zr
   0.0149999456723808    0.1805982886808071    0.6409434709471836 T T T Zr
   0.7649999456723808    0.4305982886808071    0.5923898623861497 T T T Zr
   0.7649999456723808    0.0694017113191929    0.5576101376138503 F F F Zr
   0.3982838555640047    0.0000000000000000    0.6583333333333333 T T T Ga
   0.6482838555640047    0.2500000000000000    0.4083333333333333 T T T Ga
   0.5258611215456153    0.8195667494487555    0.3697556804239042 T T T Ga
   0.0258611215456153    0.1804332505512445    0.4469109862427624 F F F Ga
   0.2758611215456153    0.9304332505512446    0.4530890137572375 F F F Ga
   0.7758611215456153    0.0695667494487555    0.3635776529094291 T T T Ga
   0.8982838555640048    0.0000000000000000    0.4916666666666667 F F F Ga
   0.1482838555640047    0.2500000000000000    0.5750000000000000 F F F Ga
   0.0258611215456153    0.8195667494487555    0.5364223470905709 F F F Ga
   0.5258611215456154    0.1804332505512445    0.6135776529094291 T T T Ga
   0.7758611215456154    0.9304332505512446    0.6197556804239042 T T T Ga
   0.2758611215456153    0.0695667494487555    0.5302443195760957 F F F Ga
   0.8982838555640048    0.5000000000000000    0.6583333333333333 T T T Ga
   0.1482838555640047    0.7500000000000000    0.4083333333333333 T T T Ga
   0.0258611215456153    0.3195667494487555    0.3697556804239042 T T T Ga
   0.5258611215456152    0.6804332505512445    0.4469109862427625 F F F Ga
   0.7758611215456153    0.4304332505512445    0.4530890137572375 F F F Ga
   0.2758611215456153    0.5695667494487555    0.3635776529094291 T T T Ga
   0.3982838555640048    0.5000000000000000    0.4916666666666667 F F F Ga
   0.6482838555640048    0.7500000000000000    0.5750000000000000 F F F Ga
   0.5258611215456153    0.3195667494487555    0.5364223470905709 F F F Ga
   0.0258611215456153    0.6804332505512445    0.6135776529094291 T T T Ga
   0.2758611215456153    0.4304332505512445    0.6197556804239042 T T T Ga
   0.7758611215456153    0.5695667494487555    0.5302443195760957 F F F Ga
