Ga12 Ag24
1.0
   7.9006648354518765    0.0000000000000000    0.0000000000000005
  -3.9503324177259409    6.8421764542877259    0.0000000000000005
   0.0000000000000000    0.0000000000000000   28.9678702216606396
Ga Ag Ga Ag Ga Ag Ga Ag
3 6 3 6 3 6 3 6
Selective dynamics
direct
   0.6666666666666666    0.3333333333333334    0.3722222222222222 T T T Ga
   0.3333333333333333    0.6666666666666666    0.3722222222222222 T T T Ga
   0.0000000000000000    0.0000000000000000    0.3222222222222222 T T T Ga
   0.3049646941686496    0.0000000000000000    0.3722222222222222 T T T Ag
   0.6950353058313505    0.6950353058313505    0.3722222222222222 T T T Ag
   0.0000000000000000    0.3049646941686496    0.3722222222222222 T T T Ag
   0.0000000000000000    0.6385364243346564    0.3222222222222222 T T T Ag
   0.3614635756653437    0.3614635756653437    0.3222222222222222 T T T Ag
   0.6385364243346564    0.0000000000000000    0.3222222222222222 T T T Ag
   0.6666666666666666    0.3333333333333334    0.4722222222222222 F F F Ga
   0.3333333333333333    0.6666666666666666    0.4722222222222222 F F F Ga
   0.0000000000000000    0.0000000000000000    0.4222222222222222 T T T Ga
   0.3049646941686496    0.0000000000000000    0.4722222222222222 F F F Ag
   0.6950353058313505    0.6950353058313505    0.4722222222222222 F F F Ag
   0.0000000000000000    0.3049646941686496    0.4722222222222222 F F F Ag
   0.0000000000000000    0.6385364243346564    0.4222222222222222 T T T Ag
   0.3614635756653437    0.3614635756653437    0.4222222222222222 T T T Ag
   0.6385364243346564    0.0000000000000000    0.4222222222222222 T T T Ag
   0.6666666666666666    0.3333333333333334    0.5722222222222222 T T T Ga
   0.3333333333333333    0.6666666666666666    0.5722222222222222 T T T Ga
   0.0000000000000000    0.0000000000000000    0.5222222222222221 F F F Ga
   0.3049646941686496    0.0000000000000000    0.5722222222222222 T T T Ag
   0.6950353058313505    0.6950353058313505    0.5722222222222222 T T T Ag
   0.0000000000000000    0.3049646941686496    0.5722222222222222 T T T Ag
   0.0000000000000000    0.6385364243346564    0.5222222222222221 F F F Ag
   0.3614635756653437    0.3614635756653437    0.5222222222222221 F F F Ag
   0.6385364243346564    0.0000000000000000    0.5222222222222221 F F F Ag
   0.6666666666666666    0.3333333333333334    0.6722222222222222 T T T Ga
   0.3333333333333333    0.6666666666666666    0.6722222222222222 T T T Ga
   0.0000000000000000    0.0000000000000000    0.6222222222222222 T T T Ga
   0.3049646941686496    0.0000000000000000    0.6722222222222222 T T T Ag
   0.6950353058313505    0.6950353058313505    0.6722222222222222 T T T Ag
   0.0000000000000000    0.3049646941686496    0.6722222222222222 T T T Ag
   0.0000000000000000    0.6385364243346564    0.6222222222222222 T T T Ag
   0.3614635756653437    0.3614635756653437    0.6222222222222222 T T T Ag
   0.6385364243346564    0.0000000000000000    0.6222222222222222 T T T Ag
