Zr8 Te24
1.0
   3.9284120720030313    0.0000000000000000    0.0000000000000002
   0.0000000000000034   20.9760778288293608   -8.6892635633260333
   0.0000000000000000    0.0000000000000000   29.7913325746210624
Zr Te Zr Te
4 12 4 12
Selective dynamics
direct
   0.2500000000000000    0.1686141712521234    0.4387350128476264 F F F Zr
   0.2500000000000000    0.6686141712521234    0.3387350128476264 T T T Zr
   0.7500000000000000    0.3313858287478767    0.3862649871523736 T T T Zr
   0.7500000000000000    0.8313858287478767    0.2862649871523736 T T T Zr
   0.7500000000000000    0.0893920301213561    0.3667794833066892 T T T Te
   0.7500000000000000    0.5893920301213561    0.4667794833066892 F F F Te
   0.7500000000000000    0.2763709898471305    0.4703855289171492 F F F Te
   0.7500000000000000    0.7763709898471305    0.3703855289171493 T T T Te
   0.2500000000000000    0.4106079698786440    0.4582205166933108 F F F Te
   0.2500000000000000    0.9106079698786439    0.3582205166933108 T T T Te
   0.2500000000000000    0.4129399017269186    0.3622756494196849 T T T Te
   0.2500000000000000    0.9129399017269186    0.4622756494196849 F F F Te
   0.7500000000000000    0.0870600982730814    0.4627243505803150 F F F Te
   0.7500000000000000    0.5870600982730815    0.3627243505803150 T T T Te
   0.2500000000000000    0.2236290101528696    0.3546144710828507 T T T Te
   0.2500000000000000    0.7236290101528696    0.4546144710828507 F F F Te
   0.2500000000000000    0.1686141712521234    0.6387350128476263 T T T Zr
   0.2500000000000000    0.6686141712521234    0.5387350128476265 F F F Zr
   0.7500000000000000    0.3313858287478767    0.5862649871523735 T T T Zr
   0.7500000000000000    0.8313858287478767    0.4862649871523737 F F F Zr
   0.7500000000000000    0.0893920301213561    0.5667794833066893 T T T Te
   0.7500000000000000    0.5893920301213561    0.6667794833066891 T T T Te
   0.7500000000000000    0.2763709898471305    0.6703855289171492 T T T Te
   0.7500000000000000    0.7763709898471305    0.5703855289171493 T T T Te
   0.2500000000000000    0.4106079698786440    0.6582205166933108 T T T Te
   0.2500000000000000    0.9106079698786439    0.5582205166933107 F F F Te
   0.2500000000000000    0.4129399017269186    0.5622756494196850 T T T Te
   0.2500000000000000    0.9129399017269186    0.6622756494196849 T T T Te
   0.7500000000000000    0.0870600982730814    0.6627243505803151 T T T Te
   0.7500000000000000    0.5870600982730815    0.5627243505803150 T T T Te
   0.2500000000000000    0.2236290101528696    0.5546144710828507 F F F Te
   0.2500000000000000    0.7236290101528696    0.6546144710828508 T T T Te
