Ti12 Au12
1.0
   3.3603316170242103    0.0000000000000000    0.0000000000000002
  -0.0000000000000019    6.7206632340484207    6.0956754799728232
   0.0000000000000000    0.0000000000000000   42.6697283598097528
Ti Au Ti Au Ti Au
4 4 4 4 4 4
Selective dynamics
direct
   0.4999999999999999    0.4999999999999999    0.3199702020071586 T T T Ti
   0.4999999999999999    0.0000000000000000    0.3913987734357300 T T T Ti
   0.0000000000000000    0.2500000000000000    0.3943155122785558 T T T Ti
   0.0000000000000000    0.7500000000000000    0.3228869408499843 T T T Ti
   0.4999999999999999    0.4999999999999999    0.3907725423518482 T T T Au
   0.4999999999999999    0.0000000000000000    0.3193439709232768 T T T Au
   0.0000000000000000    0.2500000000000000    0.3235131719338663 T T T Au
   0.0000000000000000    0.7500000000000000    0.3949417433624376 T T T Au
   0.4999999999999999    0.4999999999999999    0.4628273448643015 F F F Ti
   0.4999999999999999    0.0000000000000000    0.5342559162928728 F F F Ti
   0.0000000000000000    0.2500000000000000    0.5371726551356986 F F F Ti
   0.0000000000000000    0.7500000000000000    0.4657440837071272 F F F Ti
   0.4999999999999999    0.4999999999999999    0.5336296852089910 F F F Au
   0.4999999999999999    0.0000000000000000    0.4622011137804196 F F F Au
   0.0000000000000000    0.2500000000000000    0.4663703147910091 F F F Au
   0.0000000000000000    0.7500000000000000    0.5377988862195805 F F F Au
   0.4999999999999999    0.4999999999999999    0.6056844877214443 T T T Ti
   0.4999999999999999    0.0000000000000000    0.6771130591500157 T T T Ti
   0.0000000000000000    0.2500000000000000    0.6800297979928415 T T T Ti
   0.0000000000000000    0.7500000000000000    0.6086012265642700 T T T Ti
   0.4999999999999999    0.4999999999999999    0.6764868280661339 T T T Au
   0.4999999999999999    0.0000000000000000    0.6050582566375624 T T T Au
   0.0000000000000000    0.2500000000000000    0.6092274576481520 T T T Au
   0.0000000000000000    0.7500000000000000    0.6806560290767234 T T T Au
