Mg24 Cd24
1.0
  16.1787966931542542    0.0000000000000000    0.0000000000000010
   0.0000000000000008    5.0579094433359399   -3.1920336038025741
   0.0000000000000000    0.0000000000000000   31.9203360380257415
Mg Cd Mg Cd Mg Cd Mg Cd
6 6 6 6 6 6 6 6
Selective dynamics
direct
   0.5051746379577582    0.0000000000000000    0.3250000000000001 T T T Mg
   0.8350132860192014    0.0000000000000000    0.3250000000000001 T T T Mg
   0.7176212415812274    0.5000000000000000    0.3750000000000000 T T T Mg
   0.0051746379577582    0.0000000000000000    0.3750000000000001 T T T Mg
   0.3350132860192012    0.0000000000000000    0.3750000000000001 T T T Mg
   0.2176212415812273    0.4999999999999999    0.3250000000000001 T T T Mg
   0.6698939826163299    0.0000000000000000    0.3750000000000001 T T T Cd
   0.5536248757458254    0.4999999999999999    0.3250000000000001 T T T Cd
   0.8853444760796593    0.4999999999999999    0.3250000000000001 T T T Cd
   0.1698939826163297    0.0000000000000000    0.3250000000000001 T T T Cd
   0.0536248757458253    0.4999999999999999    0.3750000000000000 T T T Cd
   0.3853444760796592    0.4999999999999999    0.3750000000000001 T T T Cd
   0.5051746379577582    0.0000000000000000    0.4250000000000000 T T T Mg
   0.8350132860192014    0.0000000000000000    0.4250000000000000 T T T Mg
   0.7176212415812274    0.5000000000000000    0.4750000000000000 F F F Mg
   0.0051746379577582    0.0000000000000000    0.4750000000000000 F F F Mg
   0.3350132860192012    0.0000000000000000    0.4750000000000000 F F F Mg
   0.2176212415812273    0.4999999999999999    0.4250000000000000 T T T Mg
   0.6698939826163299    0.0000000000000000    0.4750000000000000 F F F Cd
   0.5536248757458254    0.4999999999999999    0.4250000000000000 T T T Cd
   0.8853444760796593    0.4999999999999999    0.4250000000000000 T T T Cd
   0.1698939826163297    0.0000000000000000    0.4250000000000000 T T T Cd
   0.0536248757458253    0.4999999999999999    0.4750000000000000 F F F Cd
   0.3853444760796592    0.4999999999999999    0.4750000000000000 F F F Cd
   0.5051746379577582    0.0000000000000000    0.5250000000000000 F F F Mg
   0.8350132860192014    0.0000000000000000    0.5250000000000000 F F F Mg
   0.7176212415812274    0.5000000000000000    0.5750000000000001 T T T Mg
   0.0051746379577582    0.0000000000000000    0.5750000000000001 T T T Mg
   0.3350132860192012    0.0000000000000000    0.5750000000000001 T T T Mg
   0.2176212415812273    0.4999999999999999    0.5250000000000000 F F F Mg
   0.6698939826163299    0.0000000000000000    0.5750000000000001 T T T Cd
   0.5536248757458254    0.4999999999999999    0.5250000000000000 F F F Cd
   0.8853444760796593    0.4999999999999999    0.5250000000000000 F F F Cd
   0.1698939826163297    0.0000000000000000    0.5250000000000000 F F F Cd
   0.0536248757458253    0.4999999999999999    0.5750000000000001 T T T Cd
   0.3853444760796592    0.4999999999999999    0.5750000000000001 T T T Cd
   0.5051746379577582    0.0000000000000000    0.6250000000000000 T T T Mg
   0.8350132860192014    0.0000000000000000    0.6250000000000000 T T T Mg
   0.7176212415812274    0.5000000000000000    0.6750000000000000 T T T Mg
   0.0051746379577582    0.0000000000000000    0.6750000000000000 T T T Mg
   0.3350132860192012    0.0000000000000000    0.6750000000000000 T T T Mg
   0.2176212415812273    0.4999999999999999    0.6250000000000000 T T T Mg
   0.6698939826163299    0.0000000000000000    0.6750000000000000 T T T Cd
   0.5536248757458254    0.4999999999999999    0.6250000000000000 T T T Cd
   0.8853444760796593    0.4999999999999999    0.6250000000000000 T T T Cd
   0.1698939826163297    0.0000000000000000    0.6250000000000000 T T T Cd
   0.0536248757458253    0.4999999999999999    0.6750000000000000 T T T Cd
   0.3853444760796592    0.4999999999999999    0.6750000000000000 T T T Cd
