Sc48 Al16
1.0
  16.6874930844246947    0.0000000000000000    0.0000000000000010
   4.7678551669784843    4.1290836961682631    5.0587811782038870
   0.0000000000000000    0.0000000000000000   45.5290306038349897
Sc Al Sc Al Sc Al Sc Al
12 4 12 4 12 4 12 4
Selective dynamics
direct
   0.6711687419082892    0.1576625161834215    0.3852597204240643 T T T Sc
   0.1711687419082893    0.6576625161834215    0.3297041648685087 T T T Sc
   0.9144156290458554    0.9144156290458553    0.3011760412171272 T T T Sc
   0.4144156290458554    0.4144156290458553    0.3567315967726827 T T T Sc
   0.9144156290458555    0.4279218547707229    0.3552309050254752 T T T Sc
   0.4144156290458555    0.9279218547707229    0.2996753494699196 T T T Sc
   0.8288312580917108    0.3423374838165785    0.3091847240203802 T T T Sc
   0.3288312580917108    0.8423374838165785    0.3647402795759357 T T T Sc
   0.5855843709541446    0.5855843709541444    0.2821572921162062 T T T Sc
   0.0855843709541447    0.0855843709541445    0.3377128476717617 T T T Sc
   0.5855843709541445    0.0720781452292768    0.3392135394189693 T T T Sc
   0.0855843709541446    0.5720781452292769    0.2836579838634137 T T T Sc
   0.8333333333333333    0.8333333333333331    0.3657407407407408 T T T Al
   0.3333333333333334    0.3333333333333333    0.3101851851851852 T T T Al
   0.6666666666666667    0.6666666666666665    0.3287037037037037 T T T Al
   0.1666666666666668    0.1666666666666664    0.3842592592592593 T T T Al
   0.6711687419082892    0.1576625161834215    0.4963708315351754 F F F Sc
   0.1711687419082893    0.6576625161834215    0.4408152759796198 F F F Sc
   0.9144156290458554    0.9144156290458553    0.4122871523282383 F F F Sc
   0.4144156290458554    0.4144156290458553    0.4678427078837938 F F F Sc
   0.9144156290458555    0.4279218547707229    0.4663420161365863 F F F Sc
   0.4144156290458555    0.9279218547707229    0.4107864605810307 F F F Sc
   0.8288312580917108    0.3423374838165785    0.4202958351314913 F F F Sc
   0.3288312580917108    0.8423374838165785    0.4758513906870468 F F F Sc
   0.5855843709541446    0.5855843709541444    0.3932684032273173 F F F Sc
   0.0855843709541447    0.0855843709541445    0.4488239587828728 F F F Sc
   0.5855843709541445    0.0720781452292768    0.4503246505300803 F F F Sc
   0.0855843709541446    0.5720781452292769    0.3947690949745247 F F F Sc
   0.8333333333333333    0.8333333333333331    0.4768518518518519 F F F Al
   0.3333333333333334    0.3333333333333333    0.4212962962962963 F F F Al
   0.6666666666666667    0.6666666666666665    0.4398148148148148 F F F Al
   0.1666666666666668    0.1666666666666664    0.4953703703703703 F F F Al
   0.6711687419082892    0.1576625161834215    0.6074819426462865 F F F Sc
   0.1711687419082893    0.6576625161834215    0.5519263870907309 F F F Sc
   0.9144156290458554    0.9144156290458553    0.5233982634393494 F F F Sc
   0.4144156290458554    0.4144156290458553    0.5789538189949049 F F F Sc
   0.9144156290458555    0.4279218547707229    0.5774531272476975 F F F Sc
   0.4144156290458555    0.9279218547707229    0.5218975716921419 F F F Sc
   0.8288312580917108    0.3423374838165785    0.5314069462426023 F F F Sc
   0.3288312580917108    0.8423374838165785    0.5869625017981579 F F F Sc
   0.5855843709541446    0.5855843709541444    0.5043795143384284 F F F Sc
   0.0855843709541447    0.0855843709541445    0.5599350698939839 F F F Sc
   0.5855843709541445    0.0720781452292768    0.5614357616411915 F F F Sc
   0.0855843709541446    0.5720781452292769    0.5058802060856359 F F F Sc
   0.8333333333333333    0.8333333333333331    0.5879629629629630 F F F Al
   0.3333333333333334    0.3333333333333333    0.5324074074074074 F F F Al
   0.6666666666666667    0.6666666666666665    0.5509259259259259 F F F Al
   0.1666666666666668    0.1666666666666664    0.6064814814814815 F F F Al
   0.6711687419082892    0.1576625161834215    0.7185930537573976 T T T Sc
   0.1711687419082893    0.6576625161834215    0.6630374982018420 T T T Sc
   0.9144156290458554    0.9144156290458553    0.6345093745504604 T T T Sc
   0.4144156290458554    0.4144156290458553    0.6900649301060160 T T T Sc
   0.9144156290458555    0.4279218547707229    0.6885642383588085 T T T Sc
   0.4144156290458555    0.9279218547707229    0.6330086828032530 T T T Sc
   0.8288312580917108    0.3423374838165785    0.6425180573537135 T T T Sc
   0.3288312580917108    0.8423374838165785    0.6980736129092691 T T T Sc
   0.5855843709541446    0.5855843709541444    0.6154906254495395 T T T Sc
   0.0855843709541447    0.0855843709541445    0.6710461810050951 T T T Sc
   0.5855843709541445    0.0720781452292768    0.6725468727523025 T T T Sc
   0.0855843709541446    0.5720781452292769    0.6169913171967469 T T T Sc
   0.8333333333333333    0.8333333333333331    0.6990740740740741 T T T Al
   0.3333333333333334    0.3333333333333333    0.6435185185185185 T T T Al
   0.6666666666666667    0.6666666666666665    0.6620370370370370 T T T Al
   0.1666666666666668    0.1666666666666664    0.7175925925925926 T T T Al
