Ni12 Sb12
1.0
   3.4403052798535221    0.0000000000000000   -5.9587835382537726
  -0.0000000000000049    5.1700141307927518   -3.9725223588358478
   0.0000000000000000    0.0000000000000000   59.5878353825377047
Ni Sb Ni Sb Ni Sb Ni Sb Ni Sb Ni Sb
2 2 2 2 2 2 2 2 2 2 2 2
Selective dynamics
direct
   0.0000000000000000    0.5000000000000000    0.3250000000000000 T T T Ni
   0.0000000000000000    0.0000000000000000    0.3583333333333334 T T T Ni
   0.3333333333333333    0.7500000000000000    0.3416666666666667 T T T Sb
   0.6666666666666666    0.2499999999999999    0.3083333333333334 T T T Sb
   0.0000000000000000    0.5000000000000000    0.3916666666666667 T T T Ni
   0.0000000000000000    0.0000000000000000    0.4250000000000000 F F F Ni
   0.3333333333333333    0.7500000000000000    0.4083333333333334 T T T Sb
   0.6666666666666666    0.2499999999999999    0.3750000000000001 T T T Sb
   0.0000000000000000    0.5000000000000000    0.4583333333333334 F F F Ni
   0.0000000000000000    0.0000000000000000    0.4916666666666667 F F F Ni
   0.3333333333333333    0.7500000000000000    0.4750000000000000 F F F Sb
   0.6666666666666666    0.2499999999999999    0.4416666666666667 F F F Sb
   0.0000000000000000    0.5000000000000000    0.5250000000000000 F F F Ni
   0.0000000000000000    0.0000000000000000    0.5583333333333333 F F F Ni
   0.3333333333333333    0.7500000000000000    0.5416666666666667 F F F Sb
   0.6666666666666666    0.2499999999999999    0.5083333333333334 F F F Sb
   0.0000000000000000    0.5000000000000000    0.5916666666666667 T T T Ni
   0.0000000000000000    0.0000000000000000    0.6250000000000000 T T T Ni
   0.3333333333333333    0.7500000000000000    0.6083333333333334 T T T Sb
   0.6666666666666666    0.2499999999999999    0.5750000000000001 F F F Sb
   0.0000000000000000    0.5000000000000000    0.6583333333333333 T T T Ni
   0.0000000000000000    0.0000000000000000    0.6916666666666667 T T T Ni
   0.3333333333333333    0.7500000000000000    0.6750000000000000 T T T Sb
   0.6666666666666666    0.2499999999999999    0.6416666666666667 T T T Sb
