Ba32 Cu32
1.0
   7.7591115903570786    0.0000000000000000   -8.9594503307300108
  -0.0000000000000010   16.7609222651594045   -4.4797251653650081
   0.0000000000000000    0.0000000000000000   44.7972516536500507
Ba Cu Ba Cu Ba Cu Ba Cu
8 8 8 8 8 8 8 8
Selective dynamics
direct
   0.1666666666666667    0.8761423413793415    0.3521975674712675 T T T Ba
   0.6666666666666666    0.8761423413793415    0.4021975674712675 T T T Ba
   0.3333333333333333    0.3761423413793415    0.3855309008046008 T T T Ba
   0.8333333333333334    0.3761423413793415    0.3355309008046009 T T T Ba
   0.3333333333333334    0.1238576586206586    0.3603024325287326 T T T Ba
   0.8333333333333334    0.1238576586206586    0.3103024325287326 T T T Ba
   0.1666666666666667    0.6238576586206587    0.3269690991953992 T T T Ba
   0.6666666666666666    0.6238576586206587    0.3769690991953992 T T T Ba
   0.3333333333333333    0.7500000000000000    0.3229166666666667 T T T Cu
   0.8333333333333334    0.7500000000000000    0.3729166666666667 T T T Cu
   0.1666666666666667    0.2500000000000001    0.3895833333333334 T T T Cu
   0.6666666666666666    0.2500000000000001    0.3395833333333333 T T T Cu
   0.0000000000000000    0.2500000000000000    0.3062500000000000 T T T Cu
   0.5000000000000000    0.2500000000000001    0.3562500000000000 T T T Cu
   0.0000000000000000    0.7500000000000000    0.3562500000000000 T T T Cu
   0.5000000000000000    0.7500000000000000    0.3062500000000000 T T T Cu
   0.1666666666666667    0.8761423413793415    0.4521975674712675 F F F Ba
   0.6666666666666666    0.8761423413793415    0.5021975674712675 F F F Ba
   0.3333333333333333    0.3761423413793415    0.4855309008046008 F F F Ba
   0.8333333333333334    0.3761423413793415    0.4355309008046008 F F F Ba
   0.3333333333333334    0.1238576586206586    0.4603024325287325 F F F Ba
   0.8333333333333334    0.1238576586206586    0.4103024325287326 F F F Ba
   0.1666666666666667    0.6238576586206587    0.4269690991953992 F F F Ba
   0.6666666666666666    0.6238576586206587    0.4769690991953992 F F F Ba
   0.3333333333333333    0.7500000000000000    0.4229166666666667 F F F Cu
   0.8333333333333334    0.7500000000000000    0.4729166666666667 F F F Cu
   0.1666666666666667    0.2500000000000001    0.4895833333333334 F F F Cu
   0.6666666666666666    0.2500000000000001    0.4395833333333333 F F F Cu
   0.0000000000000000    0.2500000000000000    0.4062500000000000 T T T Cu
   0.5000000000000000    0.2500000000000001    0.4562500000000000 F F F Cu
   0.0000000000000000    0.7500000000000000    0.4562500000000000 F F F Cu
   0.5000000000000000    0.7500000000000000    0.4062500000000000 T T T Cu
   0.1666666666666667    0.8761423413793415    0.5521975674712675 F F F Ba
   0.6666666666666666    0.8761423413793415    0.6021975674712675 T T T Ba
   0.3333333333333333    0.3761423413793415    0.5855309008046008 F F F Ba
   0.8333333333333334    0.3761423413793415    0.5355309008046009 F F F Ba
   0.3333333333333334    0.1238576586206586    0.5603024325287326 F F F Ba
   0.8333333333333334    0.1238576586206586    0.5103024325287325 F F F Ba
   0.1666666666666667    0.6238576586206587    0.5269690991953992 F F F Ba
   0.6666666666666666    0.6238576586206587    0.5769690991953992 F F F Ba
   0.3333333333333333    0.7500000000000000    0.5229166666666667 F F F Cu
   0.8333333333333334    0.7500000000000000    0.5729166666666667 F F F Cu
   0.1666666666666667    0.2500000000000001    0.5895833333333333 F F F Cu
   0.6666666666666666    0.2500000000000001    0.5395833333333333 F F F Cu
   0.0000000000000000    0.2500000000000000    0.5062500000000000 F F F Cu
   0.5000000000000000    0.2500000000000001    0.5562500000000000 F F F Cu
   0.0000000000000000    0.7500000000000000    0.5562500000000000 F F F Cu
   0.5000000000000000    0.7500000000000000    0.5062500000000000 F F F Cu
   0.1666666666666667    0.8761423413793415    0.6521975674712674 T T T Ba
   0.6666666666666666    0.8761423413793415    0.7021975674712675 T T T Ba
   0.3333333333333333    0.3761423413793415    0.6855309008046008 T T T Ba
   0.8333333333333334    0.3761423413793415    0.6355309008046008 T T T Ba
   0.3333333333333334    0.1238576586206586    0.6603024325287326 T T T Ba
   0.8333333333333334    0.1238576586206586    0.6103024325287325 T T T Ba
   0.1666666666666667    0.6238576586206587    0.6269690991953992 T T T Ba
   0.6666666666666666    0.6238576586206587    0.6769690991953992 T T T Ba
   0.3333333333333333    0.7500000000000000    0.6229166666666667 T T T Cu
   0.8333333333333334    0.7500000000000000    0.6729166666666667 T T T Cu
   0.1666666666666667    0.2500000000000001    0.6895833333333333 T T T Cu
   0.6666666666666666    0.2500000000000001    0.6395833333333334 T T T Cu
   0.0000000000000000    0.2500000000000000    0.6062500000000000 T T T Cu
   0.5000000000000000    0.2500000000000001    0.6562500000000000 T T T Cu
   0.0000000000000000    0.7500000000000000    0.6562500000000000 T T T Cu
   0.5000000000000000    0.7500000000000000    0.6062500000000000 T T T Cu
