Al40 Cu40
1.0
  12.9115448521967089    0.0000000000000000   -6.8866989103324610
   7.6695372076915804    6.3406444997756930    0.0196627122997122
   0.0000000000000000    0.0000000000000000   34.5318081131608636
Al Cu Al Cu
20 20 20 20
Selective dynamics
direct
   0.7500000000000000    0.2500000000000001    0.3300000000000000 T T T Al
   0.2500000000000000    0.7499999999999999    0.4299999999999999 F F F Al
   0.0000000000000000    0.1555768122917742    0.4189473799784831 F F F Al
   0.5000000000000000    0.6555768122917741    0.3189473799784831 T T T Al
   0.0000000000000000    0.8444231877082259    0.3410526200215169 T T T Al
   0.5000000000000000    0.3444231877082258    0.4410526200215169 F F F Al
   0.0000000000000000    0.3781927619559960    0.3568296770019366 T T T Al
   0.5000000000000000    0.8781927619559959    0.4568296770019366 F F F Al
   0.0000000000000000    0.6218072380440041    0.4031703229980634 T T T Al
   0.5000000000000000    0.1218072380440038    0.3031703229980634 T T T Al
   0.0000000000000000    0.5000000000000000    0.4800000000000000 F F F Al
   0.5000000000000000    0.9999999999999999    0.3800000000000000 T T T Al
   0.7500000000000000    0.9055768122917742    0.4689473799784831 F F F Al
   0.2500000000000000    0.4055768122917742    0.3689473799784831 T T T Al
   0.7500000000000000    0.5944231877082259    0.3910526200215169 T T T Al
   0.2500000000000000    0.0944231877082258    0.4910526200215169 F F F Al
   0.7500000000000000    0.1281927619559962    0.4068296770019366 T T T Al
   0.2500000000000000    0.6281927619559959    0.3068296770019366 T T T Al
   0.7500000000000000    0.3718072380440040    0.4531703229980634 F F F Al
   0.2500000000000000    0.8718072380440040    0.3531703229980634 T T T Al
   0.0000000000000000    0.0000000000000000    0.4800000000000000 F F F Cu
   0.5000000000000000    0.4999999999999999    0.3800000000000000 T T T Cu
   0.7500000000000000    0.0081845895878494    0.3334993585421311 T T T Cu
   0.2500000000000000    0.5081845895878492    0.4334993585421312 F F F Cu
   0.7500000000000000    0.4918154104121509    0.3265006414578688 T T T Cu
   0.2500000000000000    0.9918154104121507    0.4265006414578688 F F F Cu
   0.0000000000000000    0.1090304284504556    0.3474151172459767 T T T Cu
   0.5000000000000000    0.6090304284504555    0.4474151172459767 F F F Cu
   0.0000000000000000    0.8909695715495445    0.4125848827540233 T T T Cu
   0.5000000000000000    0.3909695715495445    0.3125848827540233 T T T Cu
   0.7500000000000000    0.7500000000000001    0.3300000000000000 T T T Cu
   0.2500000000000000    0.2500000000000000    0.4300000000000000 F F F Cu
   0.0000000000000000    0.2581845895878492    0.4834993585421311 F F F Cu
   0.5000000000000000    0.7581845895878492    0.3834993585421311 T T T Cu
   0.0000000000000000    0.7418154104121509    0.4765006414578689 F F F Cu
   0.5000000000000000    0.2418154104121508    0.3765006414578688 T T T Cu
   0.7500000000000000    0.8590304284504559    0.3974151172459767 T T T Cu
   0.2500000000000000    0.3590304284504557    0.4974151172459768 F F F Cu
   0.7500000000000000    0.6409695715495445    0.4625848827540232 F F F Cu
   0.2500000000000000    0.1409695715495445    0.3625848827540233 T T T Cu
   0.7500000000000000    0.2500000000000001    0.5300000000000000 F F F Al
   0.2500000000000000    0.7499999999999999    0.6299999999999999 T T T Al
   0.0000000000000000    0.1555768122917742    0.6189473799784830 T T T Al
   0.5000000000000000    0.6555768122917741    0.5189473799784832 F F F Al
   0.0000000000000000    0.8444231877082259    0.5410526200215169 F F F Al
   0.5000000000000000    0.3444231877082258    0.6410526200215170 T T T Al
   0.0000000000000000    0.3781927619559960    0.5568296770019365 F F F Al
   0.5000000000000000    0.8781927619559959    0.6568296770019366 T T T Al
   0.0000000000000000    0.6218072380440041    0.6031703229980634 T T T Al
   0.5000000000000000    0.1218072380440038    0.5031703229980634 F F F Al
   0.0000000000000000    0.5000000000000000    0.6799999999999999 T T T Al
   0.5000000000000000    0.9999999999999999    0.5800000000000001 F F F Al
   0.7500000000000000    0.9055768122917742    0.6689473799784831 T T T Al
   0.2500000000000000    0.4055768122917742    0.5689473799784831 F F F Al
   0.7500000000000000    0.5944231877082259    0.5910526200215169 T T T Al
   0.2500000000000000    0.0944231877082258    0.6910526200215169 T T T Al
   0.7500000000000000    0.1281927619559962    0.6068296770019366 T T T Al
   0.2500000000000000    0.6281927619559959    0.5068296770019366 F F F Al
   0.7500000000000000    0.3718072380440040    0.6531703229980634 T T T Al
   0.2500000000000000    0.8718072380440040    0.5531703229980633 F F F Al
   0.0000000000000000    0.0000000000000000    0.6799999999999999 T T T Cu
   0.5000000000000000    0.4999999999999999    0.5800000000000001 F F F Cu
   0.7500000000000000    0.0081845895878494    0.5334993585421312 F F F Cu
   0.2500000000000000    0.5081845895878492    0.6334993585421311 T T T Cu
   0.7500000000000000    0.4918154104121509    0.5265006414578688 F F F Cu
   0.2500000000000000    0.9918154104121507    0.6265006414578689 T T T Cu
   0.0000000000000000    0.1090304284504556    0.5474151172459767 F F F Cu
   0.5000000000000000    0.6090304284504555    0.6474151172459768 T T T Cu
   0.0000000000000000    0.8909695715495445    0.6125848827540232 T T T Cu
   0.5000000000000000    0.3909695715495445    0.5125848827540234 F F F Cu
   0.7500000000000000    0.7500000000000001    0.5300000000000000 F F F Cu
   0.2500000000000000    0.2500000000000000    0.6300000000000000 T T T Cu
   0.0000000000000000    0.2581845895878492    0.6834993585421312 T T T Cu
   0.5000000000000000    0.7581845895878492    0.5834993585421311 F F F Cu
   0.0000000000000000    0.7418154104121509    0.6765006414578689 T T T Cu
   0.5000000000000000    0.2418154104121508    0.5765006414578688 F F F Cu
   0.7500000000000000    0.8590304284504559    0.5974151172459767 T T T Cu
   0.2500000000000000    0.3590304284504557    0.6974151172459768 T T T Cu
   0.7500000000000000    0.6409695715495445    0.6625848827540233 T T T Cu
   0.2500000000000000    0.1409695715495445    0.5625848827540233 F F F Cu
