Al100 Cu100
1.0
  12.1017434915088007    0.0000000000000000    8.2269324062852238
  19.9621039584638211   11.3580833233339362    0.0000000000000014
   0.0000000000000000    0.0000000000000000   49.3615944377113465
Al Cu Al Cu Al Cu Al Cu Al Cu
20 20 20 20 20 20 20 20 20 20
Selective dynamics
direct
   0.2500000000000000    0.7500000000000000    0.3583333333333333 T T T Al
   0.7500000000000000    0.2500000000000000    0.3583333333333333 T T T Al
   0.9192663316161309    0.9251568560920949    0.3717889447306448 T T T Al
   0.4192663316161308    0.4251568560920949    0.3717889447306448 T T T Al
   0.5807336683838690    0.5748431439079051    0.3448777219360218 T T T Al
   0.0807336683838691    0.0748431439079051    0.3448777219360218 T T T Al
   0.7406366645611644    0.8811705734828394    0.3182272225731392 T T T Al
   0.2406366645611644    0.3811705734828396    0.3182272225731392 T T T Al
   0.7593633354388357    0.6188294265171604    0.3151061107601940 T T T Al
   0.2593633354388356    0.1188294265171605    0.3151061107601940 T T T Al
   0.7500000000000000    0.7500000000000000    0.3166666666666667 T T T Al
   0.2500000000000000    0.2500000000000001    0.3166666666666667 T T T Al
   0.4192663316161309    0.9251568560920949    0.3301222780639781 T T T Al
   0.9192663316161309    0.4251568560920950    0.3301222780639781 T T T Al
   0.0807336683838692    0.5748431439079051    0.3032110552693551 T T T Al
   0.5807336683838692    0.0748431439079051    0.3032110552693551 T T T Al
   0.2406366645611646    0.8811705734828396    0.3598938892398059 T T T Al
   0.7406366645611644    0.3811705734828396    0.3598938892398059 T T T Al
   0.2593633354388356    0.6188294265171604    0.3567727774268608 T T T Al
   0.7593633354388356    0.1188294265171605    0.3567727774268607 T T T Al
   0.5000000000000000    0.5000000000000000    0.3583333333333333 T T T Cu
   0.0000000000000000    0.0000000000000000    0.3583333333333333 T T T Cu
   0.6039747192628983    0.6378406911492526    0.2993375467895170 T T T Cu
   0.1039747192628985    0.1378406911492525    0.2993375467895169 T T T Cu
   0.8960252807371017    0.8621593088507475    0.3339957865438163 T T T Cu
   0.3960252807371016    0.3621593088507475    0.3339957865438163 T T T Cu
   0.1679165642093748    0.7230530073401696    0.3303472392984375 T T T Cu
   0.6679165642093747    0.2230530073401697    0.3303472392984375 T T T Cu
   0.3320834357906252    0.7769469926598305    0.3029860940348958 T T T Cu
   0.8320834357906253    0.2769469926598304    0.3029860940348957 T T T Cu
   0.0000000000000000    0.5000000000000000    0.3166666666666667 T T T Cu
   0.5000000000000000    0.0000000000000000    0.3166666666666667 T T T Cu
   0.1039747192628983    0.6378406911492525    0.3410042134561836 T T T Cu
   0.6039747192628984    0.1378406911492525    0.3410042134561836 T T T Cu
   0.3960252807371015    0.8621593088507475    0.2923291198771497 T T T Cu
   0.8960252807371016    0.3621593088507475    0.2923291198771497 T T T Cu
   0.6679165642093746    0.7230530073401696    0.3720139059651042 T T T Cu
   0.1679165642093746    0.2230530073401697    0.3720139059651042 T T T Cu
   0.8320834357906252    0.7769469926598305    0.3446527607015624 T T T Cu
   0.3320834357906253    0.2769469926598304    0.3446527607015624 T T T Cu
   0.2500000000000000    0.7500000000000000    0.4416666666666667 F F F Al
   0.7500000000000000    0.2500000000000000    0.4416666666666667 F F F Al
   0.9192663316161309    0.9251568560920949    0.4551222780639781 F F F Al
   0.4192663316161308    0.4251568560920949    0.4551222780639781 F F F Al
   0.5807336683838690    0.5748431439079051    0.4282110552693551 F F F Al
   0.0807336683838691    0.0748431439079051    0.4282110552693551 F F F Al
   0.7406366645611644    0.8811705734828394    0.4015605559064725 F F F Al
   0.2406366645611644    0.3811705734828396    0.4015605559064725 F F F Al
   0.7593633354388357    0.6188294265171604    0.3984394440935273 F F F Al
   0.2593633354388356    0.1188294265171605    0.3984394440935274 F F F Al
   0.7500000000000000    0.7500000000000000    0.4000000000000000 F F F Al
   0.2500000000000000    0.2500000000000001    0.4000000000000000 F F F Al
   0.4192663316161309    0.9251568560920949    0.4134556113973115 F F F Al
   0.9192663316161309    0.4251568560920950    0.4134556113973115 F F F Al
   0.0807336683838692    0.5748431439079051    0.3865443886026885 T T T Al
   0.5807336683838692    0.0748431439079051    0.3865443886026885 T T T Al
   0.2406366645611646    0.8811705734828396    0.4432272225731392 F F F Al
   0.7406366645611644    0.3811705734828396    0.4432272225731392 F F F Al
   0.2593633354388356    0.6188294265171604    0.4401061107601941 F F F Al
   0.7593633354388356    0.1188294265171605    0.4401061107601940 F F F Al
   0.5000000000000000    0.5000000000000000    0.4416666666666667 F F F Cu
   0.0000000000000000    0.0000000000000000    0.4416666666666667 F F F Cu
   0.6039747192628983    0.6378406911492526    0.3826708801228503 T T T Cu
   0.1039747192628985    0.1378406911492525    0.3826708801228502 T T T Cu
   0.8960252807371017    0.8621593088507475    0.4173291198771497 F F F Cu
   0.3960252807371016    0.3621593088507475    0.4173291198771497 F F F Cu
   0.1679165642093748    0.7230530073401696    0.4136805726317708 F F F Cu
   0.6679165642093747    0.2230530073401697    0.4136805726317708 F F F Cu
   0.3320834357906252    0.7769469926598305    0.3863194273682291 T T T Cu
   0.8320834357906253    0.2769469926598304    0.3863194273682291 T T T Cu
   0.0000000000000000    0.5000000000000000    0.4000000000000000 F F F Cu
   0.5000000000000000    0.0000000000000000    0.4000000000000000 F F F Cu
   0.1039747192628983    0.6378406911492525    0.4243375467895170 F F F Cu
   0.6039747192628984    0.1378406911492525    0.4243375467895169 F F F Cu
   0.3960252807371015    0.8621593088507475    0.3756624532104831 T T T Cu
   0.8960252807371016    0.3621593088507475    0.3756624532104830 T T T Cu
   0.6679165642093746    0.7230530073401696    0.4553472392984376 F F F Cu
   0.1679165642093746    0.2230530073401697    0.4553472392984375 F F F Cu
   0.8320834357906252    0.7769469926598305    0.4279860940348957 F F F Cu
   0.3320834357906253    0.2769469926598304    0.4279860940348957 F F F Cu
   0.2500000000000000    0.7500000000000000    0.5249999999999999 F F F Al
   0.7500000000000000    0.2500000000000000    0.5249999999999999 F F F Al
   0.9192663316161309    0.9251568560920949    0.5384556113973115 F F F Al
   0.4192663316161308    0.4251568560920949    0.5384556113973115 F F F Al
   0.5807336683838690    0.5748431439079051    0.5115443886026885 F F F Al
   0.0807336683838691    0.0748431439079051    0.5115443886026885 F F F Al
   0.7406366645611644    0.8811705734828394    0.4848938892398059 F F F Al
   0.2406366645611644    0.3811705734828396    0.4848938892398059 F F F Al
   0.7593633354388357    0.6188294265171604    0.4817727774268606 F F F Al
   0.2593633354388356    0.1188294265171605    0.4817727774268607 F F F Al
   0.7500000000000000    0.7500000000000000    0.4833333333333333 F F F Al
   0.2500000000000000    0.2500000000000001    0.4833333333333333 F F F Al
   0.4192663316161309    0.9251568560920949    0.4967889447306448 F F F Al
   0.9192663316161309    0.4251568560920950    0.4967889447306448 F F F Al
   0.0807336683838692    0.5748431439079051    0.4698777219360218 F F F Al
   0.5807336683838692    0.0748431439079051    0.4698777219360218 F F F Al
   0.2406366645611646    0.8811705734828396    0.5265605559064725 F F F Al
   0.7406366645611644    0.3811705734828396    0.5265605559064725 F F F Al
   0.2593633354388356    0.6188294265171604    0.5234394440935274 F F F Al
   0.7593633354388356    0.1188294265171605    0.5234394440935274 F F F Al
   0.5000000000000000    0.5000000000000000    0.5249999999999999 F F F Cu
   0.0000000000000000    0.0000000000000000    0.5249999999999999 F F F Cu
   0.6039747192628983    0.6378406911492526    0.4660042134561836 F F F Cu
   0.1039747192628985    0.1378406911492525    0.4660042134561836 F F F Cu
   0.8960252807371017    0.8621593088507475    0.5006624532104831 F F F Cu
   0.3960252807371016    0.3621593088507475    0.5006624532104831 F F F Cu
   0.1679165642093748    0.7230530073401696    0.4970139059651042 F F F Cu
   0.6679165642093747    0.2230530073401697    0.4970139059651042 F F F Cu
   0.3320834357906252    0.7769469926598305    0.4696527607015625 F F F Cu
   0.8320834357906253    0.2769469926598304    0.4696527607015624 F F F Cu
   0.0000000000000000    0.5000000000000000    0.4833333333333333 F F F Cu
   0.5000000000000000    0.0000000000000000    0.4833333333333333 F F F Cu
   0.1039747192628983    0.6378406911492525    0.5076708801228502 F F F Cu
   0.6039747192628984    0.1378406911492525    0.5076708801228502 F F F Cu
   0.3960252807371015    0.8621593088507475    0.4589957865438164 F F F Cu
   0.8960252807371016    0.3621593088507475    0.4589957865438163 F F F Cu
   0.6679165642093746    0.7230530073401696    0.5386805726317709 F F F Cu
   0.1679165642093746    0.2230530073401697    0.5386805726317708 F F F Cu
   0.8320834357906252    0.7769469926598305    0.5113194273682291 F F F Cu
   0.3320834357906253    0.2769469926598304    0.5113194273682291 F F F Cu
   0.2500000000000000    0.7500000000000000    0.6083333333333334 T T T Al
   0.7500000000000000    0.2500000000000000    0.6083333333333333 T T T Al
   0.9192663316161309    0.9251568560920949    0.6217889447306448 T T T Al
   0.4192663316161308    0.4251568560920949    0.6217889447306448 T T T Al
   0.5807336683838690    0.5748431439079051    0.5948777219360217 F F F Al
   0.0807336683838691    0.0748431439079051    0.5948777219360217 F F F Al
   0.7406366645611644    0.8811705734828394    0.5682272225731393 F F F Al
   0.2406366645611644    0.3811705734828396    0.5682272225731393 F F F Al
   0.7593633354388357    0.6188294265171604    0.5651061107601940 F F F Al
   0.2593633354388356    0.1188294265171605    0.5651061107601940 F F F Al
   0.7500000000000000    0.7500000000000000    0.5666666666666667 F F F Al
   0.2500000000000000    0.2500000000000001    0.5666666666666667 F F F Al
   0.4192663316161309    0.9251568560920949    0.5801222780639781 F F F Al
   0.9192663316161309    0.4251568560920950    0.5801222780639781 F F F Al
   0.0807336683838692    0.5748431439079051    0.5532110552693551 F F F Al
   0.5807336683838692    0.0748431439079051    0.5532110552693551 F F F Al
   0.2406366645611646    0.8811705734828396    0.6098938892398058 T T T Al
   0.7406366645611644    0.3811705734828396    0.6098938892398059 T T T Al
   0.2593633354388356    0.6188294265171604    0.6067727774268608 T T T Al
   0.7593633354388356    0.1188294265171605    0.6067727774268608 T T T Al
   0.5000000000000000    0.5000000000000000    0.6083333333333334 T T T Cu
   0.0000000000000000    0.0000000000000000    0.6083333333333333 T T T Cu
   0.6039747192628983    0.6378406911492526    0.5493375467895170 F F F Cu
   0.1039747192628985    0.1378406911492525    0.5493375467895170 F F F Cu
   0.8960252807371017    0.8621593088507475    0.5839957865438163 F F F Cu
   0.3960252807371016    0.3621593088507475    0.5839957865438163 F F F Cu
   0.1679165642093748    0.7230530073401696    0.5803472392984375 F F F Cu
   0.6679165642093747    0.2230530073401697    0.5803472392984375 F F F Cu
   0.3320834357906252    0.7769469926598305    0.5529860940348958 F F F Cu
   0.8320834357906253    0.2769469926598304    0.5529860940348957 F F F Cu
   0.0000000000000000    0.5000000000000000    0.5666666666666667 F F F Cu
   0.5000000000000000    0.0000000000000000    0.5666666666666667 F F F Cu
   0.1039747192628983    0.6378406911492525    0.5910042134561836 F F F Cu
   0.6039747192628984    0.1378406911492525    0.5910042134561836 F F F Cu
   0.3960252807371015    0.8621593088507475    0.5423291198771497 F F F Cu
   0.8960252807371016    0.3621593088507475    0.5423291198771497 F F F Cu
   0.6679165642093746    0.7230530073401696    0.6220139059651042 T T T Cu
   0.1679165642093746    0.2230530073401697    0.6220139059651042 T T T Cu
   0.8320834357906252    0.7769469926598305    0.5946527607015624 F F F Cu
   0.3320834357906253    0.2769469926598304    0.5946527607015624 F F F Cu
   0.2500000000000000    0.7500000000000000    0.6916666666666667 T T T Al
   0.7500000000000000    0.2500000000000000    0.6916666666666667 T T T Al
   0.9192663316161309    0.9251568560920949    0.7051222780639781 T T T Al
   0.4192663316161308    0.4251568560920949    0.7051222780639781 T T T Al
   0.5807336683838690    0.5748431439079051    0.6782110552693551 T T T Al
   0.0807336683838691    0.0748431439079051    0.6782110552693551 T T T Al
   0.7406366645611644    0.8811705734828394    0.6515605559064725 T T T Al
   0.2406366645611644    0.3811705734828396    0.6515605559064725 T T T Al
   0.7593633354388357    0.6188294265171604    0.6484394440935273 T T T Al
   0.2593633354388356    0.1188294265171605    0.6484394440935273 T T T Al
   0.7500000000000000    0.7500000000000000    0.6499999999999999 T T T Al
   0.2500000000000000    0.2500000000000001    0.6499999999999999 T T T Al
   0.4192663316161309    0.9251568560920949    0.6634556113973115 T T T Al
   0.9192663316161309    0.4251568560920950    0.6634556113973115 T T T Al
   0.0807336683838692    0.5748431439079051    0.6365443886026885 T T T Al
   0.5807336683838692    0.0748431439079051    0.6365443886026885 T T T Al
   0.2406366645611646    0.8811705734828396    0.6932272225731392 T T T Al
   0.7406366645611644    0.3811705734828396    0.6932272225731393 T T T Al
   0.2593633354388356    0.6188294265171604    0.6901061107601940 T T T Al
   0.7593633354388356    0.1188294265171605    0.6901061107601940 T T T Al
   0.5000000000000000    0.5000000000000000    0.6916666666666667 T T T Cu
   0.0000000000000000    0.0000000000000000    0.6916666666666667 T T T Cu
   0.6039747192628983    0.6378406911492526    0.6326708801228502 T T T Cu
   0.1039747192628985    0.1378406911492525    0.6326708801228502 T T T Cu
   0.8960252807371017    0.8621593088507475    0.6673291198771496 T T T Cu
   0.3960252807371016    0.3621593088507475    0.6673291198771496 T T T Cu
   0.1679165642093748    0.7230530073401696    0.6636805726317708 T T T Cu
   0.6679165642093747    0.2230530073401697    0.6636805726317708 T T T Cu
   0.3320834357906252    0.7769469926598305    0.6363194273682291 T T T Cu
   0.8320834357906253    0.2769469926598304    0.6363194273682291 T T T Cu
   0.0000000000000000    0.5000000000000000    0.6499999999999999 T T T Cu
   0.5000000000000000    0.0000000000000000    0.6499999999999999 T T T Cu
   0.1039747192628983    0.6378406911492525    0.6743375467895170 T T T Cu
   0.6039747192628984    0.1378406911492525    0.6743375467895170 T T T Cu
   0.3960252807371015    0.8621593088507475    0.6256624532104831 T T T Cu
   0.8960252807371016    0.3621593088507475    0.6256624532104831 T T T Cu
   0.6679165642093746    0.7230530073401696    0.7053472392984375 T T T Cu
   0.1679165642093746    0.2230530073401697    0.7053472392984375 T T T Cu
   0.8320834357906252    0.7769469926598305    0.6779860940348957 T T T Cu
   0.3320834357906253    0.2769469926598304    0.6779860940348957 T T T Cu
