Zr24 Ge48
1.0
   3.8419861538430333    0.0000000000000000    0.0000000000000002
  -0.0000000000000019   30.2787853687864832    3.8150852651301013
   0.0000000000000000    0.0000000000000000   26.7055968559107129
Zr Ge Zr Ge Zr Ge
8 16 8 16 8 16
Selective dynamics
direct
   0.5000000000000000    0.1975604002078377    0.3646342285417374 T T T Zr
   0.5000000000000000    0.6975604002078377    0.2932056571131660 T T T Zr
   0.0000000000000000    0.0524395997921623    0.3139372000296911 T T T Zr
   0.0000000000000000    0.5524395997921623    0.3853657714582625 T T T Zr
   0.0000000000000000    0.4475604002078377    0.3289199428274517 T T T Zr
   0.0000000000000000    0.9475604002078378    0.4003485142560231 T T T Zr
   0.4999999999999999    0.3024395997921623    0.4210800571725483 F F F Zr
   0.5000000000000000    0.8024395997921623    0.3496514857439768 T T T Zr
   0.4999999999999999    0.0297102028931562    0.3886128281581205 T T T Ge
   0.5000000000000000    0.5297102028931562    0.3171842567295491 T T T Ge
   0.0000000000000000    0.2202897971068439    0.2899586004133080 T T T Ge
   0.0000000000000000    0.7202897971068439    0.3613871718418794 T T T Ge
   0.4999999999999999    0.1249017891590416    0.3035854586915654 T T T Ge
   0.5000000000000000    0.6249017891590416    0.3750140301201369 T T T Ge
   0.0000000000000000    0.1250982108409585    0.3749859698798631 T T T Ge
   0.0000000000000000    0.6250982108409585    0.3035573984512916 T T T Ge
   0.0000000000000000    0.2797102028931562    0.3528985424438348 T T T Ge
   0.0000000000000000    0.7797102028931563    0.4243271138724062 F F F Ge
   0.5000000000000000    0.4702897971068439    0.3971014575561651 T T T Ge
   0.5000000000000000    0.9702897971068438    0.3256728861275937 T T T Ge
   0.0000000000000000    0.3749017891590415    0.4107283158344226 F F F Ge
   0.0000000000000000    0.8749017891590416    0.3392997444058512 T T T Ge
   0.5000000000000000    0.3750982108409585    0.3392716841655773 T T T Ge
   0.5000000000000000    0.8750982108409585    0.4107002555941487 F F F Ge
   0.5000000000000000    0.1975604002078377    0.5074913713988802 F F F Zr
   0.5000000000000000    0.6975604002078377    0.4360627999703088 F F F Zr
   0.0000000000000000    0.0524395997921623    0.4567943428868340 F F F Zr
   0.0000000000000000    0.5524395997921623    0.5282229143154054 F F F Zr
   0.0000000000000000    0.4475604002078377    0.4717770856845946 F F F Zr
   0.0000000000000000    0.9475604002078378    0.5432056571131660 F F F Zr
   0.4999999999999999    0.3024395997921623    0.5639372000296911 F F F Zr
   0.5000000000000000    0.8024395997921623    0.4925086286011197 F F F Zr
   0.4999999999999999    0.0297102028931562    0.5314699710152634 F F F Ge
   0.5000000000000000    0.5297102028931562    0.4600413995866920 F F F Ge
   0.0000000000000000    0.2202897971068439    0.4328157432704509 F F F Ge
   0.0000000000000000    0.7202897971068439    0.5042443146990223 F F F Ge
   0.4999999999999999    0.1249017891590416    0.4464426015487083 F F F Ge
   0.5000000000000000    0.6249017891590416    0.5178711729772798 F F F Ge
   0.0000000000000000    0.1250982108409585    0.5178431127370059 F F F Ge
   0.0000000000000000    0.6250982108409585    0.4464145413084345 F F F Ge
   0.0000000000000000    0.2797102028931562    0.4957556853009777 F F F Ge
   0.0000000000000000    0.7797102028931563    0.5671842567295491 F F F Ge
   0.5000000000000000    0.4702897971068439    0.5399586004133079 F F F Ge
   0.5000000000000000    0.9702897971068438    0.4685300289847366 F F F Ge
   0.0000000000000000    0.3749017891590415    0.5535854586915655 F F F Ge
   0.0000000000000000    0.8749017891590416    0.4821568872629940 F F F Ge
   0.5000000000000000    0.3750982108409585    0.4821288270227202 F F F Ge
   0.5000000000000000    0.8750982108409585    0.5535573984512916 F F F Ge
   0.5000000000000000    0.1975604002078377    0.6503485142560231 T T T Zr
   0.5000000000000000    0.6975604002078377    0.5789199428274517 F F F Zr
   0.0000000000000000    0.0524395997921623    0.5996514857439768 T T T Zr
   0.0000000000000000    0.5524395997921623    0.6710800571725482 T T T Zr
   0.0000000000000000    0.4475604002078377    0.6146342285417374 T T T Zr
   0.0000000000000000    0.9475604002078378    0.6860627999703088 T T T Zr
   0.4999999999999999    0.3024395997921623    0.7067943428868340 T T T Zr
   0.5000000000000000    0.8024395997921623    0.6353657714582625 T T T Zr
   0.4999999999999999    0.0297102028931562    0.6743271138724063 T T T Ge
   0.5000000000000000    0.5297102028931562    0.6028985424438348 T T T Ge
   0.0000000000000000    0.2202897971068439    0.5756728861275937 F F F Ge
   0.0000000000000000    0.7202897971068439    0.6471014575561651 T T T Ge
   0.4999999999999999    0.1249017891590416    0.5892997444058512 F F F Ge
   0.5000000000000000    0.6249017891590416    0.6607283158344226 T T T Ge
   0.0000000000000000    0.1250982108409585    0.6607002555941488 T T T Ge
   0.0000000000000000    0.6250982108409585    0.5892716841655773 F F F Ge
   0.0000000000000000    0.2797102028931562    0.6386128281581205 T T T Ge
   0.0000000000000000    0.7797102028931563    0.7100413995866919 T T T Ge
   0.5000000000000000    0.4702897971068439    0.6828157432704508 T T T Ge
   0.5000000000000000    0.9702897971068438    0.6113871718418794 T T T Ge
   0.0000000000000000    0.3749017891590415    0.6964426015487083 T T T Ge
   0.0000000000000000    0.8749017891590416    0.6250140301201369 T T T Ge
   0.5000000000000000    0.3750982108409585    0.6249859698798630 T T T Ge
   0.5000000000000000    0.8750982108409585    0.6964145413084344 T T T Ge
