Ag48 Au16
1.0
   4.1554370726060785    0.0000000000000000   -4.1554370726060776
  -0.0000000000000010   16.5693999217990324   -4.1554370726060794
   0.0000000000000000    0.0000000000000000   41.5543707260607817
Ag Au Ag Au Ag Au Ag Au
12 4 12 4 12 4 12 4
Selective dynamics
direct
   0.5000000000000000    0.1250000000000000    0.3562500000000000 T T T Ag
   0.5000000000000000    0.6250000000000000    0.3062500000000000 T T T Ag
   0.0000000000000000    0.1250000000000000    0.3562500000000000 T T T Ag
   0.0000000000000000    0.6250000000000000    0.3062500000000000 T T T Ag
   0.5000000000000000    0.0000000000000000    0.3937500000000000 T T T Ag
   0.5000000000000000    0.5000000000000000    0.3437500000000000 T T T Ag
   0.0000000000000000    0.3750000000000000    0.3812500000000000 T T T Ag
   0.0000000000000000    0.8750000000000000    0.3312500000000000 T T T Ag
   0.5000000000000000    0.3750000000000001    0.3812500000000000 T T T Ag
   0.5000000000000000    0.8750000000000000    0.3312500000000000 T T T Ag
   0.0000000000000000    0.2500000000000000    0.3187500000000000 T T T Ag
   0.0000000000000000    0.7500000000000000    0.3687500000000000 T T T Ag
   0.0000000000000000    0.0000000000000000    0.3937500000000000 T T T Au
   0.0000000000000000    0.5000000000000000    0.3437500000000000 T T T Au
   0.5000000000000000    0.2500000000000001    0.3187500000000000 T T T Au
   0.5000000000000000    0.7500000000000001    0.3687500000000000 T T T Au
   0.5000000000000000    0.1250000000000000    0.4562500000000000 F F F Ag
   0.5000000000000000    0.6250000000000000    0.4062500000000000 T T T Ag
   0.0000000000000000    0.1250000000000000    0.4562500000000000 F F F Ag
   0.0000000000000000    0.6250000000000000    0.4062500000000000 T T T Ag
   0.5000000000000000    0.0000000000000000    0.4937500000000000 F F F Ag
   0.5000000000000000    0.5000000000000000    0.4437500000000000 F F F Ag
   0.0000000000000000    0.3750000000000000    0.4812500000000000 F F F Ag
   0.0000000000000000    0.8750000000000000    0.4312500000000000 F F F Ag
   0.5000000000000000    0.3750000000000001    0.4812500000000000 F F F Ag
   0.5000000000000000    0.8750000000000000    0.4312500000000000 F F F Ag
   0.0000000000000000    0.2500000000000000    0.4187500000000000 F F F Ag
   0.0000000000000000    0.7500000000000000    0.4687500000000000 F F F Ag
   0.0000000000000000    0.0000000000000000    0.4937500000000000 F F F Au
   0.0000000000000000    0.5000000000000000    0.4437500000000000 F F F Au
   0.5000000000000000    0.2500000000000001    0.4187500000000000 F F F Au
   0.5000000000000000    0.7500000000000001    0.4687500000000000 F F F Au
   0.5000000000000000    0.1250000000000000    0.5562500000000000 F F F Ag
   0.5000000000000000    0.6250000000000000    0.5062500000000000 F F F Ag
   0.0000000000000000    0.1250000000000000    0.5562500000000000 F F F Ag
   0.0000000000000000    0.6250000000000000    0.5062500000000000 F F F Ag
   0.5000000000000000    0.0000000000000000    0.5937500000000000 T T T Ag
   0.5000000000000000    0.5000000000000000    0.5437500000000000 F F F Ag
   0.0000000000000000    0.3750000000000000    0.5812500000000000 F F F Ag
   0.0000000000000000    0.8750000000000000    0.5312500000000000 F F F Ag
   0.5000000000000000    0.3750000000000001    0.5812500000000000 F F F Ag
   0.5000000000000000    0.8750000000000000    0.5312500000000000 F F F Ag
   0.0000000000000000    0.2500000000000000    0.5187500000000000 F F F Ag
   0.0000000000000000    0.7500000000000000    0.5687500000000001 F F F Ag
   0.0000000000000000    0.0000000000000000    0.5937500000000000 T T T Au
   0.0000000000000000    0.5000000000000000    0.5437500000000000 F F F Au
   0.5000000000000000    0.2500000000000001    0.5187500000000000 F F F Au
   0.5000000000000000    0.7500000000000001    0.5687500000000001 F F F Au
   0.5000000000000000    0.1250000000000000    0.6562500000000000 T T T Ag
   0.5000000000000000    0.6250000000000000    0.6062500000000000 T T T Ag
   0.0000000000000000    0.1250000000000000    0.6562500000000000 T T T Ag
   0.0000000000000000    0.6250000000000000    0.6062500000000000 T T T Ag
   0.5000000000000000    0.0000000000000000    0.6937500000000000 T T T Ag
   0.5000000000000000    0.5000000000000000    0.6437500000000000 T T T Ag
   0.0000000000000000    0.3750000000000000    0.6812499999999999 T T T Ag
   0.0000000000000000    0.8750000000000000    0.6312500000000000 T T T Ag
   0.5000000000000000    0.3750000000000001    0.6812499999999999 T T T Ag
   0.5000000000000000    0.8750000000000000    0.6312500000000000 T T T Ag
   0.0000000000000000    0.2500000000000000    0.6187499999999999 T T T Ag
   0.0000000000000000    0.7500000000000000    0.6687500000000000 T T T Ag
   0.0000000000000000    0.0000000000000000    0.6937500000000000 T T T Au
   0.0000000000000000    0.5000000000000000    0.6437500000000000 T T T Au
   0.5000000000000000    0.2500000000000001    0.6187499999999999 T T T Au
   0.5000000000000000    0.7500000000000001    0.6687500000000000 T T T Au
