Ti96 Sb48
1.0
   7.8569262319620918    0.0000000000000000   -3.9284631159810459
  -0.0000000000000018   29.5578345898565757   -3.9284631159810468
   0.0000000000000000    0.0000000000000000   31.4277049278483744
Ti Sb Ti Sb Ti Sb
32 16 32 16 32 16
Selective dynamics
direct
   0.4999999999999999    0.5854852890513839    0.4325606611314230 F F F Ti
   0.0000000000000000    0.0854852890513839    0.4325606611314230 F F F Ti
   0.0000000000000000    0.5854852890513839    0.3700606611314230 T T T Ti
   0.4999999999999999    0.0854852890513839    0.3700606611314230 T T T Ti
   0.7500000000000000    0.6645147109486159    0.4111893388685770 T T T Ti
   0.2500000000000000    0.1645147109486159    0.4111893388685770 T T T Ti
   0.2500000000000000    0.6645147109486159    0.3486893388685770 T T T Ti
   0.7500000000000000    0.1645147109486159    0.3486893388685770 T T T Ti
   0.7500000000000000    0.4999999999999999    0.3281250000000000 T T T Ti
   0.2500000000000000    0.0000000000000000    0.3281250000000000 T T T Ti
   0.2500000000000000    0.4999999999999999    0.3906250000000000 T T T Ti
   0.7500000000000000    0.9999999999999999    0.3906250000000000 T T T Ti
   0.4999999999999999    0.4999999999999999    0.3593750000000000 T T T Ti
   0.0000000000000000    0.0000000000000000    0.3593750000000000 T T T Ti
   0.0000000000000000    0.4999999999999999    0.4218750000000000 T T T Ti
   0.4999999999999999    0.9999999999999999    0.4218750000000000 T T T Ti
   0.7500000000000000    0.8354852890513839    0.4325606611314230 F F F Ti
   0.2500000000000000    0.3354852890513839    0.4325606611314230 F F F Ti
   0.2500000000000000    0.8354852890513839    0.3700606611314230 T T T Ti
   0.7500000000000000    0.3354852890513839    0.3700606611314230 T T T Ti
   0.4999999999999999    0.9145147109486159    0.3486893388685770 T T T Ti
   0.0000000000000000    0.4145147109486160    0.3486893388685770 T T T Ti
   0.0000000000000000    0.9145147109486159    0.4111893388685770 T T T Ti
   0.4999999999999999    0.4145147109486159    0.4111893388685770 T T T Ti
   0.4999999999999999    0.7499999999999999    0.3906250000000000 T T T Ti
   0.0000000000000000    0.2499999999999999    0.3906250000000000 T T T Ti
   0.0000000000000000    0.7499999999999998    0.3281250000000000 T T T Ti
   0.4999999999999999    0.2499999999999999    0.3281250000000000 T T T Ti
   0.7500000000000000    0.7499999999999999    0.3593750000000000 T T T Ti
   0.2500000000000000    0.2499999999999999    0.3593750000000000 T T T Ti
   0.2500000000000000    0.7499999999999999    0.4218750000000000 T T T Ti
   0.7500000000000000    0.2499999999999999    0.4218750000000000 T T T Ti
   0.4999999999999999    0.6799112991257380    0.3193639123907173 T T T Sb
   0.0000000000000000    0.1799112991257381    0.3193639123907173 T T T Sb
   0.0000000000000000    0.6799112991257380    0.3818639123907173 T T T Sb
   0.4999999999999999    0.1799112991257380    0.3818639123907173 T T T Sb
   0.7500000000000000    0.5700887008742619    0.3993860876092827 T T T Sb
   0.2500000000000000    0.0700887008742618    0.3993860876092827 T T T Sb
   0.2500000000000000    0.5700887008742619    0.3368860876092827 T T T Sb
   0.7500000000000000    0.0700887008742618    0.3368860876092827 T T T Sb
   0.7500000000000000    0.9299112991257380    0.3193639123907173 T T T Sb
   0.2500000000000000    0.4299112991257381    0.3193639123907173 T T T Sb
   0.2500000000000000    0.9299112991257380    0.3818639123907173 T T T Sb
   0.7500000000000000    0.4299112991257380    0.3818639123907173 T T T Sb
   0.4999999999999999    0.8200887008742619    0.3368860876092827 T T T Sb
   0.0000000000000000    0.3200887008742619    0.3368860876092827 T T T Sb
   0.0000000000000000    0.8200887008742619    0.3993860876092827 T T T Sb
   0.4999999999999999    0.3200887008742618    0.3993860876092827 T T T Sb
   0.4999999999999999    0.5854852890513839    0.5575606611314230 F F F Ti
   0.0000000000000000    0.0854852890513839    0.5575606611314230 F F F Ti
   0.0000000000000000    0.5854852890513839    0.4950606611314230 F F F Ti
   0.4999999999999999    0.0854852890513839    0.4950606611314230 F F F Ti
   0.7500000000000000    0.6645147109486159    0.5361893388685770 F F F Ti
   0.2500000000000000    0.1645147109486159    0.5361893388685770 F F F Ti
   0.2500000000000000    0.6645147109486159    0.4736893388685770 F F F Ti
   0.7500000000000000    0.1645147109486159    0.4736893388685770 F F F Ti
   0.7500000000000000    0.4999999999999999    0.4531250000000000 F F F Ti
   0.2500000000000000    0.0000000000000000    0.4531250000000000 F F F Ti
   0.2500000000000000    0.4999999999999999    0.5156250000000000 F F F Ti
   0.7500000000000000    0.9999999999999999    0.5156250000000000 F F F Ti
   0.4999999999999999    0.4999999999999999    0.4843750000000000 F F F Ti
   0.0000000000000000    0.0000000000000000    0.4843750000000000 F F F Ti
   0.0000000000000000    0.4999999999999999    0.5468750000000000 F F F Ti
   0.4999999999999999    0.9999999999999999    0.5468750000000000 F F F Ti
   0.7500000000000000    0.8354852890513839    0.5575606611314230 F F F Ti
   0.2500000000000000    0.3354852890513839    0.5575606611314230 F F F Ti
   0.2500000000000000    0.8354852890513839    0.4950606611314230 F F F Ti
   0.7500000000000000    0.3354852890513839    0.4950606611314230 F F F Ti
   0.4999999999999999    0.9145147109486159    0.4736893388685770 F F F Ti
   0.0000000000000000    0.4145147109486160    0.4736893388685770 F F F Ti
   0.0000000000000000    0.9145147109486159    0.5361893388685770 F F F Ti
   0.4999999999999999    0.4145147109486159    0.5361893388685770 F F F Ti
   0.4999999999999999    0.7499999999999999    0.5156250000000000 F F F Ti
   0.0000000000000000    0.2499999999999999    0.5156250000000000 F F F Ti
   0.0000000000000000    0.7499999999999998    0.4531250000000000 F F F Ti
   0.4999999999999999    0.2499999999999999    0.4531250000000000 F F F Ti
   0.7500000000000000    0.7499999999999999    0.4843750000000000 F F F Ti
   0.2500000000000000    0.2499999999999999    0.4843750000000000 F F F Ti
   0.2500000000000000    0.7499999999999999    0.5468750000000000 F F F Ti
   0.7500000000000000    0.2499999999999999    0.5468750000000000 F F F Ti
   0.4999999999999999    0.6799112991257380    0.4443639123907173 F F F Sb
   0.0000000000000000    0.1799112991257381    0.4443639123907173 F F F Sb
   0.0000000000000000    0.6799112991257380    0.5068639123907173 F F F Sb
   0.4999999999999999    0.1799112991257380    0.5068639123907173 F F F Sb
   0.7500000000000000    0.5700887008742619    0.5243860876092827 F F F Sb
   0.2500000000000000    0.0700887008742618    0.5243860876092827 F F F Sb
   0.2500000000000000    0.5700887008742619    0.4618860876092827 F F F Sb
   0.7500000000000000    0.0700887008742618    0.4618860876092827 F F F Sb
   0.7500000000000000    0.9299112991257380    0.4443639123907173 F F F Sb
   0.2500000000000000    0.4299112991257381    0.4443639123907173 F F F Sb
   0.2500000000000000    0.9299112991257380    0.5068639123907173 F F F Sb
   0.7500000000000000    0.4299112991257380    0.5068639123907173 F F F Sb
   0.4999999999999999    0.8200887008742619    0.4618860876092827 F F F Sb
   0.0000000000000000    0.3200887008742619    0.4618860876092827 F F F Sb
   0.0000000000000000    0.8200887008742619    0.5243860876092827 F F F Sb
   0.4999999999999999    0.3200887008742618    0.5243860876092827 F F F Sb
   0.4999999999999999    0.5854852890513839    0.6825606611314230 T T T Ti
   0.0000000000000000    0.0854852890513839    0.6825606611314230 T T T Ti
   0.0000000000000000    0.5854852890513839    0.6200606611314230 T T T Ti
   0.4999999999999999    0.0854852890513839    0.6200606611314230 T T T Ti
   0.7500000000000000    0.6645147109486159    0.6611893388685770 T T T Ti
   0.2500000000000000    0.1645147109486159    0.6611893388685770 T T T Ti
   0.2500000000000000    0.6645147109486159    0.5986893388685770 T T T Ti
   0.7500000000000000    0.1645147109486159    0.5986893388685770 T T T Ti
   0.7500000000000000    0.4999999999999999    0.5781250000000000 T T T Ti
   0.2500000000000000    0.0000000000000000    0.5781250000000000 T T T Ti
   0.2500000000000000    0.4999999999999999    0.6406250000000000 T T T Ti
   0.7500000000000000    0.9999999999999999    0.6406250000000000 T T T Ti
   0.4999999999999999    0.4999999999999999    0.6093750000000000 T T T Ti
   0.0000000000000000    0.0000000000000000    0.6093750000000000 T T T Ti
   0.0000000000000000    0.4999999999999999    0.6718750000000000 T T T Ti
   0.4999999999999999    0.9999999999999999    0.6718750000000000 T T T Ti
   0.7500000000000000    0.8354852890513839    0.6825606611314230 T T T Ti
   0.2500000000000000    0.3354852890513839    0.6825606611314230 T T T Ti
   0.2500000000000000    0.8354852890513839    0.6200606611314230 T T T Ti
   0.7500000000000000    0.3354852890513839    0.6200606611314230 T T T Ti
   0.4999999999999999    0.9145147109486159    0.5986893388685770 T T T Ti
   0.0000000000000000    0.4145147109486160    0.5986893388685770 T T T Ti
   0.0000000000000000    0.9145147109486159    0.6611893388685770 T T T Ti
   0.4999999999999999    0.4145147109486159    0.6611893388685770 T T T Ti
   0.4999999999999999    0.7499999999999999    0.6406250000000000 T T T Ti
   0.0000000000000000    0.2499999999999999    0.6406250000000000 T T T Ti
   0.0000000000000000    0.7499999999999998    0.5781250000000000 T T T Ti
   0.4999999999999999    0.2499999999999999    0.5781250000000000 T T T Ti
   0.7500000000000000    0.7499999999999999    0.6093750000000000 T T T Ti
   0.2500000000000000    0.2499999999999999    0.6093750000000000 T T T Ti
   0.2500000000000000    0.7499999999999999    0.6718750000000000 T T T Ti
   0.7500000000000000    0.2499999999999999    0.6718750000000000 T T T Ti
   0.4999999999999999    0.6799112991257380    0.5693639123907173 F F F Sb
   0.0000000000000000    0.1799112991257381    0.5693639123907173 F F F Sb
   0.0000000000000000    0.6799112991257380    0.6318639123907173 T T T Sb
   0.4999999999999999    0.1799112991257380    0.6318639123907173 T T T Sb
   0.7500000000000000    0.5700887008742619    0.6493860876092827 T T T Sb
   0.2500000000000000    0.0700887008742618    0.6493860876092827 T T T Sb
   0.2500000000000000    0.5700887008742619    0.5868860876092827 T T T Sb
   0.7500000000000000    0.0700887008742618    0.5868860876092827 T T T Sb
   0.7500000000000000    0.9299112991257380    0.5693639123907173 F F F Sb
   0.2500000000000000    0.4299112991257381    0.5693639123907173 F F F Sb
   0.2500000000000000    0.9299112991257380    0.6318639123907173 T T T Sb
   0.7500000000000000    0.4299112991257380    0.6318639123907173 T T T Sb
   0.4999999999999999    0.8200887008742619    0.5868860876092827 T T T Sb
   0.0000000000000000    0.3200887008742619    0.5868860876092827 T T T Sb
   0.0000000000000000    0.8200887008742619    0.6493860876092827 T T T Sb
   0.4999999999999999    0.3200887008742618    0.6493860876092827 T T T Sb
