Sc12 Ge24
1.0
   3.8325520017562780    0.0000000000000000    0.0000000000000002
   0.0000000000000024   14.9187607459581209   -7.8258405707261502
   0.0000000000000000    0.0000000000000000   31.3033622829046116
Sc Ge Sc Ge Sc Ge
4 8 4 8 4 8
Selective dynamics
direct
   0.2500000000000001    0.8988320545348536    0.3809580136337133 T T T Sc
   0.7500000000000000    0.6011679454651464    0.3690419863662866 T T T Sc
   0.2500000000000000    0.3988320545348536    0.3184580136337134 T T T Sc
   0.7500000000000000    0.1011679454651464    0.4315419863662866 F F F Sc
   0.2500000000000001    0.5586069246936525    0.4209017311734131 T T T Ge
   0.7500000000000000    0.9413930753063475    0.3290982688265869 T T T Ge
   0.2500000000000000    0.7519188582306668    0.4067297145576667 T T T Ge
   0.7500000000000000    0.7480811417693332    0.3432702854423332 T T T Ge
   0.2500000000000001    0.0586069246936524    0.3584017311734131 T T T Ge
   0.7500000000000000    0.4413930753063475    0.3915982688265869 T T T Ge
   0.2500000000000000    0.2519188582306667    0.3442297145576667 T T T Ge
   0.7500000000000000    0.2480811417693330    0.4057702854423333 T T T Ge
   0.2500000000000001    0.8988320545348536    0.5059580136337134 F F F Sc
   0.7500000000000000    0.6011679454651464    0.4940419863662866 F F F Sc
   0.2500000000000000    0.3988320545348536    0.4434580136337134 F F F Sc
   0.7500000000000000    0.1011679454651464    0.5565419863662866 F F F Sc
   0.2500000000000001    0.5586069246936525    0.5459017311734131 F F F Ge
   0.7500000000000000    0.9413930753063475    0.4540982688265869 F F F Ge
   0.2500000000000000    0.7519188582306668    0.5317297145576667 F F F Ge
   0.7500000000000000    0.7480811417693332    0.4682702854423332 F F F Ge
   0.2500000000000001    0.0586069246936524    0.4834017311734131 F F F Ge
   0.7500000000000000    0.4413930753063475    0.5165982688265869 F F F Ge
   0.2500000000000000    0.2519188582306667    0.4692297145576667 F F F Ge
   0.7500000000000000    0.2480811417693330    0.5307702854423333 F F F Ge
   0.2500000000000001    0.8988320545348536    0.6309580136337134 T T T Sc
   0.7500000000000000    0.6011679454651464    0.6190419863662866 T T T Sc
   0.2500000000000000    0.3988320545348536    0.5684580136337134 F F F Sc
   0.7500000000000000    0.1011679454651464    0.6815419863662866 T T T Sc
   0.2500000000000001    0.5586069246936525    0.6709017311734131 T T T Ge
   0.7500000000000000    0.9413930753063475    0.5790982688265869 T T T Ge
   0.2500000000000000    0.7519188582306668    0.6567297145576667 T T T Ge
   0.7500000000000000    0.7480811417693332    0.5932702854423333 T T T Ge
   0.2500000000000001    0.0586069246936524    0.6084017311734131 T T T Ge
   0.7500000000000000    0.4413930753063475    0.6415982688265869 T T T Ge
   0.2500000000000000    0.2519188582306667    0.5942297145576667 T T T Ge
   0.7500000000000000    0.2480811417693330    0.6557702854423333 T T T Ge
