Si32 W16
1.0
   3.2293669967989453    0.0000000000000000    0.0000000000000002
   0.0000000000000025   15.7339054976234074   -3.2293669967989422
   0.0000000000000000    0.0000000000000000   29.0643029711905072
Si W Si W Si W Si W
8 4 8 4 8 4 8 4
Selective dynamics
direct
   0.0000000000000000    0.1671649119265446    0.2824627679918383 T T T Si
   0.0000000000000000    0.6671649119265445    0.3380183235473939 T T T Si
   0.5000000000000000    0.0828350880734554    0.3286483431192728 T T T Si
   0.5000000000000000    0.5828350880734554    0.3842038986748284 T T T Si
   0.5000000000000000    0.4171649119265445    0.3657961013251716 T T T Si
   0.5000000000000000    0.9171649119265445    0.3102405457696161 T T T Si
   0.0000000000000000    0.3328350880734554    0.3008705653414950 T T T Si
   0.0000000000000000    0.8328350880734554    0.3564261208970506 T T T Si
   0.0000000000000000    0.0000000000000000    0.3750000000000000 T T T W
   0.0000000000000000    0.4999999999999999    0.3194444444444444 T T T W
   0.5000000000000000    0.2499999999999999    0.3472222222222222 T T T W
   0.5000000000000000    0.7499999999999999    0.2916666666666666 T T T W
   0.0000000000000000    0.1671649119265446    0.3935738791029494 F F F Si
   0.0000000000000000    0.6671649119265445    0.4491294346585050 F F F Si
   0.5000000000000000    0.0828350880734554    0.4397594542303839 F F F Si
   0.5000000000000000    0.5828350880734554    0.4953150097859395 F F F Si
   0.5000000000000000    0.4171649119265445    0.4769072124362828 F F F Si
   0.5000000000000000    0.9171649119265445    0.4213516568807272 F F F Si
   0.0000000000000000    0.3328350880734554    0.4119816764526062 F F F Si
   0.0000000000000000    0.8328350880734554    0.4675372320081617 F F F Si
   0.0000000000000000    0.0000000000000000    0.4861111111111111 F F F W
   0.0000000000000000    0.4999999999999999    0.4305555555555556 F F F W
   0.5000000000000000    0.2499999999999999    0.4583333333333333 F F F W
   0.5000000000000000    0.7499999999999999    0.4027777777777778 F F F W
   0.0000000000000000    0.1671649119265446    0.5046849902140605 F F F Si
   0.0000000000000000    0.6671649119265445    0.5602405457696160 F F F Si
   0.5000000000000000    0.0828350880734554    0.5508705653414950 F F F Si
   0.5000000000000000    0.5828350880734554    0.6064261208970506 F F F Si
   0.5000000000000000    0.4171649119265445    0.5880183235473938 F F F Si
   0.5000000000000000    0.9171649119265445    0.5324627679918383 F F F Si
   0.0000000000000000    0.3328350880734554    0.5230927875637172 F F F Si
   0.0000000000000000    0.8328350880734554    0.5786483431192728 F F F Si
   0.0000000000000000    0.0000000000000000    0.5972222222222222 F F F W
   0.0000000000000000    0.4999999999999999    0.5416666666666666 F F F W
   0.5000000000000000    0.2499999999999999    0.5694444444444444 F F F W
   0.5000000000000000    0.7499999999999999    0.5138888888888888 F F F W
   0.0000000000000000    0.1671649119265446    0.6157961013251716 T T T Si
   0.0000000000000000    0.6671649119265445    0.6713516568807272 T T T Si
   0.5000000000000000    0.0828350880734554    0.6619816764526061 T T T Si
   0.5000000000000000    0.5828350880734554    0.7175372320081617 T T T Si
   0.5000000000000000    0.4171649119265445    0.6991294346585050 T T T Si
   0.5000000000000000    0.9171649119265445    0.6435738791029494 T T T Si
   0.0000000000000000    0.3328350880734554    0.6342038986748284 T T T Si
   0.0000000000000000    0.8328350880734554    0.6897594542303840 T T T Si
   0.0000000000000000    0.0000000000000000    0.7083333333333333 T T T W
   0.0000000000000000    0.4999999999999999    0.6527777777777778 T T T W
   0.5000000000000000    0.2499999999999999    0.6805555555555556 T T T W
   0.5000000000000000    0.7499999999999999    0.6250000000000000 T T T W
