Ta16 As32
1.0
   3.4222357265922754    0.0000000000000000    0.0000000000000002
   0.0000000000000026   16.4020081204321180   -1.5160246698146145
   0.0000000000000000    0.0000000000000000   31.3828537622586303
Ta As Ta As
8 16 8 16
Selective dynamics
direct
   0.5000000000000000    0.3284770480214831    0.4354849166991066 F F F Ta
   0.5000000000000000    0.8284770480214831    0.3104849166991066 T T T Ta
   0.5000000000000000    0.1715229519785169    0.3770150833008933 F F F Ta
   0.5000000000000000    0.6715229519785169    0.2520150833008933 T T T Ta
   0.0000000000000000    0.0784770480214831    0.4979849166991066 F F F Ta
   0.0000000000000000    0.5784770480214831    0.3729849166991067 F F F Ta
   0.0000000000000000    0.4215229519785169    0.3145150833008933 T T T Ta
   0.0000000000000000    0.9215229519785169    0.4395150833008934 F F F Ta
   0.0000000000000000    0.4297877332921587    0.4794034018520286 F F F As
   0.0000000000000000    0.9297877332921587    0.3544034018520286 F F F As
   0.0000000000000000    0.0702122667078414    0.3330965981479714 T T T As
   0.0000000000000000    0.5702122667078413    0.4580965981479714 F F F As
   0.5000000000000000    0.4526742993213020    0.3823564206742791 F F F As
   0.5000000000000000    0.9526742993213020    0.2573564206742791 T T T As
   0.5000000000000000    0.0473257006786981    0.4301435793257209 F F F As
   0.5000000000000000    0.5473257006786980    0.3051435793257209 T T T As
   0.5000000000000000    0.1797877332921587    0.2919034018520286 T T T As
   0.5000000000000000    0.6797877332921587    0.4169034018520286 F F F As
   0.5000000000000000    0.3202122667078413    0.2705965981479714 T T T As
   0.5000000000000000    0.8202122667078413    0.3955965981479714 F F F As
   0.0000000000000000    0.2026742993213020    0.4448564206742791 F F F As
   0.0000000000000000    0.7026742993213020    0.3198564206742791 T T T As
   0.0000000000000000    0.2973257006786980    0.3676435793257209 F F F As
   0.0000000000000000    0.7973257006786980    0.4926435793257209 F F F As
   0.5000000000000000    0.3284770480214831    0.6854849166991066 T T T Ta
   0.5000000000000000    0.8284770480214831    0.5604849166991066 F F F Ta
   0.5000000000000000    0.1715229519785169    0.6270150833008934 F F F Ta
   0.5000000000000000    0.6715229519785169    0.5020150833008934 F F F Ta
   0.0000000000000000    0.0784770480214831    0.7479849166991066 T T T Ta
   0.0000000000000000    0.5784770480214831    0.6229849166991066 F F F Ta
   0.0000000000000000    0.4215229519785169    0.5645150833008934 F F F Ta
   0.0000000000000000    0.9215229519785169    0.6895150833008934 T T T Ta
   0.0000000000000000    0.4297877332921587    0.7294034018520286 T T T As
   0.0000000000000000    0.9297877332921587    0.6044034018520286 F F F As
   0.0000000000000000    0.0702122667078414    0.5830965981479714 F F F As
   0.0000000000000000    0.5702122667078413    0.7080965981479714 T T T As
   0.5000000000000000    0.4526742993213020    0.6323564206742791 F F F As
   0.5000000000000000    0.9526742993213020    0.5073564206742791 F F F As
   0.5000000000000000    0.0473257006786981    0.6801435793257209 T T T As
   0.5000000000000000    0.5473257006786980    0.5551435793257209 F F F As
   0.5000000000000000    0.1797877332921587    0.5419034018520286 F F F As
   0.5000000000000000    0.6797877332921587    0.6669034018520286 T T T As
   0.5000000000000000    0.3202122667078413    0.5205965981479714 F F F As
   0.5000000000000000    0.8202122667078413    0.6455965981479714 F F F As
   0.0000000000000000    0.2026742993213020    0.6948564206742791 T T T As
   0.0000000000000000    0.7026742993213020    0.5698564206742791 F F F As
   0.0000000000000000    0.2973257006786980    0.6176435793257209 F F F As
   0.0000000000000000    0.7973257006786980    0.7426435793257209 T T T As
