Sb24 Ru12
1.0
   6.7461954227770713    0.0000000000000000    0.0000000000000004
  -0.0000000000000004    6.4499210379797924    6.0176340414626335
   0.0000000000000000    0.0000000000000000   42.1234382902384468
Sb Ru Sb Ru Sb Ru
8 4 8 4 8 4
Selective dynamics
direct
   0.6425120493761656    0.0000000000000000    0.3965351719700179 F F F Sb
   0.6425120493761655    0.4999999999999999    0.3251066005414465 T T T Sb
   0.3574879506238344    0.0000000000000000    0.3058457804109345 T T T Sb
   0.3574879506238344    0.5000000000000000    0.3772743518395059 T T T Sb
   0.8574879506238344    0.2500000000000000    0.2893923148271608 T T T Sb
   0.8574879506238344    0.7500000000000000    0.3608208862557322 T T T Sb
   0.1425120493761655    0.2500000000000000    0.3415600661252202 T T T Sb
   0.1425120493761655    0.7500000000000000    0.4129886375537916 F F F Sb
   0.0000000000000000    0.0000000000000000    0.4226190476190476 F F F Ru
   0.0000000000000000    0.5000000000000000    0.3511904761904762 T T T Ru
   0.5000000000000000    0.2500000000000000    0.3154761904761905 T T T Ru
   0.4999999999999999    0.7500000000000001    0.3869047619047619 F F F Ru
   0.6425120493761656    0.0000000000000000    0.5393923148271608 F F F Sb
   0.6425120493761655    0.4999999999999999    0.4679637433985894 F F F Sb
   0.3574879506238344    0.0000000000000000    0.4487029232680774 F F F Sb
   0.3574879506238344    0.5000000000000000    0.5201314946966488 F F F Sb
   0.8574879506238344    0.2500000000000000    0.4322494576843036 F F F Sb
   0.8574879506238344    0.7500000000000000    0.5036780291128751 F F F Sb
   0.1425120493761655    0.2500000000000000    0.4844172089823631 F F F Sb
   0.1425120493761655    0.7500000000000000    0.5558457804109345 F F F Sb
   0.0000000000000000    0.0000000000000000    0.5654761904761905 F F F Ru
   0.0000000000000000    0.5000000000000000    0.4940476190476191 F F F Ru
   0.5000000000000000    0.2500000000000000    0.4583333333333334 F F F Ru
   0.4999999999999999    0.7500000000000001    0.5297619047619048 F F F Ru
   0.6425120493761656    0.0000000000000000    0.6822494576843037 T T T Sb
   0.6425120493761655    0.4999999999999999    0.6108208862557322 F F F Sb
   0.3574879506238344    0.0000000000000000    0.5915600661252202 F F F Sb
   0.3574879506238344    0.5000000000000000    0.6629886375537917 T T T Sb
   0.8574879506238344    0.2500000000000000    0.5751066005414465 F F F Sb
   0.8574879506238344    0.7500000000000000    0.6465351719700179 T T T Sb
   0.1425120493761655    0.2500000000000000    0.6272743518395059 T T T Sb
   0.1425120493761655    0.7500000000000000    0.6987029232680773 T T T Sb
   0.0000000000000000    0.0000000000000000    0.7083333333333333 T T T Ru
   0.0000000000000000    0.5000000000000000    0.6369047619047619 T T T Ru
   0.5000000000000000    0.2500000000000000    0.6011904761904762 F F F Ru
   0.4999999999999999    0.7500000000000001    0.6726190476190477 T T T Ru
