Ge32 Rh32
1.0
   5.7205078237645282    0.0000000000000000   -3.3207314231040805
  -0.0000000000000008   13.0244744412094544   -3.3207314231040814
   0.0000000000000000    0.0000000000000000   33.2073142310408258
Ge Rh Ge Rh Ge Rh Ge Rh
8 8 8 8 8 8 8 8
Selective dynamics
direct
   0.8073596278368029    0.2819396388584076    0.3589299266695210 T T T Ge
   0.8073596278368029    0.7819396388584076    0.3089299266695210 T T T Ge
   0.1926403721631971    0.2180603611415926    0.3410700733304790 T T T Ge
   0.1926403721631971    0.7180603611415927    0.3910700733304789 T T T Ge
   0.3073596278368030    0.4680603611415927    0.3275419988978396 T T T Ge
   0.3073596278368030    0.9680603611415927    0.3775419988978396 T T T Ge
   0.6926403721631971    0.0319396388584075    0.3724580011021604 T T T Ge
   0.6926403721631971    0.5319396388584076    0.3224580011021604 T T T Ge
   0.9953178981662489    0.1015292691652335    0.3596847167331482 T T T Rh
   0.9953178981662489    0.6015292691652335    0.3096847167331482 T T T Rh
   0.0046821018337511    0.3984707308347666    0.3403152832668517 T T T Rh
   0.0046821018337511    0.8984707308347667    0.3903152832668517 T T T Rh
   0.4953178981662489    0.1484707308347667    0.3143788629001015 T T T Rh
   0.4953178981662489    0.6484707308347668    0.3643788629001016 T T T Rh
   0.5046821018337511    0.3515292691652335    0.3856211370998984 T T T Rh
   0.5046821018337511    0.8515292691652335    0.3356211370998984 T T T Rh
   0.8073596278368029    0.2819396388584076    0.4589299266695210 F F F Ge
   0.8073596278368029    0.7819396388584076    0.4089299266695210 T T T Ge
   0.1926403721631971    0.2180603611415926    0.4410700733304790 F F F Ge
   0.1926403721631971    0.7180603611415927    0.4910700733304790 F F F Ge
   0.3073596278368030    0.4680603611415927    0.4275419988978396 F F F Ge
   0.3073596278368030    0.9680603611415927    0.4775419988978396 F F F Ge
   0.6926403721631971    0.0319396388584075    0.4724580011021605 F F F Ge
   0.6926403721631971    0.5319396388584076    0.4224580011021605 F F F Ge
   0.9953178981662489    0.1015292691652335    0.4596847167331483 F F F Rh
   0.9953178981662489    0.6015292691652335    0.4096847167331482 T T T Rh
   0.0046821018337511    0.3984707308347666    0.4403152832668518 F F F Rh
   0.0046821018337511    0.8984707308347667    0.4903152832668518 F F F Rh
   0.4953178981662489    0.1484707308347667    0.4143788629001016 T T T Rh
   0.4953178981662489    0.6484707308347668    0.4643788629001016 F F F Rh
   0.5046821018337511    0.3515292691652335    0.4856211370998985 F F F Rh
   0.5046821018337511    0.8515292691652335    0.4356211370998985 F F F Rh
   0.8073596278368029    0.2819396388584076    0.5589299266695210 F F F Ge
   0.8073596278368029    0.7819396388584076    0.5089299266695211 F F F Ge
   0.1926403721631971    0.2180603611415926    0.5410700733304790 F F F Ge
   0.1926403721631971    0.7180603611415927    0.5910700733304790 T T T Ge
   0.3073596278368030    0.4680603611415927    0.5275419988978396 F F F Ge
   0.3073596278368030    0.9680603611415927    0.5775419988978396 F F F Ge
   0.6926403721631971    0.0319396388584075    0.5724580011021605 F F F Ge
   0.6926403721631971    0.5319396388584076    0.5224580011021605 F F F Ge
   0.9953178981662489    0.1015292691652335    0.5596847167331482 F F F Rh
   0.9953178981662489    0.6015292691652335    0.5096847167331482 F F F Rh
   0.0046821018337511    0.3984707308347666    0.5403152832668517 F F F Rh
   0.0046821018337511    0.8984707308347667    0.5903152832668517 T T T Rh
   0.4953178981662489    0.1484707308347667    0.5143788629001016 F F F Rh
   0.4953178981662489    0.6484707308347668    0.5643788629001016 F F F Rh
   0.5046821018337511    0.3515292691652335    0.5856211370998985 T T T Rh
   0.5046821018337511    0.8515292691652335    0.5356211370998984 F F F Rh
   0.8073596278368029    0.2819396388584076    0.6589299266695210 T T T Ge
   0.8073596278368029    0.7819396388584076    0.6089299266695209 T T T Ge
   0.1926403721631971    0.2180603611415926    0.6410700733304789 T T T Ge
   0.1926403721631971    0.7180603611415927    0.6910700733304789 T T T Ge
   0.3073596278368030    0.4680603611415927    0.6275419988978396 T T T Ge
   0.3073596278368030    0.9680603611415927    0.6775419988978395 T T T Ge
   0.6926403721631971    0.0319396388584075    0.6724580011021604 T T T Ge
   0.6926403721631971    0.5319396388584076    0.6224580011021604 T T T Ge
   0.9953178981662489    0.1015292691652335    0.6596847167331482 T T T Rh
   0.9953178981662489    0.6015292691652335    0.6096847167331483 T T T Rh
   0.0046821018337511    0.3984707308347666    0.6403152832668517 T T T Rh
   0.0046821018337511    0.8984707308347667    0.6903152832668518 T T T Rh
   0.4953178981662489    0.1484707308347667    0.6143788629001015 T T T Rh
   0.4953178981662489    0.6484707308347668    0.6643788629001015 T T T Rh
   0.5046821018337511    0.3515292691652335    0.6856211370998984 T T T Rh
   0.5046821018337511    0.8515292691652335    0.6356211370998984 T T T Rh
