Ge8 Rh8
1.0
   3.3207314231040823    0.0000000000000000    0.0000000000000002
   0.0000000000000010    6.5122372206047263    0.0000000000000004
   0.0000000000000000    0.0000000000000000   28.6025391188226408
Ge Rh Ge Rh
4 4 4 4
Selective dynamics
direct
   0.2499999999999999    0.4361207222831851    0.3135280744326394 T T T Ge
   0.7500000000000000    0.5638792777168149    0.4364719255673606 F F F Ge
   0.2499999999999999    0.0638792777168149    0.4135280744326394 T T T Ge
   0.7500000000000000    0.9361207222831851    0.3364719255673606 T T T Ge
   0.2499999999999999    0.7969414616695332    0.4759364203667502 F F F Rh
   0.7500000000000000    0.2030585383304667    0.4740635796332498 F F F Rh
   0.2499999999999999    0.7030585383304668    0.3759364203667502 T T T Rh
   0.7500000000000000    0.2969414616695332    0.3740635796332498 T T T Rh
   0.2499999999999999    0.4361207222831851    0.5135280744326394 F F F Ge
   0.7500000000000000    0.5638792777168149    0.6364719255673605 T T T Ge
   0.2499999999999999    0.0638792777168149    0.6135280744326395 T T T Ge
   0.7500000000000000    0.9361207222831851    0.5364719255673606 F F F Ge
   0.2499999999999999    0.7969414616695332    0.6759364203667502 T T T Rh
   0.7500000000000000    0.2030585383304667    0.6740635796332498 T T T Rh
   0.2499999999999999    0.7030585383304668    0.5759364203667502 T T T Rh
   0.7500000000000000    0.2969414616695332    0.5740635796332498 T T T Rh
