Ge24 Rh24
1.0
   6.6414628462081655    0.0000000000000000    5.7205078237645273
   3.3207314231040805    6.5122372206047272    0.0000000000000004
   0.0000000000000000    0.0000000000000000   40.0435547663516971
Ge Rh Ge Rh Ge Rh
8 8 8 8 8 8
Selective dynamics
direct
   0.8430603611415926    0.5638792777168149    0.3877570380993157 T T T Ge
   0.3430603611415924    0.5638792777168149    0.3163284666707443 T T T Ge
   0.1569396388584075    0.4361207222831851    0.3979572476149699 T T T Ge
   0.6569396388584074    0.4361207222831852    0.3265286761863985 T T T Ge
   0.6569396388584074    0.9361207222831851    0.3429171412826279 T T T Ge
   0.1569396388584073    0.9361207222831851    0.4143457127111994 F F F Ge
   0.3430603611415926    0.0638792777168149    0.2999400015745149 T T T Ge
   0.8430603611415926    0.0638792777168149    0.3713685730030863 T T T Ge
   0.0234707308347666    0.2030585383304669    0.3888353096187832 T T T Rh
   0.5234707308347666    0.2030585383304668    0.3174067381902117 T T T Rh
   0.9765292691652334    0.7969414616695332    0.3968789760955025 T T T Rh
   0.4765292691652334    0.7969414616695333    0.3254504046669310 T T T Rh
   0.9765292691652334    0.2969414616695332    0.3241126612858594 T T T Rh
   0.4765292691652333    0.2969414616695332    0.3955412327144308 T T T Rh
   0.0234707308347666    0.7030585383304668    0.3187444815712834 T T T Rh
   0.5234707308347666    0.7030585383304668    0.3901730529998549 T T T Rh
   0.8430603611415926    0.5638792777168149    0.5306141809564586 F F F Ge
   0.3430603611415924    0.5638792777168149    0.4591856095278871 F F F Ge
   0.1569396388584075    0.4361207222831851    0.5408143904721128 F F F Ge
   0.6569396388584074    0.4361207222831852    0.4693858190435413 F F F Ge
   0.6569396388584074    0.9361207222831851    0.4857742841397708 F F F Ge
   0.1569396388584073    0.9361207222831851    0.5572028555683421 F F F Ge
   0.3430603611415926    0.0638792777168149    0.4427971444316577 F F F Ge
   0.8430603611415926    0.0638792777168149    0.5142257158602291 F F F Ge
   0.0234707308347666    0.2030585383304669    0.5316924524759260 F F F Rh
   0.5234707308347666    0.2030585383304668    0.4602638810473546 F F F Rh
   0.9765292691652334    0.7969414616695332    0.5397361189526453 F F F Rh
   0.4765292691652334    0.7969414616695333    0.4683075475240739 F F F Rh
   0.9765292691652334    0.2969414616695332    0.4669698041430022 F F F Rh
   0.4765292691652333    0.2969414616695332    0.5383983755715736 F F F Rh
   0.0234707308347666    0.7030585383304668    0.4616016244284263 F F F Rh
   0.5234707308347666    0.7030585383304668    0.5330301958569977 F F F Rh
   0.8430603611415926    0.5638792777168149    0.6734713238136014 T T T Ge
   0.3430603611415924    0.5638792777168149    0.6020427523850300 T T T Ge
   0.1569396388584075    0.4361207222831851    0.6836715333292556 T T T Ge
   0.6569396388584074    0.4361207222831852    0.6122429619006842 T T T Ge
   0.6569396388584074    0.9361207222831851    0.6286314269969135 T T T Ge
   0.1569396388584073    0.9361207222831851    0.7000599984254851 T T T Ge
   0.3430603611415926    0.0638792777168149    0.5856542872888006 F F F Ge
   0.8430603611415926    0.0638792777168149    0.6570828587173720 T T T Ge
   0.0234707308347666    0.2030585383304669    0.6745495953330689 T T T Rh
   0.5234707308347666    0.2030585383304668    0.6031210239044974 T T T Rh
   0.9765292691652334    0.7969414616695332    0.6825932618097882 T T T Rh
   0.4765292691652334    0.7969414616695333    0.6111646903812167 T T T Rh
   0.9765292691652334    0.2969414616695332    0.6098269470001451 T T T Rh
   0.4765292691652333    0.2969414616695332    0.6812555184287165 T T T Rh
   0.0234707308347666    0.7030585383304668    0.6044587672855691 T T T Rh
   0.5234707308347666    0.7030585383304668    0.6758873387141406 T T T Rh
