Nb32 Pd64
1.0
   7.9136499088652998    0.0000000000000000   -2.8423138791883993
  -0.0000000000000048   16.9158771484858512   -2.8423138791884037
   0.0000000000000000    0.0000000000000000   28.4231387918840106
Nb Pd Nb Pd Nb Pd Nb Pd
8 16 8 16 8 16 8 16
Selective dynamics
direct
   0.5000000000000000    0.4999999999999999    0.3916666666666667 T T T Nb
   0.0000000000000000    0.0000000000000000    0.3916666666666667 T T T Nb
   0.0000000000000000    0.4999999999999999    0.3416666666666667 T T T Nb
   0.5000000000000000    0.0000000000000000    0.3416666666666667 T T T Nb
   0.7500000000000001    0.7499999999999999    0.3916666666666667 T T T Nb
   0.2500000000000000    0.2499999999999999    0.3916666666666666 T T T Nb
   0.2500000000000000    0.7499999999999999    0.3416666666666667 T T T Nb
   0.7500000000000001    0.2499999999999998    0.3416666666666666 T T T Nb
   0.7500000000000001    0.5831604597441283    0.3749827126410795 T T T Pd
   0.2500000000000000    0.0831604597441284    0.3749827126410795 T T T Pd
   0.2500000000000000    0.5831604597441283    0.3249827126410795 T T T Pd
   0.7500000000000001    0.0831604597441283    0.3249827126410795 T T T Pd
   0.5000000000000000    0.6668395402558716    0.3083506206922538 T T T Pd
   0.0000000000000000    0.1668395402558715    0.3083506206922538 T T T Pd
   0.0000000000000000    0.6668395402558716    0.3583506206922538 T T T Pd
   0.5000000000000000    0.1668395402558715    0.3583506206922538 T T T Pd
   0.5000000000000000    0.8331604597441284    0.3249827126410795 T T T Pd
   0.0000000000000000    0.3331604597441284    0.3249827126410795 T T T Pd
   0.0000000000000000    0.8331604597441284    0.3749827126410795 T T T Pd
   0.5000000000000000    0.3331604597441284    0.3749827126410795 T T T Pd
   0.7500000000000001    0.9168395402558714    0.3083506206922538 T T T Pd
   0.2500000000000000    0.4168395402558714    0.3083506206922538 T T T Pd
   0.2500000000000000    0.9168395402558714    0.3583506206922538 T T T Pd
   0.7500000000000001    0.4168395402558714    0.3583506206922538 T T T Pd
   0.5000000000000000    0.4999999999999999    0.4916666666666667 F F F Nb
   0.0000000000000000    0.0000000000000000    0.4916666666666666 F F F Nb
   0.0000000000000000    0.4999999999999999    0.4416666666666667 F F F Nb
   0.5000000000000000    0.0000000000000000    0.4416666666666667 F F F Nb
   0.7500000000000001    0.7499999999999999    0.4916666666666667 F F F Nb
   0.2500000000000000    0.2499999999999999    0.4916666666666666 F F F Nb
   0.2500000000000000    0.7499999999999999    0.4416666666666667 F F F Nb
   0.7500000000000001    0.2499999999999998    0.4416666666666667 F F F Nb
   0.7500000000000001    0.5831604597441283    0.4749827126410795 F F F Pd
   0.2500000000000000    0.0831604597441284    0.4749827126410795 F F F Pd
   0.2500000000000000    0.5831604597441283    0.4249827126410795 F F F Pd
   0.7500000000000001    0.0831604597441283    0.4249827126410795 F F F Pd
   0.5000000000000000    0.6668395402558716    0.4083506206922538 T T T Pd
   0.0000000000000000    0.1668395402558715    0.4083506206922538 T T T Pd
   0.0000000000000000    0.6668395402558716    0.4583506206922539 F F F Pd
   0.5000000000000000    0.1668395402558715    0.4583506206922538 F F F Pd
   0.5000000000000000    0.8331604597441284    0.4249827126410795 F F F Pd
   0.0000000000000000    0.3331604597441284    0.4249827126410795 F F F Pd
   0.0000000000000000    0.8331604597441284    0.4749827126410795 F F F Pd
   0.5000000000000000    0.3331604597441284    0.4749827126410795 F F F Pd
   0.7500000000000001    0.9168395402558714    0.4083506206922538 T T T Pd
   0.2500000000000000    0.4168395402558714    0.4083506206922538 T T T Pd
   0.2500000000000000    0.9168395402558714    0.4583506206922538 F F F Pd
   0.7500000000000001    0.4168395402558714    0.4583506206922538 F F F Pd
   0.5000000000000000    0.4999999999999999    0.5916666666666667 T T T Nb
   0.0000000000000000    0.0000000000000000    0.5916666666666667 T T T Nb
   0.0000000000000000    0.4999999999999999    0.5416666666666666 F F F Nb
   0.5000000000000000    0.0000000000000000    0.5416666666666666 F F F Nb
   0.7500000000000001    0.7499999999999999    0.5916666666666667 T T T Nb
   0.2500000000000000    0.2499999999999999    0.5916666666666667 T T T Nb
   0.2500000000000000    0.7499999999999999    0.5416666666666666 F F F Nb
   0.7500000000000001    0.2499999999999998    0.5416666666666666 F F F Nb
   0.7500000000000001    0.5831604597441283    0.5749827126410796 F F F Pd
   0.2500000000000000    0.0831604597441284    0.5749827126410795 F F F Pd
   0.2500000000000000    0.5831604597441283    0.5249827126410795 F F F Pd
   0.7500000000000001    0.0831604597441283    0.5249827126410795 F F F Pd
   0.5000000000000000    0.6668395402558716    0.5083506206922539 F F F Pd
   0.0000000000000000    0.1668395402558715    0.5083506206922538 F F F Pd
   0.0000000000000000    0.6668395402558716    0.5583506206922538 F F F Pd
   0.5000000000000000    0.1668395402558715    0.5583506206922538 F F F Pd
   0.5000000000000000    0.8331604597441284    0.5249827126410795 F F F Pd
   0.0000000000000000    0.3331604597441284    0.5249827126410795 F F F Pd
   0.0000000000000000    0.8331604597441284    0.5749827126410796 F F F Pd
   0.5000000000000000    0.3331604597441284    0.5749827126410795 F F F Pd
   0.7500000000000001    0.9168395402558714    0.5083506206922538 F F F Pd
   0.2500000000000000    0.4168395402558714    0.5083506206922538 F F F Pd
   0.2500000000000000    0.9168395402558714    0.5583506206922538 F F F Pd
   0.7500000000000001    0.4168395402558714    0.5583506206922537 F F F Pd
   0.5000000000000000    0.4999999999999999    0.6916666666666667 T T T Nb
   0.0000000000000000    0.0000000000000000    0.6916666666666667 T T T Nb
   0.0000000000000000    0.4999999999999999    0.6416666666666666 T T T Nb
   0.5000000000000000    0.0000000000000000    0.6416666666666666 T T T Nb
   0.7500000000000001    0.7499999999999999    0.6916666666666667 T T T Nb
   0.2500000000000000    0.2499999999999999    0.6916666666666667 T T T Nb
   0.2500000000000000    0.7499999999999999    0.6416666666666666 T T T Nb
   0.7500000000000001    0.2499999999999998    0.6416666666666666 T T T Nb
   0.7500000000000001    0.5831604597441283    0.6749827126410795 T T T Pd
   0.2500000000000000    0.0831604597441284    0.6749827126410795 T T T Pd
   0.2500000000000000    0.5831604597441283    0.6249827126410794 T T T Pd
   0.7500000000000001    0.0831604597441283    0.6249827126410794 T T T Pd
   0.5000000000000000    0.6668395402558716    0.6083506206922538 T T T Pd
   0.0000000000000000    0.1668395402558715    0.6083506206922538 T T T Pd
   0.0000000000000000    0.6668395402558716    0.6583506206922538 T T T Pd
   0.5000000000000000    0.1668395402558715    0.6583506206922538 T T T Pd
   0.5000000000000000    0.8331604597441284    0.6249827126410795 T T T Pd
   0.0000000000000000    0.3331604597441284    0.6249827126410795 T T T Pd
   0.0000000000000000    0.8331604597441284    0.6749827126410795 T T T Pd
   0.5000000000000000    0.3331604597441284    0.6749827126410795 T T T Pd
   0.7500000000000001    0.9168395402558714    0.6083506206922538 T T T Pd
   0.2500000000000000    0.4168395402558714    0.6083506206922538 T T T Pd
   0.2500000000000000    0.9168395402558714    0.6583506206922538 T T T Pd
   0.7500000000000001    0.4168395402558714    0.6583506206922538 T T T Pd
