Nb4 Pd8
1.0
   2.8423138791884011    0.0000000000000000    0.0000000000000002
   0.0000000000000006    3.9568249544326499    0.0000000000000002
   0.0000000000000000    0.0000000000000000   33.8317542969717024
Nb Pd Nb Pd
2 4 2 4
Selective dynamics
direct
   0.0000000000000000    0.0000000000000000    0.4791666666666667 F F F Nb
   0.4999999999999999    0.5000000000000000    0.3541666666666667 T T T Nb
   0.4999999999999999    0.5000000000000000    0.2707468965387309 T T T Pd
   0.0000000000000000    0.0000000000000000    0.3125864367946025 T T T Pd
   0.0000000000000000    0.0000000000000000    0.3957468965387310 F F F Pd
   0.4999999999999999    0.5000000000000000    0.4375864367946025 F F F Pd
   0.0000000000000000    0.0000000000000000    0.7291666666666667 T T T Nb
   0.4999999999999999    0.5000000000000000    0.6041666666666667 F F F Nb
   0.4999999999999999    0.5000000000000000    0.5207468965387310 F F F Pd
   0.0000000000000000    0.0000000000000000    0.5625864367946025 F F F Pd
   0.0000000000000000    0.0000000000000000    0.6457468965387310 T T T Pd
   0.4999999999999999    0.5000000000000000    0.6875864367946025 T T T Pd
