Zr16 Ti32 Ga64
1.0
  13.1581345083340313    0.0000000000000000   -6.5790672541670157
  -0.0000000000000007   10.9333900937263468   -6.5790672541670148
   0.0000000000000000    0.0000000000000000   32.8953362708350809
Zr Ti Ga Zr Ti Ga
8 16 32 8 16 32
Selective dynamics
direct
   0.5000000000000000    0.4999999999999999    0.4928571428571429 F F F Zr
   0.0000000000000000    0.0000000000000000    0.4928571428571428 F F F Zr
   0.0000000000000000    0.5000000000000000    0.3928571428571428 T T T Zr
   0.5000000000000000    0.0000000000000000    0.3928571428571428 T T T Zr
   0.7500000000000001    0.7500000000000000    0.4928571428571429 F F F Zr
   0.2500000000000000    0.2500000000000001    0.4928571428571429 F F F Zr
   0.2500000000000000    0.7500000000000001    0.3928571428571429 T T T Zr
   0.7500000000000001    0.2500000000000001    0.3928571428571429 T T T Zr
   0.5000000000000000    0.8750000000000000    0.4678571428571429 F F F Ti
   0.0000000000000000    0.3750000000000001    0.4678571428571429 F F F Ti
   0.0000000000000000    0.8750000000000001    0.3678571428571428 T T T Ti
   0.5000000000000000    0.3750000000000001    0.3678571428571428 T T T Ti
   0.7500000000000001    0.8750000000000000    0.4178571428571429 F F F Ti
   0.2500000000000000    0.3750000000000000    0.4178571428571428 F F F Ti
   0.2500000000000000    0.8750000000000000    0.3178571428571429 T T T Ti
   0.7500000000000001    0.3750000000000000    0.3178571428571429 T T T Ti
   0.7500000000000001    0.6250000000000000    0.3678571428571429 T T T Ti
   0.2500000000000000    0.1250000000000000    0.3678571428571429 T T T Ti
   0.2500000000000000    0.6250000000000000    0.4678571428571429 F F F Ti
   0.7500000000000001    0.1250000000000000    0.4678571428571429 F F F Ti
   0.5000000000000000    0.6250000000000000    0.4178571428571428 F F F Ti
   0.0000000000000000    0.1250000000000001    0.4178571428571428 F F F Ti
   0.0000000000000000    0.6250000000000001    0.3178571428571428 T T T Ti
   0.5000000000000000    0.1250000000000001    0.3178571428571428 T T T Ti
   0.6519220645765843    0.4999999999999999    0.3840103816030934 T T T Ga
   0.1519220645765842    0.0000000000000000    0.3840103816030934 T T T Ga
   0.1519220645765842    0.5000000000000000    0.4840103816030934 F F F Ga
   0.6519220645765843    0.0000000000000001    0.4840103816030934 F F F Ga
   0.5980779354234158    0.7500000000000000    0.4017039041111923 T T T Ga
   0.0980779354234158    0.2500000000000000    0.4017039041111923 T T T Ga
   0.0980779354234158    0.7500000000000001    0.3017039041111923 T T T Ga
   0.5980779354234158    0.2500000000000001    0.3017039041111923 T T T Ga
   0.9019220645765842    0.7500000000000000    0.4624727299418260 F F F Ga
   0.4019220645765842    0.2500000000000001    0.4624727299418260 F F F Ga
   0.4019220645765842    0.7500000000000000    0.3624727299418260 T T T Ga
   0.9019220645765842    0.2500000000000001    0.3624727299418260 T T T Ga
   0.5980779354234158    0.7500000000000000    0.3232415557724597 T T T Ga
   0.0980779354234158    0.2500000000000001    0.3232415557724597 T T T Ga
   0.0980779354234158    0.7500000000000001    0.4232415557724597 F F F Ga
   0.5980779354234158    0.2500000000000001    0.4232415557724597 F F F Ga
   0.9019220645765842    0.7500000000000000    0.3840103816030933 T T T Ga
   0.4019220645765842    0.2500000000000001    0.3840103816030933 T T T Ga
   0.4019220645765842    0.7500000000000001    0.4840103816030933 F F F Ga
   0.9019220645765842    0.2500000000000001    0.4840103816030933 F F F Ga
   0.8480779354234158    0.5000000000000001    0.3017039041111924 T T T Ga
   0.3480779354234159    0.0000000000000001    0.3017039041111924 T T T Ga
   0.3480779354234159    0.5000000000000001    0.4017039041111924 T T T Ga
   0.8480779354234158    0.0000000000000001    0.4017039041111924 T T T Ga
   0.6519220645765843    0.5000000000000000    0.4624727299418260 F F F Ga
   0.1519220645765842    0.0000000000000001    0.4624727299418260 F F F Ga
   0.1519220645765842    0.5000000000000001    0.3624727299418260 T T T Ga
   0.6519220645765843    0.0000000000000001    0.3624727299418260 T T T Ga
   0.8480779354234158    0.4999999999999999    0.4232415557724597 F F F Ga
   0.3480779354234159    0.0000000000000000    0.4232415557724597 F F F Ga
   0.3480779354234159    0.5000000000000000    0.3232415557724597 T T T Ga
   0.8480779354234158    0.0000000000000001    0.3232415557724597 T T T Ga
   0.5000000000000000    0.4999999999999999    0.6928571428571428 T T T Zr
   0.0000000000000000    0.0000000000000000    0.6928571428571428 T T T Zr
   0.0000000000000000    0.5000000000000000    0.5928571428571427 T T T Zr
   0.5000000000000000    0.0000000000000000    0.5928571428571429 T T T Zr
   0.7500000000000001    0.7500000000000000    0.6928571428571428 T T T Zr
   0.2500000000000000    0.2500000000000001    0.6928571428571428 T T T Zr
   0.2500000000000000    0.7500000000000001    0.5928571428571430 T T T Zr
   0.7500000000000001    0.2500000000000001    0.5928571428571430 T T T Zr
   0.5000000000000000    0.8750000000000000    0.6678571428571429 T T T Ti
   0.0000000000000000    0.3750000000000001    0.6678571428571429 T T T Ti
   0.0000000000000000    0.8750000000000001    0.5678571428571428 F F F Ti
   0.5000000000000000    0.3750000000000001    0.5678571428571428 F F F Ti
   0.7500000000000001    0.8750000000000000    0.6178571428571429 T T T Ti
   0.2500000000000000    0.3750000000000000    0.6178571428571429 T T T Ti
   0.2500000000000000    0.8750000000000000    0.5178571428571429 F F F Ti
   0.7500000000000001    0.3750000000000000    0.5178571428571429 F F F Ti
   0.7500000000000001    0.6250000000000000    0.5678571428571428 F F F Ti
   0.2500000000000000    0.1250000000000000    0.5678571428571428 F F F Ti
   0.2500000000000000    0.6250000000000000    0.6678571428571429 T T T Ti
   0.7500000000000001    0.1250000000000000    0.6678571428571429 T T T Ti
   0.5000000000000000    0.6250000000000000    0.6178571428571429 T T T Ti
   0.0000000000000000    0.1250000000000001    0.6178571428571429 T T T Ti
   0.0000000000000000    0.6250000000000001    0.5178571428571428 F F F Ti
   0.5000000000000000    0.1250000000000001    0.5178571428571428 F F F Ti
   0.6519220645765843    0.4999999999999999    0.5840103816030935 T T T Ga
   0.1519220645765842    0.0000000000000000    0.5840103816030934 T T T Ga
   0.1519220645765842    0.5000000000000000    0.6840103816030934 T T T Ga
   0.6519220645765843    0.0000000000000001    0.6840103816030934 T T T Ga
   0.5980779354234158    0.7500000000000000    0.6017039041111922 T T T Ga
   0.0980779354234158    0.2500000000000000    0.6017039041111922 T T T Ga
   0.0980779354234158    0.7500000000000001    0.5017039041111924 F F F Ga
   0.5980779354234158    0.2500000000000001    0.5017039041111924 F F F Ga
   0.9019220645765842    0.7500000000000000    0.6624727299418260 T T T Ga
   0.4019220645765842    0.2500000000000001    0.6624727299418260 T T T Ga
   0.4019220645765842    0.7500000000000000    0.5624727299418260 F F F Ga
   0.9019220645765842    0.2500000000000001    0.5624727299418260 F F F Ga
   0.5980779354234158    0.7500000000000000    0.5232415557724597 F F F Ga
   0.0980779354234158    0.2500000000000001    0.5232415557724597 F F F Ga
   0.0980779354234158    0.7500000000000001    0.6232415557724598 T T T Ga
   0.5980779354234158    0.2500000000000001    0.6232415557724598 T T T Ga
   0.9019220645765842    0.7500000000000000    0.5840103816030933 T T T Ga
   0.4019220645765842    0.2500000000000001    0.5840103816030933 T T T Ga
   0.4019220645765842    0.7500000000000001    0.6840103816030934 T T T Ga
   0.9019220645765842    0.2500000000000001    0.6840103816030934 T T T Ga
   0.8480779354234158    0.5000000000000001    0.5017039041111924 F F F Ga
   0.3480779354234159    0.0000000000000001    0.5017039041111924 F F F Ga
   0.3480779354234159    0.5000000000000001    0.6017039041111925 T T T Ga
   0.8480779354234158    0.0000000000000001    0.6017039041111925 T T T Ga
   0.6519220645765843    0.5000000000000000    0.6624727299418260 T T T Ga
   0.1519220645765842    0.0000000000000001    0.6624727299418260 T T T Ga
   0.1519220645765842    0.5000000000000001    0.5624727299418260 F F F Ga
   0.6519220645765843    0.0000000000000001    0.5624727299418260 F F F Ga
   0.8480779354234158    0.4999999999999999    0.6232415557724598 T T T Ga
   0.3480779354234159    0.0000000000000000    0.6232415557724598 T T T Ga
   0.3480779354234159    0.5000000000000000    0.5232415557724597 F F F Ga
   0.8480779354234158    0.0000000000000001    0.5232415557724597 F F F Ga
