Ca12 Co24 Si24
1.0
   3.8932857155743275    0.0000000000000000    0.0000000000000002
   0.0000000000000032   19.8625949845029197   -3.8932857155743266
   0.0000000000000000    0.0000000000000000   27.2530000090202904
Ca Co Si Ca Co Si Ca Co Si
4 8 8 4 8 8 4 8 8
Selective dynamics
direct
   0.0000000000000000    0.0000000000000000    0.4249999999999999 F F F Ca
   0.0000000000000000    0.5000000000000000    0.3535714285714285 T T T Ca
   0.4999999999999999    0.2500000000000001    0.3892857142857142 T T T Ca
   0.4999999999999999    0.7500000000000001    0.3178571428571428 T T T Ca
   0.0000000000000000    0.1250000000000001    0.3714285714285714 T T T Co
   0.0000000000000000    0.6250000000000001    0.3000000000000000 T T T Co
   0.4999999999999999    0.1250000000000000    0.3000000000000000 T T T Co
   0.4999999999999999    0.6250000000000000    0.3714285714285714 T T T Co
   0.4999999999999999    0.3750000000000000    0.3357142857142857 T T T Co
   0.4999999999999999    0.8750000000000001    0.4071428571428571 F F F Co
   0.0000000000000000    0.3750000000000001    0.4071428571428571 F F F Co
   0.0000000000000000    0.8750000000000001    0.3357142857142857 T T T Co
   0.4999999999999999    0.0660953249985959    0.3630136178569422 T T T Si
   0.4999999999999999    0.5660953249985959    0.2915850464283709 T T T Si
   0.0000000000000000    0.1839046750014042    0.3084149535716291 T T T Si
   0.0000000000000000    0.6839046750014043    0.3798435250002006 T T T Si
   0.0000000000000000    0.3160953249985958    0.3272993321426565 T T T Si
   0.0000000000000000    0.8160953249985958    0.3987279035712279 T T T Si
   0.4999999999999999    0.4339046750014042    0.4155578107144863 F F F Si
   0.4999999999999999    0.9339046750014044    0.3441292392859149 T T T Si
   0.0000000000000000    0.0000000000000000    0.5678571428571428 F F F Ca
   0.0000000000000000    0.5000000000000000    0.4964285714285714 F F F Ca
   0.4999999999999999    0.2500000000000001    0.5321428571428570 F F F Ca
   0.4999999999999999    0.7500000000000001    0.4607142857142857 F F F Ca
   0.0000000000000000    0.1250000000000001    0.5142857142857142 F F F Co
   0.0000000000000000    0.6250000000000001    0.4428571428571428 F F F Co
   0.4999999999999999    0.1250000000000000    0.4428571428571428 F F F Co
   0.4999999999999999    0.6250000000000000    0.5142857142857142 F F F Co
   0.4999999999999999    0.3750000000000000    0.4785714285714285 F F F Co
   0.4999999999999999    0.8750000000000001    0.5500000000000000 F F F Co
   0.0000000000000000    0.3750000000000001    0.5500000000000000 F F F Co
   0.0000000000000000    0.8750000000000001    0.4785714285714285 F F F Co
   0.4999999999999999    0.0660953249985959    0.5058707607140851 F F F Si
   0.4999999999999999    0.5660953249985959    0.4344421892855137 F F F Si
   0.0000000000000000    0.1839046750014042    0.4512720964287720 F F F Si
   0.0000000000000000    0.6839046750014043    0.5227006678573434 F F F Si
   0.0000000000000000    0.3160953249985958    0.4701564749997994 F F F Si
   0.0000000000000000    0.8160953249985958    0.5415850464283708 F F F Si
   0.4999999999999999    0.4339046750014042    0.5584149535716292 F F F Si
   0.4999999999999999    0.9339046750014044    0.4869863821430577 F F F Si
   0.0000000000000000    0.0000000000000000    0.7107142857142856 T T T Ca
   0.0000000000000000    0.5000000000000000    0.6392857142857142 T T T Ca
   0.4999999999999999    0.2500000000000001    0.6749999999999999 T T T Ca
   0.4999999999999999    0.7500000000000001    0.6035714285714285 T T T Ca
   0.0000000000000000    0.1250000000000001    0.6571428571428571 T T T Co
   0.0000000000000000    0.6250000000000001    0.5857142857142856 F F F Co
   0.4999999999999999    0.1250000000000000    0.5857142857142856 F F F Co
   0.4999999999999999    0.6250000000000000    0.6571428571428571 T T T Co
   0.4999999999999999    0.3750000000000000    0.6214285714285714 T T T Co
   0.4999999999999999    0.8750000000000001    0.6928571428571428 T T T Co
   0.0000000000000000    0.3750000000000001    0.6928571428571428 T T T Co
   0.0000000000000000    0.8750000000000001    0.6214285714285714 T T T Co
   0.4999999999999999    0.0660953249985959    0.6487279035712279 T T T Si
   0.4999999999999999    0.5660953249985959    0.5772993321426565 F F F Si
   0.0000000000000000    0.1839046750014042    0.5941292392859148 F F F Si
   0.0000000000000000    0.6839046750014043    0.6655578107144863 T T T Si
   0.0000000000000000    0.3160953249985958    0.6130136178569422 T T T Si
   0.0000000000000000    0.8160953249985958    0.6844421892855137 T T T Si
   0.4999999999999999    0.4339046750014042    0.7012720964287720 T T T Si
   0.4999999999999999    0.9339046750014044    0.6298435250002006 T T T Si
