Ti24 Ga24 Ni24
1.0
   6.8247891141849646    0.0000000000000000    0.0000000000000004
   6.8247891141849619   11.8208814967113511    3.1236285115839024
   0.0000000000000000    0.0000000000000000   28.1126566042551254
Ti Ga Ni Ti Ga Ni Ti Ga Ni Ti Ga Ni
6 6 6 6 6 6 6 6 6 6 6 6
Selective dynamics
direct
   0.6079088158701610    0.4999999999999999    0.3796296296296297 T T T Ti
   0.6079088158701609    0.0000000000000000    0.3240740740740741 T T T Ti
   0.3920911841298392    0.3039544079350804    0.2903013620812874 T T T Ti
   0.3920911841298391    0.8039544079350804    0.3458569176368429 T T T Ti
   0.0000000000000000    0.1960455920649195    0.3022912305113052 T T T Ti
   0.0000000000000000    0.6960455920649196    0.3578467860668608 T T T Ti
   0.2739123909703808    0.4999999999999999    0.3240740740740741 T T T Ga
   0.2739123909703808    0.0000000000000000    0.3796296296296297 T T T Ga
   0.7260876090296193    0.1369561954851904    0.3644122745757196 T T T Ga
   0.7260876090296192    0.6369561954851903    0.3088567190201640 T T T Ga
   0.0000000000000001    0.3630438045148096    0.3392914291279841 T T T Ga
   0.0000000000000000    0.8630438045148097    0.2837358735724286 T T T Ga
   0.0000000000000001    0.4999999999999999    0.3796296296296297 T T T Ni
   0.0000000000000000    0.0000000000000000    0.3240740740740741 T T T Ni
   0.6666666666666667    0.3333333333333333    0.3425925925925926 T T T Ni
   0.6666666666666666    0.8333333333333334    0.2870370370370370 T T T Ni
   0.3333333333333334    0.1666666666666667    0.3611111111111111 T T T Ni
   0.3333333333333333    0.6666666666666667    0.3055555555555556 T T T Ni
   0.6079088158701610    0.4999999999999999    0.4907407407407408 F F F Ti
   0.6079088158701609    0.0000000000000000    0.4351851851851852 F F F Ti
   0.3920911841298392    0.3039544079350804    0.4014124731923985 F F F Ti
   0.3920911841298391    0.8039544079350804    0.4569680287479540 F F F Ti
   0.0000000000000000    0.1960455920649195    0.4134023416224164 F F F Ti
   0.0000000000000000    0.6960455920649196    0.4689578971779719 F F F Ti
   0.2739123909703808    0.4999999999999999    0.4351851851851852 F F F Ga
   0.2739123909703808    0.0000000000000000    0.4907407407407407 F F F Ga
   0.7260876090296193    0.1369561954851904    0.4755233856868307 F F F Ga
   0.7260876090296192    0.6369561954851903    0.4199678301312751 F F F Ga
   0.0000000000000001    0.3630438045148096    0.4504025402390952 F F F Ga
   0.0000000000000000    0.8630438045148097    0.3948469846835397 F F F Ga
   0.0000000000000001    0.4999999999999999    0.4907407407407408 F F F Ni
   0.0000000000000000    0.0000000000000000    0.4351851851851852 F F F Ni
   0.6666666666666667    0.3333333333333333    0.4537037037037037 F F F Ni
   0.6666666666666666    0.8333333333333334    0.3981481481481481 F F F Ni
   0.3333333333333334    0.1666666666666667    0.4722222222222222 F F F Ni
   0.3333333333333333    0.6666666666666667    0.4166666666666666 F F F Ni
   0.6079088158701610    0.4999999999999999    0.6018518518518519 F F F Ti
   0.6079088158701609    0.0000000000000000    0.5462962962962963 F F F Ti
   0.3920911841298392    0.3039544079350804    0.5125235843035096 F F F Ti
   0.3920911841298391    0.8039544079350804    0.5680791398590651 F F F Ti
   0.0000000000000000    0.1960455920649195    0.5245134527335275 F F F Ti
   0.0000000000000000    0.6960455920649196    0.5800690082890829 F F F Ti
   0.2739123909703808    0.4999999999999999    0.5462962962962963 F F F Ga
   0.2739123909703808    0.0000000000000000    0.6018518518518519 F F F Ga
   0.7260876090296193    0.1369561954851904    0.5866344967979418 F F F Ga
   0.7260876090296192    0.6369561954851903    0.5310789412423862 F F F Ga
   0.0000000000000001    0.3630438045148096    0.5615136513502064 F F F Ga
   0.0000000000000000    0.8630438045148097    0.5059580957946508 F F F Ga
   0.0000000000000001    0.4999999999999999    0.6018518518518519 F F F Ni
   0.0000000000000000    0.0000000000000000    0.5462962962962963 F F F Ni
   0.6666666666666667    0.3333333333333333    0.5648148148148149 F F F Ni
   0.6666666666666666    0.8333333333333334    0.5092592592592593 F F F Ni
   0.3333333333333334    0.1666666666666667    0.5833333333333333 F F F Ni
   0.3333333333333333    0.6666666666666667    0.5277777777777778 F F F Ni
   0.6079088158701610    0.4999999999999999    0.7129629629629630 T T T Ti
   0.6079088158701609    0.0000000000000000    0.6574074074074074 T T T Ti
   0.3920911841298392    0.3039544079350804    0.6236346954146207 T T T Ti
   0.3920911841298391    0.8039544079350804    0.6791902509701762 T T T Ti
   0.0000000000000000    0.1960455920649195    0.6356245638446385 T T T Ti
   0.0000000000000000    0.6960455920649196    0.6911801194001941 T T T Ti
   0.2739123909703808    0.4999999999999999    0.6574074074074074 T T T Ga
   0.2739123909703808    0.0000000000000000    0.7129629629629629 T T T Ga
   0.7260876090296193    0.1369561954851904    0.6977456079090529 T T T Ga
   0.7260876090296192    0.6369561954851903    0.6421900523534974 T T T Ga
   0.0000000000000001    0.3630438045148096    0.6726247624613174 T T T Ga
   0.0000000000000000    0.8630438045148097    0.6170692069057619 T T T Ga
   0.0000000000000001    0.4999999999999999    0.7129629629629630 T T T Ni
   0.0000000000000000    0.0000000000000000    0.6574074074074074 T T T Ni
   0.6666666666666667    0.3333333333333333    0.6759259259259259 T T T Ni
   0.6666666666666666    0.8333333333333334    0.6203703703703703 T T T Ni
   0.3333333333333334    0.1666666666666667    0.6944444444444444 T T T Ni
   0.3333333333333333    0.6666666666666667    0.6388888888888888 T T T Ni
