Ti6 Ga6 Ni6
1.0
   5.9104407483556747    0.0000000000000000   -3.4123945570924836
   0.0000000000000005    3.1236285115839029    0.0000000000000002
   0.0000000000000000    0.0000000000000000   34.1239455709248247
Ti Ga Ni Ti Ga Ni
3 3 3 3 3 3
Selective dynamics
direct
   0.6079088158701609    0.5000000000000000    0.4666666666666667 F F F Ti
   0.3920911841298391    0.5000000000000000    0.3450849034926344 T T T Ti
   0.0000000000000000    0.5000000000000000    0.3882484298406988 T T T Ti
   0.2739123909703807    0.0000000000000000    0.4666666666666667 F F F Ga
   0.7260876090296192    0.0000000000000000    0.4118841884725905 T T T Ga
   0.0000000000000000    0.0000000000000000    0.3214491448607428 T T T Ga
   0.0000000000000000    0.5000000000000000    0.4666666666666667 F F F Ni
   0.6666666666666666    0.0000000000000000    0.3333333333333333 T T T Ni
   0.3333333333333333    0.0000000000000000    0.4000000000000000 T T T Ni
   0.6079088158701609    0.5000000000000000    0.6666666666666666 T T T Ti
   0.3920911841298391    0.5000000000000000    0.5450849034926344 F F F Ti
   0.0000000000000000    0.5000000000000000    0.5882484298406988 T T T Ti
   0.2739123909703807    0.0000000000000000    0.6666666666666666 T T T Ga
   0.7260876090296192    0.0000000000000000    0.6118841884725905 T T T Ga
   0.0000000000000000    0.0000000000000000    0.5214491448607428 F F F Ga
   0.0000000000000000    0.5000000000000000    0.6666666666666666 T T T Ni
   0.6666666666666666    0.0000000000000000    0.5333333333333333 F F F Ni
   0.3333333333333333    0.0000000000000000    0.6000000000000000 T T T Ni
