Ca12 Ni12 Ge24
1.0
   4.0990853870124875    0.0000000000000000    0.0000000000000003
   0.0000000000000028   17.2746782076833689   -4.2472841655303375
   0.0000000000000000    0.0000000000000000   29.7309891587123509
Ca Ni Ge Ca Ni Ge Ca Ni Ge
4 4 8 4 4 8 4 4 8
Selective dynamics
direct
   0.7500000000000000    0.6086989545969663    0.3726712792281380 T T T Ca
   0.2500000000000000    0.8913010454030337    0.3416144350575762 T T T Ca
   0.7500000000000000    0.1086989545969663    0.3726712792281380 T T T Ca
   0.2500000000000001    0.3913010454030337    0.3416144350575762 T T T Ca
   0.2500000000000001    0.6784426012473387    0.3112060858924769 T T T Ni
   0.7500000000000000    0.8215573987526613    0.4030796283932373 F F F Ni
   0.2500000000000000    0.1784426012473387    0.3112060858924769 T T T Ni
   0.7500000000000000    0.3215573987526614    0.4030796283932373 F F F Ni
   0.2500000000000001    0.7498149042364629    0.3928307006052090 T T T Ge
   0.7500000000000000    0.7501850957635371    0.3214550136805053 T T T Ge
   0.7500000000000000    0.9570472276023648    0.4224353182289092 F F F Ge
   0.2500000000000000    0.5429527723976352    0.2918503960568050 T T T Ge
   0.2500000000000001    0.2498149042364629    0.3928307006052090 T T T Ge
   0.7500000000000000    0.2501850957635371    0.3214550136805053 T T T Ge
   0.7500000000000000    0.4570472276023649    0.4224353182289092 F F F Ge
   0.2500000000000000    0.0429527723976352    0.2918503960568050 T T T Ge
   0.7500000000000000    0.6086989545969663    0.5155284220852809 F F F Ca
   0.2500000000000000    0.8913010454030337    0.4844715779147191 F F F Ca
   0.7500000000000000    0.1086989545969663    0.5155284220852809 F F F Ca
   0.2500000000000001    0.3913010454030337    0.4844715779147191 F F F Ca
   0.2500000000000001    0.6784426012473387    0.4540632287496198 F F F Ni
   0.7500000000000000    0.8215573987526613    0.5459367712503802 F F F Ni
   0.2500000000000000    0.1784426012473387    0.4540632287496198 F F F Ni
   0.7500000000000000    0.3215573987526614    0.5459367712503802 F F F Ni
   0.2500000000000001    0.7498149042364629    0.5356878434623518 F F F Ge
   0.7500000000000000    0.7501850957635371    0.4643121565376481 F F F Ge
   0.7500000000000000    0.9570472276023648    0.5652924610860521 F F F Ge
   0.2500000000000000    0.5429527723976352    0.4347075389139479 F F F Ge
   0.2500000000000001    0.2498149042364629    0.5356878434623518 F F F Ge
   0.7500000000000000    0.2501850957635371    0.4643121565376481 F F F Ge
   0.7500000000000000    0.4570472276023649    0.5652924610860521 F F F Ge
   0.2500000000000000    0.0429527723976352    0.4347075389139479 F F F Ge
   0.7500000000000000    0.6086989545969663    0.6583855649424237 T T T Ca
   0.2500000000000000    0.8913010454030337    0.6273287207718619 T T T Ca
   0.7500000000000000    0.1086989545969663    0.6583855649424237 T T T Ca
   0.2500000000000001    0.3913010454030337    0.6273287207718619 T T T Ca
   0.2500000000000001    0.6784426012473387    0.5969203716067626 F F F Ni
   0.7500000000000000    0.8215573987526613    0.6887939141075230 T T T Ni
   0.2500000000000000    0.1784426012473387    0.5969203716067626 F F F Ni
   0.7500000000000000    0.3215573987526614    0.6887939141075230 T T T Ni
   0.2500000000000001    0.7498149042364629    0.6785449863194947 T T T Ge
   0.7500000000000000    0.7501850957635371    0.6071692993947910 T T T Ge
   0.7500000000000000    0.9570472276023648    0.7081496039431949 T T T Ge
   0.2500000000000000    0.5429527723976352    0.5775646817710907 F F F Ge
   0.2500000000000001    0.2498149042364629    0.6785449863194947 T T T Ge
   0.7500000000000000    0.2501850957635371    0.6071692993947910 T T T Ge
   0.7500000000000000    0.4570472276023649    0.7081496039431949 T T T Ge
   0.2500000000000000    0.0429527723976352    0.5775646817710907 F F F Ge
