K16 Sb8 Au8
1.0
  10.6066871861524845    0.0000000000000000    0.0000000000000006
   0.0000000000000011    6.6226638283972639    0.0000000000000004
   0.0000000000000000    0.0000000000000000   31.6950941277166649
K Sb Au K Sb Au
8 4 4 8 4 4
Selective dynamics
direct
   0.8290156328903464    0.2500000000000000    0.2867515770873190 T T T K
   0.8290156328903464    0.7499999999999999    0.3694984229126810 F F F K
   0.1709843671096536    0.2500000000000000    0.2867515770873190 T T T K
   0.1709843671096536    0.7500000000000000    0.3694984229126810 F F F K
   0.3290156328903464    0.2500000000000000    0.4117515770873190 F F F K
   0.3290156328903464    0.7500000000000000    0.4944984229126810 F F F K
   0.6709843671096536    0.2500000000000000    0.4117515770873190 F F F K
   0.6709843671096536    0.7500000000000000    0.4944984229126810 F F F K
   0.0000000000000000    0.7499999999999999    0.2696772032957835 T T T Sb
   0.0000000000000000    0.2500000000000000    0.3865727967042165 F F F Sb
   0.5000000000000000    0.7499999999999999    0.3946772032957835 F F F Sb
   0.5000000000000000    0.2500000000000000    0.2615727967042165 T T T Sb
   0.0000000000000000    0.0000000000000000    0.4531250000000000 F F F Au
   0.0000000000000000    0.4999999999999999    0.4531250000000000 F F F Au
   0.5000000000000000    0.0000000000000000    0.3281250000000000 T T T Au
   0.5000000000000000    0.4999999999999999    0.3281250000000000 T T T Au
   0.8290156328903464    0.2500000000000000    0.5367515770873190 F F F K
   0.8290156328903464    0.7499999999999999    0.6194984229126810 F F F K
   0.1709843671096536    0.2500000000000000    0.5367515770873190 F F F K
   0.1709843671096536    0.7500000000000000    0.6194984229126810 F F F K
   0.3290156328903464    0.2500000000000000    0.6617515770873190 T T T K
   0.3290156328903464    0.7500000000000000    0.7444984229126810 T T T K
   0.6709843671096536    0.2500000000000000    0.6617515770873190 T T T K
   0.6709843671096536    0.7500000000000000    0.7444984229126810 T T T K
   0.0000000000000000    0.7499999999999999    0.5196772032957835 F F F Sb
   0.0000000000000000    0.2500000000000000    0.6365727967042165 F F F Sb
   0.5000000000000000    0.7499999999999999    0.6446772032957835 F F F Sb
   0.5000000000000000    0.2500000000000000    0.5115727967042165 F F F Sb
   0.0000000000000000    0.0000000000000000    0.7031250000000000 T T T Au
   0.0000000000000000    0.4999999999999999    0.7031250000000000 T T T Au
   0.5000000000000000    0.0000000000000000    0.5781250000000000 F F F Au
   0.5000000000000000    0.4999999999999999    0.5781250000000000 F F F Au
