Ag36 Sn6 Sb6
1.0
   6.0901007866368975    0.0000000000000000    0.0000000000000004
   0.0000000000000017   10.6618188984423501   -4.8385125077323110
   0.0000000000000000    0.0000000000000000   33.8695875541261984
Ag Sn Sb Ag Sn Sb Ag Sn Sb
12 2 2 12 2 2 12 2 2
Selective dynamics
direct
   0.2469183826272641    0.4195227504690598    0.3992175447098659 F F F Ag
   0.2469183826272642    0.9195227504690598    0.3277889732812944 T T T Ag
   0.7530816173727357    0.4195227504690598    0.3992175447098659 F F F Ag
   0.7530816173727358    0.9195227504690598    0.3277889732812944 T T T Ag
   0.2477297758271604    0.0793537953414720    0.4220505511202104 F F F Ag
   0.2477297758271605    0.5793537953414720    0.3506219796916390 T T T Ag
   0.7522702241728395    0.0793537953414720    0.4220505511202104 F F F Ag
   0.7522702241728395    0.5793537953414720    0.3506219796916390 T T T Ag
   0.5000000000000000    0.3400883630125193    0.3164412036446458 T T T Ag
   0.5000000000000000    0.8400883630125193    0.3878697750732172 T T T Ag
   0.0000000000000000    0.1637979074746170    0.3626854242820883 T T T Ag
   0.0000000000000000    0.6637979074746170    0.2912568528535169 T T T Ag
   0.0000000000000000    0.3319481190933295    0.3152783116561901 T T T Sn
   0.0000000000000000    0.8319481190933296    0.3867068830847615 T T T Sn
   0.5000000000000000    0.1664120187984643    0.3630588687569236 T T T Sb
   0.5000000000000000    0.6664120187984643    0.2916302973283522 T T T Sb
   0.2469183826272641    0.4195227504690598    0.5420746875670087 F F F Ag
   0.2469183826272642    0.9195227504690598    0.4706461161384373 F F F Ag
   0.7530816173727357    0.4195227504690598    0.5420746875670087 F F F Ag
   0.7530816173727358    0.9195227504690598    0.4706461161384373 F F F Ag
   0.2477297758271604    0.0793537953414720    0.5649076939773533 F F F Ag
   0.2477297758271605    0.5793537953414720    0.4934791225487819 F F F Ag
   0.7522702241728395    0.0793537953414720    0.5649076939773533 F F F Ag
   0.7522702241728395    0.5793537953414720    0.4934791225487819 F F F Ag
   0.5000000000000000    0.3400883630125193    0.4592983465017886 F F F Ag
   0.5000000000000000    0.8400883630125193    0.5307269179303601 F F F Ag
   0.0000000000000000    0.1637979074746170    0.5055425671392312 F F F Ag
   0.0000000000000000    0.6637979074746170    0.4341139957106597 F F F Ag
   0.0000000000000000    0.3319481190933295    0.4581354545133329 F F F Sn
   0.0000000000000000    0.8319481190933296    0.5295640259419043 F F F Sn
   0.5000000000000000    0.1664120187984643    0.5059160116140665 F F F Sb
   0.5000000000000000    0.6664120187984643    0.4344874401854951 F F F Sb
   0.2469183826272641    0.4195227504690598    0.6849318304241516 T T T Ag
   0.2469183826272642    0.9195227504690598    0.6135032589955801 T T T Ag
   0.7530816173727357    0.4195227504690598    0.6849318304241516 T T T Ag
   0.7530816173727358    0.9195227504690598    0.6135032589955801 T T T Ag
   0.2477297758271604    0.0793537953414720    0.7077648368344962 T T T Ag
   0.2477297758271605    0.5793537953414720    0.6363362654059247 T T T Ag
   0.7522702241728395    0.0793537953414720    0.7077648368344962 T T T Ag
   0.7522702241728395    0.5793537953414720    0.6363362654059247 T T T Ag
   0.5000000000000000    0.3400883630125193    0.6021554893589315 F F F Ag
   0.5000000000000000    0.8400883630125193    0.6735840607875029 T T T Ag
   0.0000000000000000    0.1637979074746170    0.6483997099963740 T T T Ag
   0.0000000000000000    0.6637979074746170    0.5769711385678026 F F F Ag
   0.0000000000000000    0.3319481190933295    0.6009925973704757 F F F Sn
   0.0000000000000000    0.8319481190933296    0.6724211687990472 T T T Sn
   0.5000000000000000    0.1664120187984643    0.6487731544712093 T T T Sb
   0.5000000000000000    0.6664120187984643    0.5773445830426379 F F F Sb
