Ni18 Sn36 Au9
1.0
   3.7168826269342738    0.0000000000000000   -2.1459431852067454
  -0.0000000000000017   26.9722473016618061   -4.2918863704134900
   0.0000000000000000    0.0000000000000000   34.3350909633079411
Ni Sn Au Ni Sn Au Ni Sn Au
6 12 3 6 12 3 6 12 3
Selective dynamics
direct
   0.6666666666666666    0.0671226744534696    0.3446998581162075 T T T Ni
   0.6666666666666667    0.2662106588798636    0.3695858561695068 T T T Ni
   0.0000000000000000    0.4004560077868030    0.3446998581162075 T T T Ni
   0.0000000000000000    0.5995439922131970    0.3695858561695068 T T T Ni
   0.3333333333333332    0.7337893411201362    0.3446998581162075 T T T Ni
   0.3333333333333334    0.9328773255465302    0.3695858561695068 T T T Ni
   0.0000000000000000    0.2994838092973968    0.3320783333050318 T T T Sn
   0.0000000000000000    0.1112935308455717    0.4335545484985536 T T T Sn
   0.3333333333333334    0.0338495240359365    0.3822073809806825 T T T Sn
   0.3333333333333334    0.2220398024877615    0.4057311657871607 T T T Sn
   0.3333333333333334    0.6328171426307300    0.3320783333050317 T T T Sn
   0.3333333333333334    0.4446268641789050    0.4335545484985536 T T T Sn
   0.6666666666666666    0.3671828573692698    0.3822073809806825 T T T Sn
   0.6666666666666666    0.5553731358210949    0.4057311657871607 T T T Sn
   0.6666666666666666    0.9661504759640633    0.3320783333050317 T T T Sn
   0.6666666666666666    0.7779601975122382    0.4335545484985536 T T T Sn
   0.0000000000000000    0.7005161907026031    0.3822073809806825 T T T Sn
   0.0000000000000000    0.8887064691544281    0.4057311657871607 T T T Sn
   0.6666666666666665    0.1666666666666666    0.3571428571428572 T T T Au
   0.9999999999999998    0.4999999999999999    0.3571428571428572 T T T Au
   0.3333333333333331    0.8333333333333331    0.3571428571428572 T T T Au
   0.6666666666666666    0.0671226744534696    0.4696998581162075 F F F Ni
   0.6666666666666667    0.2662106588798636    0.4945858561695068 F F F Ni
   0.0000000000000000    0.4004560077868030    0.4696998581162075 F F F Ni
   0.0000000000000000    0.5995439922131970    0.4945858561695068 F F F Ni
   0.3333333333333332    0.7337893411201362    0.4696998581162075 F F F Ni
   0.3333333333333334    0.9328773255465302    0.4945858561695068 F F F Ni
   0.0000000000000000    0.2994838092973968    0.4570783333050318 F F F Sn
   0.0000000000000000    0.1112935308455717    0.5585545484985537 F F F Sn
   0.3333333333333334    0.0338495240359365    0.5072073809806825 F F F Sn
   0.3333333333333334    0.2220398024877615    0.5307311657871607 F F F Sn
   0.3333333333333334    0.6328171426307300    0.4570783333050317 F F F Sn
   0.3333333333333334    0.4446268641789050    0.5585545484985537 F F F Sn
   0.6666666666666666    0.3671828573692698    0.5072073809806825 F F F Sn
   0.6666666666666666    0.5553731358210949    0.5307311657871607 F F F Sn
   0.6666666666666666    0.9661504759640633    0.4570783333050317 F F F Sn
   0.6666666666666666    0.7779601975122382    0.5585545484985537 F F F Sn
   0.0000000000000000    0.7005161907026031    0.5072073809806825 F F F Sn
   0.0000000000000000    0.8887064691544281    0.5307311657871607 F F F Sn
   0.6666666666666665    0.1666666666666666    0.4821428571428572 F F F Au
   0.9999999999999998    0.4999999999999999    0.4821428571428572 F F F Au
   0.3333333333333331    0.8333333333333331    0.4821428571428572 F F F Au
   0.6666666666666666    0.0671226744534696    0.5946998581162075 T T T Ni
   0.6666666666666667    0.2662106588798636    0.6195858561695068 T T T Ni
   0.0000000000000000    0.4004560077868030    0.5946998581162075 T T T Ni
   0.0000000000000000    0.5995439922131970    0.6195858561695068 T T T Ni
   0.3333333333333332    0.7337893411201362    0.5946998581162075 T T T Ni
   0.3333333333333334    0.9328773255465302    0.6195858561695068 T T T Ni
   0.0000000000000000    0.2994838092973968    0.5820783333050318 T T T Sn
   0.0000000000000000    0.1112935308455717    0.6835545484985537 T T T Sn
   0.3333333333333334    0.0338495240359365    0.6322073809806825 T T T Sn
   0.3333333333333334    0.2220398024877615    0.6557311657871607 T T T Sn
   0.3333333333333334    0.6328171426307300    0.5820783333050317 T T T Sn
   0.3333333333333334    0.4446268641789050    0.6835545484985537 T T T Sn
   0.6666666666666666    0.3671828573692698    0.6322073809806825 T T T Sn
   0.6666666666666666    0.5553731358210949    0.6557311657871607 T T T Sn
   0.6666666666666666    0.9661504759640633    0.5820783333050317 T T T Sn
   0.6666666666666666    0.7779601975122382    0.6835545484985537 T T T Sn
   0.0000000000000000    0.7005161907026031    0.6322073809806825 T T T Sn
   0.0000000000000000    0.8887064691544281    0.6557311657871607 T T T Sn
   0.6666666666666665    0.1666666666666666    0.6071428571428572 T T T Au
   0.9999999999999998    0.4999999999999999    0.6071428571428572 T T T Au
   0.3333333333333331    0.8333333333333331    0.6071428571428572 T T T Au
