Ta36 Mn36 Ge36
1.0
  11.2289927364100244    0.0000000000000000  -12.9661239581893621
  -0.0000000000000004    7.1540309127704829   -6.4830619790946793
   0.0000000000000000    0.0000000000000000   51.8644958327574486
Ta Mn Ge Ta Mn Ge Ta Mn Ge
12 12 12 12 12 12 12 12 12
Selective dynamics
direct
   0.7067057992831548    0.7499999999999999    0.4177924525089608 T T T Ta
   0.2067057992831548    0.2499999999999999    0.4177924525089608 T T T Ta
   0.2067057992831548    0.7499999999999999    0.3552924525089607 T T T Ta
   0.7067057992831549    0.2499999999999999    0.3552924525089608 T T T Ta
   0.5000000000000000    0.7499999999999999    0.4136013279569890 T T T Ta
   0.0000000000000001    0.2499999999999999    0.4136013279569891 T T T Ta
   0.0000000000000001    0.7499999999999999    0.3511013279569891 T T T Ta
   0.5000000000000001    0.2499999999999999    0.3511013279569891 T T T Ta
   0.7932942007168452    0.7499999999999999    0.3769395528673834 T T T Ta
   0.2932942007168453    0.2499999999999999    0.3769395528673834 T T T Ta
   0.2932942007168453    0.7499999999999999    0.4394395528673834 F F F Ta
   0.7932942007168453    0.2499999999999999    0.4394395528673834 F F F Ta
   0.8763904999467951    0.4999999999999999    0.3251742152578259 T T T Mn
   0.3763904999467951    0.9999999999999999    0.3251742152578259 T T T Mn
   0.3763904999467951    0.4999999999999998    0.3876742152578259 T T T Mn
   0.8763904999467951    0.9999999999999999    0.3876742152578259 T T T Mn
   0.4999999999999999    0.5000000000000000    0.3399301527910790 T T T Mn
   0.0000000000000000    0.0000000000000000    0.3399301527910790 T T T Mn
   0.0000000000000000    0.4999999999999999    0.4024301527910790 T T T Mn
   0.5000000000000000    0.9999999999999999    0.4024301527910790 T T T Mn
   0.6236095000532050    0.5000000000000000    0.3244789652844284 T T T Mn
   0.1236095000532050    0.0000000000000000    0.3244789652844284 T T T Mn
   0.1236095000532050    0.4999999999999999    0.3869789652844284 T T T Mn
   0.6236095000532050    0.0000000000000000    0.3869789652844284 T T T Mn
   0.6666666666666667    0.4999999999999999    0.4131944444444444 T T T Ge
   0.1666666666666668    0.9999999999999999    0.4131944444444444 T T T Ge
   0.1666666666666668    0.4999999999999999    0.3506944444444444 T T T Ge
   0.6666666666666669    0.9999999999999999    0.3506944444444444 T T T Ge
   0.8333333333333334    0.4999999999999999    0.3923611111111110 T T T Ge
   0.3333333333333334    0.9999999999999999    0.3923611111111110 T T T Ge
   0.3333333333333334    0.4999999999999999    0.3298611111111110 T T T Ge
   0.8333333333333335    0.9999999999999999    0.3298611111111110 T T T Ge
   0.4999999999999999    0.7500000000000000    0.3402777777777777 T T T Ge
   0.0000000000000000    0.2500000000000000    0.3402777777777777 T T T Ge
   0.0000000000000000    0.7499999999999999    0.4027777777777777 T T T Ge
   0.5000000000000000    0.2499999999999999    0.4027777777777777 T T T Ge
   0.7067057992831548    0.7499999999999999    0.5427924525089608 F F F Ta
   0.2067057992831548    0.2499999999999999    0.5427924525089608 F F F Ta
   0.2067057992831548    0.7499999999999999    0.4802924525089608 F F F Ta
   0.7067057992831549    0.2499999999999999    0.4802924525089608 F F F Ta
   0.5000000000000000    0.7499999999999999    0.5386013279569890 F F F Ta
   0.0000000000000001    0.2499999999999999    0.5386013279569890 F F F Ta
   0.0000000000000001    0.7499999999999999    0.4761013279569891 F F F Ta
   0.5000000000000001    0.2499999999999999    0.4761013279569891 F F F Ta
   0.7932942007168452    0.7499999999999999    0.5019395528673833 F F F Ta
   0.2932942007168453    0.2499999999999999    0.5019395528673833 F F F Ta
   0.2932942007168453    0.7499999999999999    0.5644395528673833 F F F Ta
   0.7932942007168453    0.2499999999999999    0.5644395528673833 F F F Ta
   0.8763904999467951    0.4999999999999999    0.4501742152578259 F F F Mn
   0.3763904999467951    0.9999999999999999    0.4501742152578259 F F F Mn
   0.3763904999467951    0.4999999999999998    0.5126742152578259 F F F Mn
   0.8763904999467951    0.9999999999999999    0.5126742152578259 F F F Mn
   0.4999999999999999    0.5000000000000000    0.4649301527910790 F F F Mn
   0.0000000000000000    0.0000000000000000    0.4649301527910790 F F F Mn
   0.0000000000000000    0.4999999999999999    0.5274301527910790 F F F Mn
   0.5000000000000000    0.9999999999999999    0.5274301527910790 F F F Mn
   0.6236095000532050    0.5000000000000000    0.4494789652844284 F F F Mn
   0.1236095000532050    0.0000000000000000    0.4494789652844284 F F F Mn
   0.1236095000532050    0.4999999999999999    0.5119789652844284 F F F Mn
   0.6236095000532050    0.0000000000000000    0.5119789652844284 F F F Mn
   0.6666666666666667    0.4999999999999999    0.5381944444444444 F F F Ge
   0.1666666666666668    0.9999999999999999    0.5381944444444444 F F F Ge
   0.1666666666666668    0.4999999999999999    0.4756944444444444 F F F Ge
   0.6666666666666669    0.9999999999999999    0.4756944444444444 F F F Ge
   0.8333333333333334    0.4999999999999999    0.5173611111111110 F F F Ge
   0.3333333333333334    0.9999999999999999    0.5173611111111110 F F F Ge
   0.3333333333333334    0.4999999999999999    0.4548611111111110 F F F Ge
   0.8333333333333335    0.9999999999999999    0.4548611111111110 F F F Ge
   0.4999999999999999    0.7500000000000000    0.4652777777777778 F F F Ge
   0.0000000000000000    0.2500000000000000    0.4652777777777778 F F F Ge
   0.0000000000000000    0.7499999999999999    0.5277777777777777 F F F Ge
   0.5000000000000000    0.2499999999999999    0.5277777777777777 F F F Ge
   0.7067057992831548    0.7499999999999999    0.6677924525089608 T T T Ta
   0.2067057992831548    0.2499999999999999    0.6677924525089608 T T T Ta
   0.2067057992831548    0.7499999999999999    0.6052924525089607 T T T Ta
   0.7067057992831549    0.2499999999999999    0.6052924525089608 T T T Ta
   0.5000000000000000    0.7499999999999999    0.6636013279569890 T T T Ta
   0.0000000000000001    0.2499999999999999    0.6636013279569890 T T T Ta
   0.0000000000000001    0.7499999999999999    0.6011013279569890 T T T Ta
   0.5000000000000001    0.2499999999999999    0.6011013279569890 T T T Ta
   0.7932942007168452    0.7499999999999999    0.6269395528673833 T T T Ta
   0.2932942007168453    0.2499999999999999    0.6269395528673833 T T T Ta
   0.2932942007168453    0.7499999999999999    0.6894395528673833 T T T Ta
   0.7932942007168453    0.2499999999999999    0.6894395528673833 T T T Ta
   0.8763904999467951    0.4999999999999999    0.5751742152578259 F F F Mn
   0.3763904999467951    0.9999999999999999    0.5751742152578259 F F F Mn
   0.3763904999467951    0.4999999999999998    0.6376742152578259 T T T Mn
   0.8763904999467951    0.9999999999999999    0.6376742152578259 T T T Mn
   0.4999999999999999    0.5000000000000000    0.5899301527910790 T T T Mn
   0.0000000000000000    0.0000000000000000    0.5899301527910790 T T T Mn
   0.0000000000000000    0.4999999999999999    0.6524301527910790 T T T Mn
   0.5000000000000000    0.9999999999999999    0.6524301527910790 T T T Mn
   0.6236095000532050    0.5000000000000000    0.5744789652844284 F F F Mn
   0.1236095000532050    0.0000000000000000    0.5744789652844284 F F F Mn
   0.1236095000532050    0.4999999999999999    0.6369789652844284 T T T Mn
   0.6236095000532050    0.0000000000000000    0.6369789652844284 T T T Mn
   0.6666666666666667    0.4999999999999999    0.6631944444444444 T T T Ge
   0.1666666666666668    0.9999999999999999    0.6631944444444444 T T T Ge
   0.1666666666666668    0.4999999999999999    0.6006944444444444 T T T Ge
   0.6666666666666669    0.9999999999999999    0.6006944444444444 T T T Ge
   0.8333333333333334    0.4999999999999999    0.6423611111111110 T T T Ge
   0.3333333333333334    0.9999999999999999    0.6423611111111110 T T T Ge
   0.3333333333333334    0.4999999999999999    0.5798611111111110 F F F Ge
   0.8333333333333335    0.9999999999999999    0.5798611111111110 F F F Ge
   0.4999999999999999    0.7500000000000000    0.5902777777777777 T T T Ge
   0.0000000000000000    0.2500000000000000    0.5902777777777777 T T T Ge
   0.0000000000000000    0.7499999999999999    0.6527777777777777 T T T Ge
   0.5000000000000000    0.2499999999999999    0.6527777777777777 T T T Ge
