Ta24 Mn24 Ge24
1.0
  17.1525697309027514    0.0000000000000000    0.0000000000000011
   4.9007342088293573    4.2441603220416582    3.5770154563852405
   0.0000000000000000    0.0000000000000000   35.7701545638524152
Ta Mn Ge Ta Mn Ge Ta Mn Ge Ta Mn Ge
6 6 6 6 6 6 6 6 6 6 6 6
Selective dynamics
direct
   0.7067057992831548    0.8798826021505358    0.3370117397849465 T T T Ta
   0.2067057992831548    0.3798826021505358    0.3870117397849465 T T T Ta
   0.5000000000000000    0.9134115985663096    0.3336588401433691 T T T Ta
   0.0000000000000001    0.4134115985663096    0.3836588401433691 T T T Ta
   0.7932942007168452    0.2067057992831548    0.3043294200716846 T T T Ta
   0.2932942007168453    0.7067057992831548    0.3543294200716846 T T T Ta
   0.8763904999467951    0.3708285001596152    0.3379171499840385 T T T Mn
   0.3763904999467951    0.8708285001596152    0.3879171499840385 T T T Mn
   0.4999999999999999    0.2527809998935899    0.3497219000106411 T T T Mn
   0.0000000000000000    0.7527809998935899    0.2997219000106411 T T T Mn
   0.6236095000532050    0.3763904999467950    0.3373609500053206 T T T Mn
   0.1236095000532050    0.8763904999467950    0.3873609500053206 T T T Mn
   0.6666666666666667    0.6666666666666667    0.3083333333333334 T T T Ge
   0.1666666666666668    0.1666666666666667    0.3583333333333334 T T T Ge
   0.8333333333333334    0.8333333333333334    0.3916666666666667 T T T Ge
   0.3333333333333334    0.3333333333333335    0.3416666666666667 T T T Ge
   0.4999999999999999    0.4999999999999999    0.3750000000000001 T T T Ge
   0.0000000000000000    0.0000000000000000    0.3250000000000001 T T T Ge
   0.7067057992831548    0.8798826021505358    0.4370117397849465 F F F Ta
   0.2067057992831548    0.3798826021505358    0.4870117397849465 F F F Ta
   0.5000000000000000    0.9134115985663096    0.4336588401433691 F F F Ta
   0.0000000000000001    0.4134115985663096    0.4836588401433691 F F F Ta
   0.7932942007168452    0.2067057992831548    0.4043294200716846 T T T Ta
   0.2932942007168453    0.7067057992831548    0.4543294200716846 F F F Ta
   0.8763904999467951    0.3708285001596152    0.4379171499840385 F F F Mn
   0.3763904999467951    0.8708285001596152    0.4879171499840386 F F F Mn
   0.4999999999999999    0.2527809998935899    0.4497219000106411 F F F Mn
   0.0000000000000000    0.7527809998935899    0.3997219000106411 T T T Mn
   0.6236095000532050    0.3763904999467950    0.4373609500053205 F F F Mn
   0.1236095000532050    0.8763904999467950    0.4873609500053205 F F F Mn
   0.6666666666666667    0.6666666666666667    0.4083333333333334 T T T Ge
   0.1666666666666668    0.1666666666666667    0.4583333333333334 F F F Ge
   0.8333333333333334    0.8333333333333334    0.4916666666666667 F F F Ge
   0.3333333333333334    0.3333333333333335    0.4416666666666667 F F F Ge
   0.4999999999999999    0.4999999999999999    0.4750000000000000 F F F Ge
   0.0000000000000000    0.0000000000000000    0.4250000000000000 F F F Ge
   0.7067057992831548    0.8798826021505358    0.5370117397849465 F F F Ta
   0.2067057992831548    0.3798826021505358    0.5870117397849465 T T T Ta
   0.5000000000000000    0.9134115985663096    0.5336588401433691 F F F Ta
   0.0000000000000001    0.4134115985663096    0.5836588401433691 T T T Ta
   0.7932942007168452    0.2067057992831548    0.5043294200716846 F F F Ta
   0.2932942007168453    0.7067057992831548    0.5543294200716846 F F F Ta
   0.8763904999467951    0.3708285001596152    0.5379171499840385 F F F Mn
   0.3763904999467951    0.8708285001596152    0.5879171499840385 T T T Mn
   0.4999999999999999    0.2527809998935899    0.5497219000106410 F F F Mn
   0.0000000000000000    0.7527809998935899    0.4997219000106411 F F F Mn
   0.6236095000532050    0.3763904999467950    0.5373609500053206 F F F Mn
   0.1236095000532050    0.8763904999467950    0.5873609500053205 T T T Mn
   0.6666666666666667    0.6666666666666667    0.5083333333333334 F F F Ge
   0.1666666666666668    0.1666666666666667    0.5583333333333333 F F F Ge
   0.8333333333333334    0.8333333333333334    0.5916666666666668 T T T Ge
   0.3333333333333334    0.3333333333333335    0.5416666666666667 F F F Ge
   0.4999999999999999    0.4999999999999999    0.5750000000000001 F F F Ge
   0.0000000000000000    0.0000000000000000    0.5250000000000000 F F F Ge
   0.7067057992831548    0.8798826021505358    0.6370117397849464 T T T Ta
   0.2067057992831548    0.3798826021505358    0.6870117397849465 T T T Ta
   0.5000000000000000    0.9134115985663096    0.6336588401433690 T T T Ta
   0.0000000000000001    0.4134115985663096    0.6836588401433691 T T T Ta
   0.7932942007168452    0.2067057992831548    0.6043294200716846 T T T Ta
   0.2932942007168453    0.7067057992831548    0.6543294200716845 T T T Ta
   0.8763904999467951    0.3708285001596152    0.6379171499840386 T T T Mn
   0.3763904999467951    0.8708285001596152    0.6879171499840385 T T T Mn
   0.4999999999999999    0.2527809998935899    0.6497219000106411 T T T Mn
   0.0000000000000000    0.7527809998935899    0.5997219000106411 T T T Mn
   0.6236095000532050    0.3763904999467950    0.6373609500053206 T T T Mn
   0.1236095000532050    0.8763904999467950    0.6873609500053206 T T T Mn
   0.6666666666666667    0.6666666666666667    0.6083333333333334 T T T Ge
   0.1666666666666668    0.1666666666666667    0.6583333333333334 T T T Ge
   0.8333333333333334    0.8333333333333334    0.6916666666666667 T T T Ge
   0.3333333333333334    0.3333333333333335    0.6416666666666667 T T T Ge
   0.4999999999999999    0.4999999999999999    0.6750000000000000 T T T Ge
   0.0000000000000000    0.0000000000000000    0.6250000000000000 T T T Ge
