Ti18 Mn18 As18
1.0
   3.5240726658437609    0.0000000000000000    0.0000000000000002
   0.0000000000000018   11.0829717263110172  -12.7975134192133559
   0.0000000000000000    0.0000000000000000   44.7912969672467440
Ti Mn As Ti Mn As Ti Mn As
6 6 6 6 6 6 6 6 6
Selective dynamics
direct
   0.0000000000000000    0.2940772578438616    0.3839696184410200 T T T Ti
   0.0000000000000000    0.7940772578438615    0.3125410470124486 T T T Ti
   0.0000000000000000    0.2059227421561385    0.4302111853873848 F F F Ti
   0.0000000000000000    0.7059227421561385    0.3587826139588134 T T T Ti
   0.0000000000000000    0.5000000000000000    0.3882001485525475 T T T Ti
   0.0000000000000000    0.0000000000000000    0.3167715771239760 T T T Ti
   0.5000000000000000    0.1240979205358360    0.3111213310232948 T T T Mn
   0.5000000000000000    0.6240979205358360    0.3825499024518662 T T T Mn
   0.5000000000000000    0.3759020794641641    0.3116368050028170 T T T Mn
   0.5000000000000000    0.8759020794641641    0.3830653764313885 T T T Mn
   0.5000000000000000    0.5000000000000000    0.2939085306405548 T T T Mn
   0.5000000000000000    0.0000000000000000    0.3653371020691262 T T T Mn
   0.5000000000000000    0.3333333333333334    0.3531746031746031 T T T As
   0.5000000000000000    0.8333333333333334    0.4246031746031745 F F F As
   0.5000000000000000    0.1666666666666667    0.3769841269841270 T T T As
   0.5000000000000000    0.6666666666666667    0.3055555555555555 T T T As
   0.0000000000000000    0.5000000000000000    0.3293650793650794 T T T As
   0.0000000000000000    0.0000000000000000    0.4007936507936508 F F F As
   0.0000000000000000    0.2940772578438616    0.5268267612981629 F F F Ti
   0.0000000000000000    0.7940772578438615    0.4553981898695914 F F F Ti
   0.0000000000000000    0.2059227421561385    0.5730683282445277 F F F Ti
   0.0000000000000000    0.7059227421561385    0.5016397568159563 F F F Ti
   0.0000000000000000    0.5000000000000000    0.5310572914096903 F F F Ti
   0.0000000000000000    0.0000000000000000    0.4596287199811189 F F F Ti
   0.5000000000000000    0.1240979205358360    0.4539784738804375 F F F Mn
   0.5000000000000000    0.6240979205358360    0.5254070453090089 F F F Mn
   0.5000000000000000    0.3759020794641641    0.4544939478599599 F F F Mn
   0.5000000000000000    0.8759020794641641    0.5259225192885313 F F F Mn
   0.5000000000000000    0.5000000000000000    0.4367656734976977 F F F Mn
   0.5000000000000000    0.0000000000000000    0.5081942449262691 F F F Mn
   0.5000000000000000    0.3333333333333334    0.4960317460317460 F F F As
   0.5000000000000000    0.8333333333333334    0.5674603174603174 F F F As
   0.5000000000000000    0.1666666666666667    0.5198412698412698 F F F As
   0.5000000000000000    0.6666666666666667    0.4484126984126984 F F F As
   0.0000000000000000    0.5000000000000000    0.4722222222222222 F F F As
   0.0000000000000000    0.0000000000000000    0.5436507936507936 F F F As
   0.0000000000000000    0.2940772578438616    0.6696839041553057 T T T Ti
   0.0000000000000000    0.7940772578438615    0.5982553327267343 F F F Ti
   0.0000000000000000    0.2059227421561385    0.7159254711016705 T T T Ti
   0.0000000000000000    0.7059227421561385    0.6444968996730991 T T T Ti
   0.0000000000000000    0.5000000000000000    0.6739144342668332 T T T Ti
   0.0000000000000000    0.0000000000000000    0.6024858628382617 F F F Ti
   0.5000000000000000    0.1240979205358360    0.5968356167375805 F F F Mn
   0.5000000000000000    0.6240979205358360    0.6682641881661519 T T T Mn
   0.5000000000000000    0.3759020794641641    0.5973510907171027 F F F Mn
   0.5000000000000000    0.8759020794641641    0.6687796621456742 T T T Mn
   0.5000000000000000    0.5000000000000000    0.5796228163548405 F F F Mn
   0.5000000000000000    0.0000000000000000    0.6510513877834119 T T T Mn
   0.5000000000000000    0.3333333333333334    0.6388888888888888 T T T As
   0.5000000000000000    0.8333333333333334    0.7103174603174602 T T T As
   0.5000000000000000    0.1666666666666667    0.6626984126984127 T T T As
   0.5000000000000000    0.6666666666666667    0.5912698412698412 F F F As
   0.0000000000000000    0.5000000000000000    0.6150793650793651 T T T As
   0.0000000000000000    0.0000000000000000    0.6865079365079365 T T T As
