Ti12 Mn12 As12
1.0
   3.5240726658437609    0.0000000000000000    0.0000000000000002
   0.0000000000000009    5.5414858631555033   -9.5981350644100196
   0.0000000000000000    0.0000000000000000   57.5888103864600964
Ti Mn As Ti Mn As Ti Mn As Ti Mn As
3 3 3 3 3 3 3 3 3 3 3 3
Selective dynamics
direct
   0.0000000000000000    0.5881545156877230    0.3529232257083829 T T T Ti
   0.0000000000000000    0.4118454843122770    0.3790939427013641 T T T Ti
   0.0000000000000000    0.0000000000000000    0.3790939427013641 T T T Ti
   0.5000000000000000    0.2481958410716718    0.2773768535714826 T T T Mn
   0.5000000000000000    0.7518041589283282    0.3057560176587031 T T T Mn
   0.5000000000000000    0.0000000000000000    0.3057560176587031 T T T Mn
   0.5000000000000000    0.6666666666666667    0.3333333333333333 T T T As
   0.5000000000000000    0.3333333333333334    0.3333333333333333 T T T As
   0.0000000000000000    0.0000000000000000    0.3333333333333333 T T T As
   0.0000000000000000    0.5881545156877230    0.4640343368194940 F F F Ti
   0.0000000000000000    0.4118454843122770    0.4902050538124752 F F F Ti
   0.0000000000000000    0.0000000000000000    0.4902050538124752 F F F Ti
   0.5000000000000000    0.2481958410716718    0.3884879646825937 F F F Mn
   0.5000000000000000    0.7518041589283282    0.4168671287698142 F F F Mn
   0.5000000000000000    0.0000000000000000    0.4168671287698142 F F F Mn
   0.5000000000000000    0.6666666666666667    0.4444444444444444 F F F As
   0.5000000000000000    0.3333333333333334    0.4444444444444444 F F F As
   0.0000000000000000    0.0000000000000000    0.4444444444444444 F F F As
   0.0000000000000000    0.5881545156877230    0.5751454479306051 F F F Ti
   0.0000000000000000    0.4118454843122770    0.6013161649235863 F F F Ti
   0.0000000000000000    0.0000000000000000    0.6013161649235863 F F F Ti
   0.5000000000000000    0.2481958410716718    0.4995990757937048 F F F Mn
   0.5000000000000000    0.7518041589283282    0.5279782398809254 F F F Mn
   0.5000000000000000    0.0000000000000000    0.5279782398809254 F F F Mn
   0.5000000000000000    0.6666666666666667    0.5555555555555556 F F F As
   0.5000000000000000    0.3333333333333334    0.5555555555555556 F F F As
   0.0000000000000000    0.0000000000000000    0.5555555555555556 F F F As
   0.0000000000000000    0.5881545156877230    0.6862565590417162 T T T Ti
   0.0000000000000000    0.4118454843122770    0.7124272760346975 T T T Ti
   0.0000000000000000    0.0000000000000000    0.7124272760346975 T T T Ti
   0.5000000000000000    0.2481958410716718    0.6107101869048159 T T T Mn
   0.5000000000000000    0.7518041589283282    0.6390893509920365 T T T Mn
   0.5000000000000000    0.0000000000000000    0.6390893509920365 T T T Mn
   0.5000000000000000    0.6666666666666667    0.6666666666666666 T T T As
   0.5000000000000000    0.3333333333333334    0.6666666666666666 T T T As
   0.0000000000000000    0.0000000000000000    0.6666666666666666 T T T As
