Sr24 In48 Pt24
1.0
  11.0886354005353986    0.0000000000000000    0.0000000000000007
   0.0000000000000026   16.0330312647149036   -4.5342171925029504
   0.0000000000000000    0.0000000000000000   31.7395203475206671
Sr In Pt Sr In Pt Sr In Pt
8 16 8 8 16 8 8 16 8
Selective dynamics
direct
   0.0614687707045363    0.3750000000000000    0.3303571428571429 T T T Sr
   0.0614687707045363    0.8750000000000000    0.4017857142857143 F F F Sr
   0.4385312292954637    0.1250000000000000    0.3660714285714286 T T T Sr
   0.4385312292954637    0.6250000000000000    0.2946428571428572 T T T Sr
   0.5614687707045364    0.3750000000000000    0.4017857142857143 F F F Sr
   0.5614687707045364    0.8749999999999999    0.3303571428571429 T T T Sr
   0.9385312292954637    0.1250000000000000    0.2946428571428572 T T T Sr
   0.9385312292954637    0.6250000000000000    0.3660714285714286 T T T Sr
   0.3484404580078789    0.4727383821069041    0.3443197688724149 T T T In
   0.3484404580078789    0.9727383821069041    0.4157483403009863 F F F In
   0.3484404580078789    0.2772616178930959    0.3163945168418709 T T T In
   0.3484404580078789    0.7772616178930958    0.3878230882704423 T T T In
   0.1515595419921211    0.0272616178930959    0.3521088025561566 T T T In
   0.1515595419921211    0.5272616178930959    0.4235373739847280 F F F In
   0.1515595419921211    0.2227383821069041    0.3800340545867006 T T T In
   0.1515595419921211    0.7227383821069041    0.3086054831581292 T T T In
   0.8484404580078787    0.4727383821069041    0.4157483403009863 F F F In
   0.8484404580078787    0.9727383821069040    0.3443197688724149 T T T In
   0.8484404580078787    0.2772616178930959    0.3878230882704423 T T T In
   0.8484404580078787    0.7772616178930959    0.3163945168418709 T T T In
   0.6515595419921212    0.0272616178930959    0.4235373739847280 F F F In
   0.6515595419921212    0.5272616178930959    0.3521088025561566 T T T In
   0.6515595419921212    0.2227383821069041    0.3086054831581292 T T T In
   0.6515595419921212    0.7227383821069041    0.3800340545867006 T T T In
   0.2798514478213506    0.3750000000000000    0.4017857142857143 F F F Pt
   0.2798514478213506    0.8749999999999999    0.3303571428571429 T T T Pt
   0.2201485521786494    0.1250000000000000    0.2946428571428572 T T T Pt
   0.2201485521786494    0.6250000000000000    0.3660714285714286 T T T Pt
   0.7798514478213505    0.3750000000000000    0.3303571428571429 T T T Pt
   0.7798514478213505    0.8749999999999999    0.4017857142857143 F F F Pt
   0.7201485521786495    0.1250000000000000    0.3660714285714286 T T T Pt
   0.7201485521786495    0.6250000000000000    0.2946428571428572 T T T Pt
   0.0614687707045363    0.3750000000000000    0.4732142857142857 F F F Sr
   0.0614687707045363    0.8750000000000000    0.5446428571428572 F F F Sr
   0.4385312292954637    0.1250000000000000    0.5089285714285714 F F F Sr
   0.4385312292954637    0.6250000000000000    0.4375000000000000 F F F Sr
   0.5614687707045364    0.3750000000000000    0.5446428571428572 F F F Sr
   0.5614687707045364    0.8749999999999999    0.4732142857142857 F F F Sr
   0.9385312292954637    0.1250000000000000    0.4375000000000000 F F F Sr
   0.9385312292954637    0.6250000000000000    0.5089285714285714 F F F Sr
   0.3484404580078789    0.4727383821069041    0.4871769117295577 F F F In
   0.3484404580078789    0.9727383821069041    0.5586054831581292 F F F In
   0.3484404580078789    0.2772616178930959    0.4592516596990137 F F F In
   0.3484404580078789    0.7772616178930958    0.5306802311275851 F F F In
   0.1515595419921211    0.0272616178930959    0.4949659454132994 F F F In
   0.1515595419921211    0.5272616178930959    0.5663945168418708 F F F In
   0.1515595419921211    0.2227383821069041    0.5228911974438435 F F F In
   0.1515595419921211    0.7227383821069041    0.4514626260152720 F F F In
   0.8484404580078787    0.4727383821069041    0.5586054831581292 F F F In
   0.8484404580078787    0.9727383821069040    0.4871769117295577 F F F In
   0.8484404580078787    0.2772616178930959    0.5306802311275851 F F F In
   0.8484404580078787    0.7772616178930959    0.4592516596990137 F F F In
   0.6515595419921212    0.0272616178930959    0.5663945168418709 F F F In
   0.6515595419921212    0.5272616178930959    0.4949659454132994 F F F In
   0.6515595419921212    0.2227383821069041    0.4514626260152720 F F F In
   0.6515595419921212    0.7227383821069041    0.5228911974438435 F F F In
   0.2798514478213506    0.3750000000000000    0.5446428571428572 F F F Pt
   0.2798514478213506    0.8749999999999999    0.4732142857142857 F F F Pt
   0.2201485521786494    0.1250000000000000    0.4375000000000000 F F F Pt
   0.2201485521786494    0.6250000000000000    0.5089285714285714 F F F Pt
   0.7798514478213505    0.3750000000000000    0.4732142857142857 F F F Pt
   0.7798514478213505    0.8749999999999999    0.5446428571428572 F F F Pt
   0.7201485521786495    0.1250000000000000    0.5089285714285714 F F F Pt
   0.7201485521786495    0.6250000000000000    0.4375000000000000 F F F Pt
   0.0614687707045363    0.3750000000000000    0.6160714285714286 T T T Sr
   0.0614687707045363    0.8750000000000000    0.6875000000000000 T T T Sr
   0.4385312292954637    0.1250000000000000    0.6517857142857143 T T T Sr
   0.4385312292954637    0.6250000000000000    0.5803571428571428 F F F Sr
   0.5614687707045364    0.3750000000000000    0.6875000000000000 T T T Sr
   0.5614687707045364    0.8749999999999999    0.6160714285714286 T T T Sr
   0.9385312292954637    0.1250000000000000    0.5803571428571428 F F F Sr
   0.9385312292954637    0.6250000000000000    0.6517857142857143 T T T Sr
   0.3484404580078789    0.4727383821069041    0.6300340545867006 T T T In
   0.3484404580078789    0.9727383821069041    0.7014626260152721 T T T In
   0.3484404580078789    0.2772616178930959    0.6021088025561565 F F F In
   0.3484404580078789    0.7772616178930958    0.6735373739847279 T T T In
   0.1515595419921211    0.0272616178930959    0.6378230882704423 T T T In
   0.1515595419921211    0.5272616178930959    0.7092516596990137 T T T In
   0.1515595419921211    0.2227383821069041    0.6657483403009863 T T T In
   0.1515595419921211    0.7227383821069041    0.5943197688724149 F F F In
   0.8484404580078787    0.4727383821069041    0.7014626260152721 T T T In
   0.8484404580078787    0.9727383821069040    0.6300340545867006 T T T In
   0.8484404580078787    0.2772616178930959    0.6735373739847280 T T T In
   0.8484404580078787    0.7772616178930959    0.6021088025561565 F F F In
   0.6515595419921212    0.0272616178930959    0.7092516596990137 T T T In
   0.6515595419921212    0.5272616178930959    0.6378230882704423 T T T In
   0.6515595419921212    0.2227383821069041    0.5943197688724149 F F F In
   0.6515595419921212    0.7227383821069041    0.6657483403009863 T T T In
   0.2798514478213506    0.3750000000000000    0.6875000000000000 T T T Pt
   0.2798514478213506    0.8749999999999999    0.6160714285714286 T T T Pt
   0.2201485521786494    0.1250000000000000    0.5803571428571428 F F F Pt
   0.2201485521786494    0.6250000000000000    0.6517857142857143 T T T Pt
   0.7798514478213505    0.3750000000000000    0.6160714285714286 T T T Pt
   0.7798514478213505    0.8749999999999999    0.6875000000000000 T T T Pt
   0.7201485521786495    0.1250000000000000    0.6517857142857143 T T T Pt
   0.7201485521786495    0.6250000000000000    0.5803571428571428 F F F Pt
