Ba36 Cd24 Sb48
1.0
   7.8451699694750703    0.0000000000000000    0.0000000000000005
  13.6214737146836651   33.6880370721714897    4.9252710424272452
   0.0000000000000000    0.0000000000000000   34.4768972969907495
Ba Cd Sb Ba Cd Sb Ba Cd Sb
12 8 16 12 8 16 12 8 16
Selective dynamics
direct
   0.5909821393868419    0.1788052430858383    0.3256468700353564 T T T Ba
   0.5909821393868419    0.6788052430858382    0.3970754414639279 F F F Ba
   0.4090178606131581    0.0711947569141618    0.4124483680598816 F F F Ba
   0.4090178606131581    0.5711947569141617    0.3410197966313102 T T T Ba
   0.0000000000000000    0.0000000000000000    0.4226190476190476 F F F Ba
   0.0000000000000000    0.4999999999999999    0.3511904761904762 T T T Ba
   0.5909821393868419    0.4288052430858382    0.3613611557496421 T T T Ba
   0.5909821393868419    0.9288052430858381    0.2899325843210707 T T T Ba
   0.4090178606131581    0.3211947569141618    0.3053055109170245 T T T Ba
   0.4090178606131581    0.8211947569141618    0.3767340823455959 T T T Ba
   0.0000000000000000    0.2500000000000001    0.3154761904761905 T T T Ba
   0.0000000000000000    0.7500000000000000    0.3869047619047619 F F F Ba
   0.9695646893918273    0.1660230189263423    0.3989014734867130 F F F Cd
   0.9695646893918273    0.6660230189263423    0.3274729020581416 T T T Cd
   0.0304353106081727    0.0839769810736577    0.3391937646085251 T T T Cd
   0.0304353106081727    0.5839769810736577    0.4106223360370965 F F F Cd
   0.9695646893918273    0.4160230189263423    0.2917586163438559 T T T Cd
   0.9695646893918273    0.9160230189263424    0.3631871877724273 T T T Cd
   0.0304353106081727    0.3339769810736578    0.3749080503228108 T T T Cd
   0.0304353106081727    0.8339769810736577    0.3034794788942394 T T T Cd
   0.6854222710106477    0.2487997623930696    0.3870762244200376 F F F Sb
   0.6854222710106477    0.7487997623930696    0.3156476529914662 T T T Sb
   0.1955788027687398    0.1465847363029642    0.3302497995757670 T T T Sb
   0.1955788027687398    0.6465847363029643    0.4016783710043385 F F F Sb
   0.3145777289893523    0.0012002376069305    0.3510190136752004 T T T Sb
   0.3145777289893523    0.5012002376069304    0.4224475851037718 F F F Sb
   0.8044211972312602    0.1034152636970358    0.4078454385194711 F F F Sb
   0.8044211972312602    0.6034152636970358    0.3364168670908996 T T T Sb
   0.6854222710106477    0.4987997623930697    0.4227905101343233 F F F Sb
   0.6854222710106477    0.9987997623930696    0.3513619387057519 T T T Sb
   0.1955788027687398    0.3965847363029642    0.3659640852900528 T T T Sb
   0.1955788027687398    0.8965847363029643    0.2945355138614813 T T T Sb
   0.3145777289893523    0.2512002376069304    0.3867332993894861 F F F Sb
   0.3145777289893523    0.7512002376069303    0.3153047279609147 T T T Sb
   0.8044211972312602    0.3534152636970359    0.3007025813766139 T T T Sb
   0.8044211972312602    0.8534152636970358    0.3721311528051854 T T T Sb
   0.5909821393868419    0.1788052430858383    0.4685040128924993 F F F Ba
   0.5909821393868419    0.6788052430858382    0.5399325843210707 F F F Ba
   0.4090178606131581    0.0711947569141618    0.5553055109170245 F F F Ba
   0.4090178606131581    0.5711947569141617    0.4838769394884531 F F F Ba
   0.0000000000000000    0.0000000000000000    0.5654761904761905 F F F Ba
   0.0000000000000000    0.4999999999999999    0.4940476190476190 F F F Ba
   0.5909821393868419    0.4288052430858382    0.5042182986067850 F F F Ba
   0.5909821393868419    0.9288052430858381    0.4327897271782136 F F F Ba
   0.4090178606131581    0.3211947569141618    0.4481626537741673 F F F Ba
   0.4090178606131581    0.8211947569141618    0.5195912252027388 F F F Ba
   0.0000000000000000    0.2500000000000001    0.4583333333333333 F F F Ba
   0.0000000000000000    0.7500000000000000    0.5297619047619048 F F F Ba
   0.9695646893918273    0.1660230189263423    0.5417586163438559 F F F Cd
   0.9695646893918273    0.6660230189263423    0.4703300449152844 F F F Cd
   0.0304353106081727    0.0839769810736577    0.4820509074656679 F F F Cd
   0.0304353106081727    0.5839769810736577    0.5534794788942394 F F F Cd
   0.9695646893918273    0.4160230189263423    0.4346157592009987 F F F Cd
   0.9695646893918273    0.9160230189263424    0.5060443306295701 F F F Cd
   0.0304353106081727    0.3339769810736578    0.5177651931799536 F F F Cd
   0.0304353106081727    0.8339769810736577    0.4463366217513822 F F F Cd
   0.6854222710106477    0.2487997623930696    0.5299333672771805 F F F Sb
   0.6854222710106477    0.7487997623930696    0.4585047958486091 F F F Sb
   0.1955788027687398    0.1465847363029642    0.4731069424329098 F F F Sb
   0.1955788027687398    0.6465847363029643    0.5445355138614812 F F F Sb
   0.3145777289893523    0.0012002376069305    0.4938761565323432 F F F Sb
   0.3145777289893523    0.5012002376069304    0.5653047279609147 F F F Sb
   0.8044211972312602    0.1034152636970358    0.5507025813766140 F F F Sb
   0.8044211972312602    0.6034152636970358    0.4792740099480425 F F F Sb
   0.6854222710106477    0.4987997623930697    0.5656476529914662 F F F Sb
   0.6854222710106477    0.9987997623930696    0.4942190815628948 F F F Sb
   0.1955788027687398    0.3965847363029642    0.5088212281471955 F F F Sb
   0.1955788027687398    0.8965847363029643    0.4373926567186242 F F F Sb
   0.3145777289893523    0.2512002376069304    0.5295904422466290 F F F Sb
   0.3145777289893523    0.7512002376069303    0.4581618708180575 F F F Sb
   0.8044211972312602    0.3534152636970359    0.4435597242337568 F F F Sb
   0.8044211972312602    0.8534152636970358    0.5149882956623282 F F F Sb
   0.5909821393868419    0.1788052430858383    0.6113611557496421 F F F Ba
   0.5909821393868419    0.6788052430858382    0.6827897271782135 T T T Ba
   0.4090178606131581    0.0711947569141618    0.6981626537741673 T T T Ba
   0.4090178606131581    0.5711947569141617    0.6267340823455959 T T T Ba
   0.0000000000000000    0.0000000000000000    0.7083333333333333 T T T Ba
   0.0000000000000000    0.4999999999999999    0.6369047619047619 T T T Ba
   0.5909821393868419    0.4288052430858382    0.6470754414639278 T T T Ba
   0.5909821393868419    0.9288052430858381    0.5756468700353564 F F F Ba
   0.4090178606131581    0.3211947569141618    0.5910197966313102 F F F Ba
   0.4090178606131581    0.8211947569141618    0.6624483680598816 T T T Ba
   0.0000000000000000    0.2500000000000001    0.6011904761904762 F F F Ba
   0.0000000000000000    0.7500000000000000    0.6726190476190476 T T T Ba
   0.9695646893918273    0.1660230189263423    0.6846157592009987 T T T Cd
   0.9695646893918273    0.6660230189263423    0.6131871877724273 F F F Cd
   0.0304353106081727    0.0839769810736577    0.6249080503228108 T T T Cd
   0.0304353106081727    0.5839769810736577    0.6963366217513822 T T T Cd
   0.9695646893918273    0.4160230189263423    0.5774729020581415 F F F Cd
   0.9695646893918273    0.9160230189263424    0.6489014734867129 T T T Cd
   0.0304353106081727    0.3339769810736578    0.6606223360370965 T T T Cd
   0.0304353106081727    0.8339769810736577    0.5891937646085250 F F F Cd
   0.6854222710106477    0.2487997623930696    0.6727905101343233 T T T Sb
   0.6854222710106477    0.7487997623930696    0.6013619387057519 F F F Sb
   0.1955788027687398    0.1465847363029642    0.6159640852900528 F F F Sb
   0.1955788027687398    0.6465847363029643    0.6873926567186242 T T T Sb
   0.3145777289893523    0.0012002376069305    0.6367332993894861 T T T Sb
   0.3145777289893523    0.5012002376069304    0.7081618708180575 T T T Sb
   0.8044211972312602    0.1034152636970358    0.6935597242337568 T T T Sb
   0.8044211972312602    0.6034152636970358    0.6221311528051854 T T T Sb
   0.6854222710106477    0.4987997623930697    0.7085047958486090 T T T Sb
   0.6854222710106477    0.9987997623930696    0.6370762244200376 T T T Sb
   0.1955788027687398    0.3965847363029642    0.6516783710043385 T T T Sb
   0.1955788027687398    0.8965847363029643    0.5802497995757669 F F F Sb
   0.3145777289893523    0.2512002376069304    0.6724475851037718 T T T Sb
   0.3145777289893523    0.7512002376069303    0.6010190136752004 F F F Sb
   0.8044211972312602    0.3534152636970359    0.5864168670908996 F F F Sb
   0.8044211972312602    0.8534152636970358    0.6578454385194711 T T T Sb
