Tl5 Cr5 Te10
1.0
   7.9391234299256084    0.0000000000000000    0.0000000000000005
   0.0000000000000006    3.5710549833070417   -6.1852486677098328
   0.0000000000000000    0.0000000000000000   53.6054884534852008
Tl Cr Te Tl Cr Te Tl Cr Te Tl Cr Te Tl Cr Te
1 1 2 1 1 2 1 1 2 1 1 2 1 1 2
Selective dynamics
direct
   0.0000000000000000    0.0000000000000000    0.3461538461538461 T T T Tl
   0.5000000000000000    0.0000000000000000    0.3461538461538461 T T T Cr
   0.3205724130919865    0.6666666666666666    0.3461538461538461 T T T Te
   0.6794275869080135    0.3333333333333331    0.3461538461538461 T T T Te
   0.0000000000000000    0.0000000000000000    0.4230769230769231 T T T Tl
   0.5000000000000000    0.0000000000000000    0.4230769230769231 T T T Cr
   0.3205724130919865    0.6666666666666666    0.4230769230769231 T T T Te
   0.6794275869080135    0.3333333333333331    0.4230769230769230 T T T Te
   0.0000000000000000    0.0000000000000000    0.5000000000000000 F F F Tl
   0.5000000000000000    0.0000000000000000    0.5000000000000000 F F F Cr
   0.3205724130919865    0.6666666666666666    0.5000000000000000 F F F Te
   0.6794275869080135    0.3333333333333331    0.5000000000000000 F F F Te
   0.0000000000000000    0.0000000000000000    0.5769230769230769 T T T Tl
   0.5000000000000000    0.0000000000000000    0.5769230769230769 T T T Cr
   0.3205724130919865    0.6666666666666666    0.5769230769230769 T T T Te
   0.6794275869080135    0.3333333333333331    0.5769230769230769 T T T Te
   0.0000000000000000    0.0000000000000000    0.6538461538461539 T T T Tl
   0.5000000000000000    0.0000000000000000    0.6538461538461539 T T T Cr
   0.3205724130919865    0.6666666666666666    0.6538461538461539 T T T Te
   0.6794275869080135    0.3333333333333331    0.6538461538461537 T T T Te
