Li60 Ga30 Cu90
1.0
   4.3261556073453260    0.0000000000000000   -7.4931213133711072
  -0.0000000000000015   23.9953803099657073   -4.9954142089140712
   0.0000000000000000    0.0000000000000000   59.9449705069688434
Li Ga Cu Li Ga Cu Li Ga Cu Li Ga Cu Li Ga Cu
12 6 18 12 6 18 12 6 18 12 6 18 12 6 18
Selective dynamics
direct
   0.6666666666666666    0.1456246275936680    0.3003298300772501 T T T Li
   0.6666666666666666    0.6456246275936679    0.3419964967439167 T T T Li
   0.6666666666666667    0.0210420390729985    0.3732812810338610 T T T Li
   0.6666666666666667    0.5210420390729985    0.3316146143671943 T T T Li
   0.0000000000000000    0.3122912942603346    0.3142187189661390 T T T Li
   0.0000000000000000    0.8122912942603346    0.3558853856328056 T T T Li
   0.0000000000000000    0.1877087057396652    0.3038368365894165 T T T Li
   0.0000000000000000    0.6877087057396652    0.3455035032560832 T T T Li
   0.3333333333333333    0.4789579609270013    0.3281076078550278 T T T Li
   0.3333333333333333    0.9789579609270013    0.3697742745216945 T T T Li
   0.3333333333333335    0.3543753724063318    0.3177257254783054 T T T Li
   0.3333333333333335    0.8543753724063319    0.3593923921449721 T T T Li
   0.0000000000000000    0.0000000000000000    0.3715277777777777 T T T Ga
   0.0000000000000000    0.4999999999999999    0.3298611111111111 T T T Ga
   0.3333333333333333    0.1666666666666666    0.3020833333333333 T T T Ga
   0.3333333333333333    0.6666666666666665    0.3437499999999999 T T T Ga
   0.6666666666666666    0.3333333333333332    0.3159722222222222 T T T Ga
   0.6666666666666666    0.8333333333333331    0.3576388888888888 T T T Ga
   0.1666666666666667    0.0833333333333332    0.2951388888888888 T T T Cu
   0.1666666666666667    0.5833333333333333    0.3368055555555555 T T T Cu
   0.8333333333333333    0.4166666666666666    0.3645833333333333 T T T Cu
   0.8333333333333333    0.9166666666666666    0.3229166666666666 T T T Cu
   0.6666666666666666    0.0833333333333332    0.3368055555555555 T T T Cu
   0.6666666666666666    0.5833333333333331    0.2951388888888888 T T T Cu
   0.5000000000000000    0.2499999999999999    0.3090277777777777 T T T Cu
   0.5000000000000000    0.7499999999999999    0.3506944444444444 T T T Cu
   0.1666666666666665    0.0833333333333333    0.3368055555555555 T T T Cu
   0.1666666666666665    0.5833333333333333    0.2951388888888888 T T T Cu
   0.0000000000000000    0.2499999999999999    0.3506944444444444 T T T Cu
   0.0000000000000000    0.7500000000000000    0.3090277777777777 T T T Cu
   0.8333333333333334    0.4166666666666665    0.3229166666666666 T T T Cu
   0.8333333333333334    0.9166666666666665    0.3645833333333333 T T T Cu
   0.5000000000000000    0.2499999999999999    0.3506944444444444 T T T Cu
   0.5000000000000000    0.7500000000000000    0.3090277777777777 T T T Cu
   0.3333333333333333    0.4166666666666666    0.3645833333333333 T T T Cu
   0.3333333333333333    0.9166666666666665    0.3229166666666666 T T T Cu
   0.6666666666666666    0.1456246275936680    0.3836631634105834 T T T Li
   0.6666666666666666    0.6456246275936679    0.4253298300772501 F F F Li
   0.6666666666666667    0.0210420390729985    0.4566146143671943 F F F Li
   0.6666666666666667    0.5210420390729985    0.4149479477005276 F F F Li
   0.0000000000000000    0.3122912942603346    0.3975520522994723 F F F Li
   0.0000000000000000    0.8122912942603346    0.4392187189661390 F F F Li
   0.0000000000000000    0.1877087057396652    0.3871701699227499 T T T Li
   0.0000000000000000    0.6877087057396652    0.4288368365894165 F F F Li
   0.3333333333333333    0.4789579609270013    0.4114409411883612 F F F Li
   0.3333333333333333    0.9789579609270013    0.4531076078550278 F F F Li
   0.3333333333333335    0.3543753724063318    0.4010590588116387 F F F Li
   0.3333333333333335    0.8543753724063319    0.4427257254783054 F F F Li
   0.0000000000000000    0.0000000000000000    0.4548611111111110 F F F Ga
   0.0000000000000000    0.4999999999999999    0.4131944444444444 F F F Ga
   0.3333333333333333    0.1666666666666666    0.3854166666666666 T T T Ga
   0.3333333333333333    0.6666666666666665    0.4270833333333333 F F F Ga
   0.6666666666666666    0.3333333333333332    0.3993055555555555 F F F Ga
   0.6666666666666666    0.8333333333333331    0.4409722222222222 F F F Ga
   0.1666666666666667    0.0833333333333332    0.3784722222222222 T T T Cu
   0.1666666666666667    0.5833333333333333    0.4201388888888888 F F F Cu
   0.8333333333333333    0.4166666666666666    0.4479166666666666 F F F Cu
   0.8333333333333333    0.9166666666666666    0.4062499999999999 F F F Cu
   0.6666666666666666    0.0833333333333332    0.4201388888888888 F F F Cu
   0.6666666666666666    0.5833333333333331    0.3784722222222222 T T T Cu
   0.5000000000000000    0.2499999999999999    0.3923611111111110 T T T Cu
   0.5000000000000000    0.7499999999999999    0.4340277777777777 F F F Cu
   0.1666666666666665    0.0833333333333333    0.4201388888888888 F F F Cu
   0.1666666666666665    0.5833333333333333    0.3784722222222222 T T T Cu
   0.0000000000000000    0.2499999999999999    0.4340277777777777 F F F Cu
   0.0000000000000000    0.7500000000000000    0.3923611111111110 T T T Cu
   0.8333333333333334    0.4166666666666665    0.4062499999999999 F F F Cu
   0.8333333333333334    0.9166666666666665    0.4479166666666666 F F F Cu
   0.5000000000000000    0.2499999999999999    0.4340277777777777 F F F Cu
   0.5000000000000000    0.7500000000000000    0.3923611111111110 T T T Cu
   0.3333333333333333    0.4166666666666666    0.4479166666666666 F F F Cu
   0.3333333333333333    0.9166666666666665    0.4062499999999999 F F F Cu
   0.6666666666666666    0.1456246275936680    0.4669964967439167 F F F Li
   0.6666666666666666    0.6456246275936679    0.5086631634105834 F F F Li
   0.6666666666666667    0.0210420390729985    0.5399479477005276 F F F Li
   0.6666666666666667    0.5210420390729985    0.4982812810338609 F F F Li
   0.0000000000000000    0.3122912942603346    0.4808853856328056 F F F Li
   0.0000000000000000    0.8122912942603346    0.5225520522994723 F F F Li
   0.0000000000000000    0.1877087057396652    0.4705035032560831 F F F Li
   0.0000000000000000    0.6877087057396652    0.5121701699227499 F F F Li
   0.3333333333333333    0.4789579609270013    0.4947742745216945 F F F Li
   0.3333333333333333    0.9789579609270013    0.5364409411883612 F F F Li
   0.3333333333333335    0.3543753724063318    0.4843923921449721 F F F Li
   0.3333333333333335    0.8543753724063319    0.5260590588116387 F F F Li
   0.0000000000000000    0.0000000000000000    0.5381944444444444 F F F Ga
   0.0000000000000000    0.4999999999999999    0.4965277777777777 F F F Ga
   0.3333333333333333    0.1666666666666666    0.4687499999999999 F F F Ga
   0.3333333333333333    0.6666666666666665    0.5104166666666666 F F F Ga
   0.6666666666666666    0.3333333333333332    0.4826388888888888 F F F Ga
   0.6666666666666666    0.8333333333333331    0.5243055555555555 F F F Ga
   0.1666666666666667    0.0833333333333332    0.4618055555555555 F F F Cu
   0.1666666666666667    0.5833333333333333    0.5034722222222221 F F F Cu
   0.8333333333333333    0.4166666666666666    0.5312500000000000 F F F Cu
   0.8333333333333333    0.9166666666666666    0.4895833333333333 F F F Cu
   0.6666666666666666    0.0833333333333332    0.5034722222222221 F F F Cu
   0.6666666666666666    0.5833333333333331    0.4618055555555555 F F F Cu
   0.5000000000000000    0.2499999999999999    0.4756944444444444 F F F Cu
   0.5000000000000000    0.7499999999999999    0.5173611111111110 F F F Cu
   0.1666666666666665    0.0833333333333333    0.5034722222222222 F F F Cu
   0.1666666666666665    0.5833333333333333    0.4618055555555555 F F F Cu
   0.0000000000000000    0.2499999999999999    0.5173611111111110 F F F Cu
   0.0000000000000000    0.7500000000000000    0.4756944444444444 F F F Cu
   0.8333333333333334    0.4166666666666665    0.4895833333333333 F F F Cu
   0.8333333333333334    0.9166666666666665    0.5312500000000000 F F F Cu
   0.5000000000000000    0.2499999999999999    0.5173611111111110 F F F Cu
   0.5000000000000000    0.7500000000000000    0.4756944444444444 F F F Cu
   0.3333333333333333    0.4166666666666666    0.5312500000000000 F F F Cu
   0.3333333333333333    0.9166666666666665    0.4895833333333333 F F F Cu
   0.6666666666666666    0.1456246275936680    0.5503298300772501 F F F Li
   0.6666666666666666    0.6456246275936679    0.5919964967439167 F F F Li
   0.6666666666666667    0.0210420390729985    0.6232812810338610 T T T Li
   0.6666666666666667    0.5210420390729985    0.5816146143671943 F F F Li
   0.0000000000000000    0.3122912942603346    0.5642187189661390 F F F Li
   0.0000000000000000    0.8122912942603346    0.6058853856328057 F F F Li
   0.0000000000000000    0.1877087057396652    0.5538368365894165 F F F Li
   0.0000000000000000    0.6877087057396652    0.5955035032560831 F F F Li
   0.3333333333333333    0.4789579609270013    0.5781076078550278 F F F Li
   0.3333333333333333    0.9789579609270013    0.6197742745216945 T T T Li
   0.3333333333333335    0.3543753724063318    0.5677257254783055 F F F Li
   0.3333333333333335    0.8543753724063319    0.6093923921449721 T T T Li
   0.0000000000000000    0.0000000000000000    0.6215277777777777 T T T Ga
   0.0000000000000000    0.4999999999999999    0.5798611111111112 F F F Ga
   0.3333333333333333    0.1666666666666666    0.5520833333333333 F F F Ga
   0.3333333333333333    0.6666666666666665    0.5937500000000000 F F F Ga
   0.6666666666666666    0.3333333333333332    0.5659722222222222 F F F Ga
   0.6666666666666666    0.8333333333333331    0.6076388888888888 T T T Ga
   0.1666666666666667    0.0833333333333332    0.5451388888888888 F F F Cu
   0.1666666666666667    0.5833333333333333    0.5868055555555556 F F F Cu
   0.8333333333333333    0.4166666666666666    0.6145833333333333 T T T Cu
   0.8333333333333333    0.9166666666666666    0.5729166666666666 F F F Cu
   0.6666666666666666    0.0833333333333332    0.5868055555555556 F F F Cu
   0.6666666666666666    0.5833333333333331    0.5451388888888888 F F F Cu
   0.5000000000000000    0.2499999999999999    0.5590277777777777 F F F Cu
   0.5000000000000000    0.7499999999999999    0.6006944444444444 F F F Cu
   0.1666666666666665    0.0833333333333333    0.5868055555555556 F F F Cu
   0.1666666666666665    0.5833333333333333    0.5451388888888888 F F F Cu
   0.0000000000000000    0.2499999999999999    0.6006944444444444 F F F Cu
   0.0000000000000000    0.7500000000000000    0.5590277777777777 F F F Cu
   0.8333333333333334    0.4166666666666665    0.5729166666666666 F F F Cu
   0.8333333333333334    0.9166666666666665    0.6145833333333333 T T T Cu
   0.5000000000000000    0.2499999999999999    0.6006944444444444 F F F Cu
   0.5000000000000000    0.7500000000000000    0.5590277777777777 F F F Cu
   0.3333333333333333    0.4166666666666666    0.6145833333333333 T T T Cu
   0.3333333333333333    0.9166666666666665    0.5729166666666666 F F F Cu
   0.6666666666666666    0.1456246275936680    0.6336631634105834 T T T Li
   0.6666666666666666    0.6456246275936679    0.6753298300772501 T T T Li
   0.6666666666666667    0.0210420390729985    0.7066146143671943 T T T Li
   0.6666666666666667    0.5210420390729985    0.6649479477005276 T T T Li
   0.0000000000000000    0.3122912942603346    0.6475520522994722 T T T Li
   0.0000000000000000    0.8122912942603346    0.6892187189661390 T T T Li
   0.0000000000000000    0.1877087057396652    0.6371701699227499 T T T Li
   0.0000000000000000    0.6877087057396652    0.6788368365894165 T T T Li
   0.3333333333333333    0.4789579609270013    0.6614409411883612 T T T Li
   0.3333333333333333    0.9789579609270013    0.7031076078550278 T T T Li
   0.3333333333333335    0.3543753724063318    0.6510590588116387 T T T Li
   0.3333333333333335    0.8543753724063319    0.6927257254783055 T T T Li
   0.0000000000000000    0.0000000000000000    0.7048611111111110 T T T Ga
   0.0000000000000000    0.4999999999999999    0.6631944444444444 T T T Ga
   0.3333333333333333    0.1666666666666666    0.6354166666666666 T T T Ga
   0.3333333333333333    0.6666666666666665    0.6770833333333333 T T T Ga
   0.6666666666666666    0.3333333333333332    0.6493055555555556 T T T Ga
   0.6666666666666666    0.8333333333333331    0.6909722222222221 T T T Ga
   0.1666666666666667    0.0833333333333332    0.6284722222222221 T T T Cu
   0.1666666666666667    0.5833333333333333    0.6701388888888888 T T T Cu
   0.8333333333333333    0.4166666666666666    0.6979166666666666 T T T Cu
   0.8333333333333333    0.9166666666666666    0.6562500000000000 T T T Cu
   0.6666666666666666    0.0833333333333332    0.6701388888888888 T T T Cu
   0.6666666666666666    0.5833333333333331    0.6284722222222221 T T T Cu
   0.5000000000000000    0.2499999999999999    0.6423611111111110 T T T Cu
   0.5000000000000000    0.7499999999999999    0.6840277777777777 T T T Cu
   0.1666666666666665    0.0833333333333333    0.6701388888888888 T T T Cu
   0.1666666666666665    0.5833333333333333    0.6284722222222221 T T T Cu
   0.0000000000000000    0.2499999999999999    0.6840277777777777 T T T Cu
   0.0000000000000000    0.7500000000000000    0.6423611111111110 T T T Cu
   0.8333333333333334    0.4166666666666665    0.6562500000000000 T T T Cu
   0.8333333333333334    0.9166666666666665    0.6979166666666665 T T T Cu
   0.5000000000000000    0.2499999999999999    0.6840277777777777 T T T Cu
   0.5000000000000000    0.7500000000000000    0.6423611111111110 T T T Cu
   0.3333333333333333    0.4166666666666666    0.6979166666666666 T T T Cu
   0.3333333333333333    0.9166666666666665    0.6562500000000000 T T T Cu
