Ba64 Ge128 Ru128
1.0
  21.2686865342650329    0.0000000000000000   -6.4862395925944734
   0.0000000000000098   25.5829373689706294   -6.4862395925944618
   0.0000000000000000    0.0000000000000000   32.4311979629723552
Ba Ge Ru Ba Ge Ru
32 64 64 32 64 64
Selective dynamics
direct
   0.5000000000000000    0.5000000000000000    0.3750000000000000 T T T Ba
   0.0000000000000000    0.0000000000000000    0.3750000000000000 T T T Ba
   0.0000000000000000    0.5000000000000000    0.4750000000000000 F F F Ba
   0.5000000000000000    0.0000000000000001    0.4750000000000000 F F F Ba
   0.6250000000000000    0.6250000000000001    0.4750000000000000 F F F Ba
   0.1250000000000000    0.1250000000000001    0.4750000000000000 F F F Ba
   0.1250000000000000    0.6250000000000001    0.3750000000000000 T T T Ba
   0.6250000000000000    0.1250000000000001    0.3749999999999999 T T T Ba
   0.7500000000000001    0.7500000000000001    0.4750000000000000 F F F Ba
   0.2500000000000000    0.2500000000000001    0.4750000000000000 F F F Ba
   0.2500000000000000    0.7500000000000001    0.3750000000000000 T T T Ba
   0.7500000000000001    0.2500000000000001    0.3750000000000000 T T T Ba
   0.8750000000000001    0.8750000000000001    0.3750000000000000 T T T Ba
   0.3750000000000001    0.3750000000000001    0.3750000000000000 T T T Ba
   0.3750000000000001    0.8750000000000001    0.4750000000000000 F F F Ba
   0.8750000000000001    0.3750000000000001    0.4750000000000000 F F F Ba
   0.5000000000000000    0.7500000000000001    0.3250000000000000 T T T Ba
   0.0000000000000000    0.2500000000000000    0.3250000000000000 T T T Ba
   0.0000000000000000    0.7500000000000001    0.4250000000000000 F F F Ba
   0.5000000000000000    0.2500000000000001    0.4250000000000000 F F F Ba
   0.6250000000000000    0.8750000000000001    0.4250000000000000 F F F Ba
   0.1250000000000000    0.3750000000000001    0.4250000000000000 F F F Ba
   0.1250000000000000    0.8750000000000001    0.3250000000000000 T T T Ba
   0.6250000000000000    0.3750000000000001    0.3250000000000000 T T T Ba
   0.7500000000000001    0.5000000000000000    0.3250000000000000 T T T Ba
   0.2500000000000000    0.0000000000000000    0.3250000000000000 T T T Ba
   0.2500000000000000    0.5000000000000000    0.4250000000000000 F F F Ba
   0.7500000000000001    0.0000000000000001    0.4250000000000000 F F F Ba
   0.8750000000000001    0.6250000000000001    0.4250000000000000 F F F Ba
   0.3750000000000001    0.1250000000000001    0.4250000000000000 F F F Ba
   0.3750000000000001    0.6250000000000001    0.3250000000000000 T T T Ba
   0.8750000000000001    0.1250000000000001    0.3250000000000000 T T T Ba
   0.8385488352032873    0.5000000000000000    0.4427097670406575 F F F Ge
   0.3385488352032873    0.0000000000000001    0.4427097670406575 F F F Ge
   0.3385488352032873    0.5000000000000000    0.3427097670406574 T T T Ge
   0.8385488352032873    0.0000000000000001    0.3427097670406574 T T T Ge
   0.6614511647967127    0.5000000000000000    0.4072902329593425 F F F Ge
   0.1614511647967127    0.0000000000000000    0.4072902329593425 F F F Ge
   0.1614511647967127    0.5000000000000000    0.3072902329593425 T T T Ge
   0.6614511647967127    0.0000000000000001    0.3072902329593425 T T T Ge
   0.7864511647967127    0.6250000000000001    0.3072902329593425 T T T Ge
   0.2864511647967127    0.1250000000000001    0.3072902329593425 T T T Ge
   0.2864511647967127    0.6250000000000001    0.4072902329593425 F F F Ge
   0.7864511647967127    0.1250000000000001    0.4072902329593425 F F F Ge
   0.9635488352032874    0.6250000000000001    0.3427097670406574 T T T Ge
   0.4635488352032873    0.1250000000000001    0.3427097670406574 T T T Ge
   0.4635488352032873    0.6250000000000001    0.4427097670406575 F F F Ge
   0.9635488352032874    0.1250000000000001    0.4427097670406575 F F F Ge
   0.5885488352032873    0.7500000000000001    0.4427097670406575 F F F Ge
   0.0885488352032873    0.2500000000000001    0.4427097670406575 F F F Ge
   0.0885488352032873    0.7500000000000001    0.3427097670406575 T T T Ge
   0.5885488352032873    0.2500000000000001    0.3427097670406574 T T T Ge
   0.9114511647967127    0.7500000000000001    0.3072902329593425 T T T Ge
   0.4114511647967127    0.2500000000000001    0.3072902329593425 T T T Ge
   0.4114511647967127    0.7500000000000001    0.4072902329593425 F F F Ge
   0.9114511647967127    0.2500000000000001    0.4072902329593425 F F F Ge
   0.5364511647967127    0.8750000000000001    0.3072902329593425 T T T Ge
   0.0364511647967127    0.3750000000000001    0.3072902329593425 T T T Ge
   0.0364511647967127    0.8750000000000001    0.4072902329593425 F F F Ge
   0.5364511647967127    0.3750000000000001    0.4072902329593425 F F F Ge
   0.7135488352032873    0.8750000000000001    0.3427097670406574 T T T Ge
   0.2135488352032873    0.3750000000000001    0.3427097670406574 T T T Ge
   0.2135488352032873    0.8750000000000001    0.4427097670406575 F F F Ge
   0.7135488352032873    0.3750000000000001    0.4427097670406575 F F F Ge
   0.8385488352032873    0.7500000000000001    0.3927097670406575 T T T Ge
   0.3385488352032873    0.2500000000000000    0.3927097670406574 T T T Ge
   0.3385488352032873    0.7500000000000001    0.4927097670406574 F F F Ge
   0.8385488352032873    0.2500000000000001    0.4927097670406574 F F F Ge
   0.6614511647967127    0.7500000000000001    0.3572902329593426 T T T Ge
   0.1614511647967127    0.2500000000000000    0.3572902329593425 T T T Ge
   0.1614511647967127    0.7500000000000001    0.4572902329593426 F F F Ge
   0.6614511647967127    0.2500000000000001    0.4572902329593426 F F F Ge
   0.7864511647967127    0.8750000000000001    0.4572902329593426 F F F Ge
   0.2864511647967127    0.3750000000000001    0.4572902329593425 F F F Ge
   0.2864511647967127    0.8750000000000001    0.3572902329593425 T T T Ge
   0.7864511647967127    0.3750000000000001    0.3572902329593425 T T T Ge
   0.9635488352032874    0.8750000000000001    0.4927097670406574 F F F Ge
   0.4635488352032873    0.3750000000000001    0.4927097670406574 F F F Ge
   0.4635488352032873    0.8750000000000001    0.3927097670406574 T T T Ge
   0.9635488352032874    0.3750000000000001    0.3927097670406574 T T T Ge
   0.5885488352032873    0.5000000000000000    0.4927097670406574 F F F Ge
   0.0885488352032873    0.0000000000000000    0.4927097670406574 F F F Ge
   0.0885488352032873    0.5000000000000000    0.3927097670406574 T T T Ge
   0.5885488352032873    0.0000000000000001    0.3927097670406574 T T T Ge
   0.9114511647967127    0.5000000000000000    0.3572902329593425 T T T Ge
   0.4114511647967127    0.0000000000000000    0.3572902329593425 T T T Ge
   0.4114511647967127    0.5000000000000000    0.4572902329593426 F F F Ge
   0.9114511647967127    0.0000000000000001    0.4572902329593426 F F F Ge
   0.5364511647967127    0.6250000000000000    0.3572902329593425 T T T Ge
   0.0364511647967127    0.1250000000000000    0.3572902329593425 T T T Ge
   0.0364511647967127    0.6250000000000000    0.4572902329593426 F F F Ge
   0.5364511647967127    0.1250000000000001    0.4572902329593426 F F F Ge
   0.7135488352032873    0.6250000000000001    0.3927097670406575 T T T Ge
   0.2135488352032873    0.1250000000000000    0.3927097670406574 T T T Ge
   0.2135488352032873    0.6250000000000001    0.4927097670406574 F F F Ge
   0.7135488352032873    0.1250000000000001    0.4927097670406574 F F F Ge
   0.5000000000000000    0.6885063976530823    0.4127012795306164 F F F Ru
   0.0000000000000000    0.1885063976530824    0.4127012795306164 F F F Ru
   0.0000000000000000    0.6885063976530823    0.3127012795306164 T T T Ru
   0.5000000000000000    0.1885063976530824    0.3127012795306164 T T T Ru
   0.5000000000000000    0.5614936023469177    0.4872987204693835 F F F Ru
   0.0000000000000000    0.0614936023469177    0.4872987204693835 F F F Ru
   0.0000000000000000    0.5614936023469177    0.3872987204693835 T T T Ru
   0.5000000000000000    0.0614936023469177    0.3872987204693835 T T T Ru
   0.8750000000000001    0.5635063976530824    0.3127012795306164 T T T Ru
   0.3750000000000001    0.0635063976530824    0.3127012795306164 T T T Ru
   0.3750000000000001    0.5635063976530824    0.4127012795306164 F F F Ru
   0.8750000000000001    0.0635063976530824    0.4127012795306164 F F F Ru
   0.8750000000000001    0.6864936023469178    0.3372987204693835 T T T Ru
   0.3750000000000001    0.1864936023469178    0.3372987204693835 T T T Ru
   0.3750000000000001    0.6864936023469178    0.4372987204693836 F F F Ru
   0.8750000000000001    0.1864936023469178    0.4372987204693836 F F F Ru
   0.7500000000000001    0.9385063976530824    0.3127012795306164 T T T Ru
   0.2500000000000000    0.4385063976530824    0.3127012795306164 T T T Ru
   0.2500000000000000    0.9385063976530824    0.4127012795306164 F F F Ru
   0.7500000000000001    0.4385063976530824    0.4127012795306164 F F F Ru
   0.7500000000000001    0.8114936023469177    0.3872987204693835 T T T Ru
   0.2500000000000000    0.3114936023469178    0.3872987204693835 T T T Ru
   0.2500000000000000    0.8114936023469178    0.4872987204693835 F F F Ru
   0.7500000000000001    0.3114936023469178    0.4872987204693835 F F F Ru
   0.6250000000000000    0.8135063976530823    0.3127012795306164 T T T Ru
   0.1250000000000000    0.3135063976530824    0.3127012795306164 T T T Ru
   0.1250000000000000    0.8135063976530823    0.4127012795306164 F F F Ru
   0.6250000000000000    0.3135063976530824    0.4127012795306164 F F F Ru
   0.6250000000000000    0.9364936023469179    0.3372987204693835 T T T Ru
   0.1250000000000000    0.4364936023469178    0.3372987204693835 T T T Ru
   0.1250000000000000    0.9364936023469179    0.4372987204693836 F F F Ru
   0.6250000000000000    0.4364936023469178    0.4372987204693835 F F F Ru
   0.5000000000000000    0.9385063976530824    0.3627012795306165 T T T Ru
   0.0000000000000000    0.4385063976530823    0.3627012795306165 T T T Ru
   0.0000000000000000    0.9385063976530824    0.4627012795306165 F F F Ru
   0.5000000000000000    0.4385063976530823    0.4627012795306165 F F F Ru
   0.5000000000000000    0.8114936023469177    0.4372987204693836 F F F Ru
   0.0000000000000000    0.3114936023469178    0.4372987204693836 F F F Ru
   0.0000000000000000    0.8114936023469178    0.3372987204693835 T T T Ru
   0.5000000000000000    0.3114936023469178    0.3372987204693835 T T T Ru
   0.8750000000000001    0.8135063976530823    0.4627012795306165 F F F Ru
   0.3750000000000001    0.3135063976530824    0.4627012795306165 F F F Ru
   0.3750000000000001    0.8135063976530823    0.3627012795306165 T T T Ru
   0.8750000000000001    0.3135063976530824    0.3627012795306165 T T T Ru
   0.8750000000000001    0.9364936023469178    0.4872987204693836 F F F Ru
   0.3750000000000001    0.4364936023469178    0.4872987204693835 F F F Ru
   0.3750000000000001    0.9364936023469179    0.3872987204693836 T T T Ru
   0.8750000000000001    0.4364936023469178    0.3872987204693835 T T T Ru
   0.7500000000000001    0.6885063976530823    0.3627012795306165 T T T Ru
   0.2500000000000000    0.1885063976530823    0.3627012795306165 T T T Ru
   0.2500000000000000    0.6885063976530823    0.4627012795306165 F F F Ru
   0.7500000000000001    0.1885063976530824    0.4627012795306165 F F F Ru
   0.7500000000000001    0.5614936023469177    0.4372987204693836 F F F Ru
   0.2500000000000000    0.0614936023469178    0.4372987204693836 F F F Ru
   0.2500000000000000    0.5614936023469178    0.3372987204693835 T T T Ru
   0.7500000000000001    0.0614936023469178    0.3372987204693835 T T T Ru
   0.6250000000000000    0.5635063976530823    0.3627012795306165 T T T Ru
   0.1250000000000000    0.0635063976530823    0.3627012795306165 T T T Ru
   0.1250000000000000    0.5635063976530824    0.4627012795306165 F F F Ru
   0.6250000000000000    0.0635063976530824    0.4627012795306165 F F F Ru
   0.6250000000000000    0.6864936023469178    0.3872987204693835 T T T Ru
   0.1250000000000000    0.1864936023469177    0.3872987204693835 T T T Ru
   0.1250000000000000    0.6864936023469178    0.4872987204693835 F F F Ru
   0.6250000000000000    0.1864936023469178    0.4872987204693835 F F F Ru
   0.5000000000000000    0.5000000000000000    0.5750000000000000 F F F Ba
   0.0000000000000000    0.0000000000000000    0.5750000000000000 F F F Ba
   0.0000000000000000    0.5000000000000000    0.6750000000000000 T T T Ba
   0.5000000000000000    0.0000000000000001    0.6750000000000000 T T T Ba
   0.6250000000000000    0.6250000000000001    0.6750000000000000 T T T Ba
   0.1250000000000000    0.1250000000000001    0.6750000000000000 T T T Ba
   0.1250000000000000    0.6250000000000001    0.5750000000000000 F F F Ba
   0.6250000000000000    0.1250000000000001    0.5750000000000000 F F F Ba
   0.7500000000000001    0.7500000000000001    0.6750000000000000 T T T Ba
   0.2500000000000000    0.2500000000000001    0.6750000000000000 T T T Ba
   0.2500000000000000    0.7500000000000001    0.5750000000000000 F F F Ba
   0.7500000000000001    0.2500000000000001    0.5750000000000000 F F F Ba
   0.8750000000000001    0.8750000000000001    0.5750000000000000 F F F Ba
   0.3750000000000001    0.3750000000000001    0.5750000000000000 F F F Ba
   0.3750000000000001    0.8750000000000001    0.6750000000000000 T T T Ba
   0.8750000000000001    0.3750000000000001    0.6750000000000000 T T T Ba
   0.5000000000000000    0.7500000000000001    0.5250000000000000 F F F Ba
   0.0000000000000000    0.2500000000000000    0.5250000000000000 F F F Ba
   0.0000000000000000    0.7500000000000001    0.6250000000000000 T T T Ba
   0.5000000000000000    0.2500000000000001    0.6250000000000000 T T T Ba
   0.6250000000000000    0.8750000000000001    0.6250000000000000 T T T Ba
   0.1250000000000000    0.3750000000000001    0.6250000000000000 T T T Ba
   0.1250000000000000    0.8750000000000001    0.5250000000000000 F F F Ba
   0.6250000000000000    0.3750000000000001    0.5250000000000000 F F F Ba
   0.7500000000000001    0.5000000000000000    0.5250000000000000 F F F Ba
   0.2500000000000000    0.0000000000000000    0.5250000000000000 F F F Ba
   0.2500000000000000    0.5000000000000000    0.6250000000000000 T T T Ba
   0.7500000000000001    0.0000000000000001    0.6250000000000000 T T T Ba
   0.8750000000000001    0.6250000000000001    0.6250000000000000 T T T Ba
   0.3750000000000001    0.1250000000000001    0.6250000000000000 T T T Ba
   0.3750000000000001    0.6250000000000001    0.5250000000000000 F F F Ba
   0.8750000000000001    0.1250000000000001    0.5250000000000000 F F F Ba
   0.8385488352032873    0.5000000000000000    0.6427097670406574 T T T Ge
   0.3385488352032873    0.0000000000000001    0.6427097670406574 T T T Ge
   0.3385488352032873    0.5000000000000000    0.5427097670406574 F F F Ge
   0.8385488352032873    0.0000000000000001    0.5427097670406574 F F F Ge
   0.6614511647967127    0.5000000000000000    0.6072902329593426 T T T Ge
   0.1614511647967127    0.0000000000000000    0.6072902329593426 T T T Ge
   0.1614511647967127    0.5000000000000000    0.5072902329593425 F F F Ge
   0.6614511647967127    0.0000000000000001    0.5072902329593425 F F F Ge
   0.7864511647967127    0.6250000000000001    0.5072902329593425 F F F Ge
   0.2864511647967127    0.1250000000000001    0.5072902329593425 F F F Ge
   0.2864511647967127    0.6250000000000001    0.6072902329593426 T T T Ge
   0.7864511647967127    0.1250000000000001    0.6072902329593426 T T T Ge
   0.9635488352032874    0.6250000000000001    0.5427097670406574 F F F Ge
   0.4635488352032873    0.1250000000000001    0.5427097670406574 F F F Ge
   0.4635488352032873    0.6250000000000001    0.6427097670406574 T T T Ge
   0.9635488352032874    0.1250000000000001    0.6427097670406574 T T T Ge
   0.5885488352032873    0.7500000000000001    0.6427097670406574 T T T Ge
   0.0885488352032873    0.2500000000000001    0.6427097670406574 T T T Ge
   0.0885488352032873    0.7500000000000001    0.5427097670406575 F F F Ge
   0.5885488352032873    0.2500000000000001    0.5427097670406574 F F F Ge
   0.9114511647967127    0.7500000000000001    0.5072902329593425 F F F Ge
   0.4114511647967127    0.2500000000000001    0.5072902329593425 F F F Ge
   0.4114511647967127    0.7500000000000001    0.6072902329593426 T T T Ge
   0.9114511647967127    0.2500000000000001    0.6072902329593426 T T T Ge
   0.5364511647967127    0.8750000000000001    0.5072902329593425 F F F Ge
   0.0364511647967127    0.3750000000000001    0.5072902329593425 F F F Ge
   0.0364511647967127    0.8750000000000001    0.6072902329593426 T T T Ge
   0.5364511647967127    0.3750000000000001    0.6072902329593426 T T T Ge
   0.7135488352032873    0.8750000000000001    0.5427097670406574 F F F Ge
   0.2135488352032873    0.3750000000000001    0.5427097670406574 F F F Ge
   0.2135488352032873    0.8750000000000001    0.6427097670406574 T T T Ge
   0.7135488352032873    0.3750000000000001    0.6427097670406574 T T T Ge
   0.8385488352032873    0.7500000000000001    0.5927097670406575 F F F Ge
   0.3385488352032873    0.2500000000000000    0.5927097670406574 F F F Ge
   0.3385488352032873    0.7500000000000001    0.6927097670406575 T T T Ge
   0.8385488352032873    0.2500000000000001    0.6927097670406575 T T T Ge
   0.6614511647967127    0.7500000000000001    0.5572902329593425 F F F Ge
   0.1614511647967127    0.2500000000000000    0.5572902329593425 F F F Ge
   0.1614511647967127    0.7500000000000001    0.6572902329593426 T T T Ge
   0.6614511647967127    0.2500000000000001    0.6572902329593426 T T T Ge
   0.7864511647967127    0.8750000000000001    0.6572902329593426 T T T Ge
   0.2864511647967127    0.3750000000000001    0.6572902329593425 T T T Ge
   0.2864511647967127    0.8750000000000001    0.5572902329593425 F F F Ge
   0.7864511647967127    0.3750000000000001    0.5572902329593425 F F F Ge
   0.9635488352032874    0.8750000000000001    0.6927097670406575 T T T Ge
   0.4635488352032873    0.3750000000000001    0.6927097670406575 T T T Ge
   0.4635488352032873    0.8750000000000001    0.5927097670406574 F F F Ge
   0.9635488352032874    0.3750000000000001    0.5927097670406574 F F F Ge
   0.5885488352032873    0.5000000000000000    0.6927097670406575 T T T Ge
   0.0885488352032873    0.0000000000000000    0.6927097670406575 T T T Ge
   0.0885488352032873    0.5000000000000000    0.5927097670406574 F F F Ge
   0.5885488352032873    0.0000000000000001    0.5927097670406574 F F F Ge
   0.9114511647967127    0.5000000000000000    0.5572902329593425 F F F Ge
   0.4114511647967127    0.0000000000000000    0.5572902329593425 F F F Ge
   0.4114511647967127    0.5000000000000000    0.6572902329593426 T T T Ge
   0.9114511647967127    0.0000000000000001    0.6572902329593426 T T T Ge
   0.5364511647967127    0.6250000000000000    0.5572902329593425 F F F Ge
   0.0364511647967127    0.1250000000000000    0.5572902329593425 F F F Ge
   0.0364511647967127    0.6250000000000000    0.6572902329593426 T T T Ge
   0.5364511647967127    0.1250000000000001    0.6572902329593426 T T T Ge
   0.7135488352032873    0.6250000000000001    0.5927097670406575 F F F Ge
   0.2135488352032873    0.1250000000000000    0.5927097670406574 F F F Ge
   0.2135488352032873    0.6250000000000001    0.6927097670406575 T T T Ge
   0.7135488352032873    0.1250000000000001    0.6927097670406575 T T T Ge
   0.5000000000000000    0.6885063976530823    0.6127012795306164 T T T Ru
   0.0000000000000000    0.1885063976530824    0.6127012795306164 T T T Ru
   0.0000000000000000    0.6885063976530823    0.5127012795306165 F F F Ru
   0.5000000000000000    0.1885063976530824    0.5127012795306165 F F F Ru
   0.5000000000000000    0.5614936023469177    0.6872987204693835 T T T Ru
   0.0000000000000000    0.0614936023469177    0.6872987204693835 T T T Ru
   0.0000000000000000    0.5614936023469177    0.5872987204693836 F F F Ru
   0.5000000000000000    0.0614936023469177    0.5872987204693836 F F F Ru
   0.8750000000000001    0.5635063976530824    0.5127012795306165 F F F Ru
   0.3750000000000001    0.0635063976530824    0.5127012795306165 F F F Ru
   0.3750000000000001    0.5635063976530824    0.6127012795306164 T T T Ru
   0.8750000000000001    0.0635063976530824    0.6127012795306164 T T T Ru
   0.8750000000000001    0.6864936023469178    0.5372987204693835 F F F Ru
   0.3750000000000001    0.1864936023469178    0.5372987204693835 F F F Ru
   0.3750000000000001    0.6864936023469178    0.6372987204693836 T T T Ru
   0.8750000000000001    0.1864936023469178    0.6372987204693836 T T T Ru
   0.7500000000000001    0.9385063976530824    0.5127012795306165 F F F Ru
   0.2500000000000000    0.4385063976530824    0.5127012795306165 F F F Ru
   0.2500000000000000    0.9385063976530824    0.6127012795306164 T T T Ru
   0.7500000000000001    0.4385063976530824    0.6127012795306164 T T T Ru
   0.7500000000000001    0.8114936023469177    0.5872987204693836 F F F Ru
   0.2500000000000000    0.3114936023469178    0.5872987204693836 F F F Ru
   0.2500000000000000    0.8114936023469178    0.6872987204693835 T T T Ru
   0.7500000000000001    0.3114936023469178    0.6872987204693835 T T T Ru
   0.6250000000000000    0.8135063976530823    0.5127012795306164 F F F Ru
   0.1250000000000000    0.3135063976530824    0.5127012795306165 F F F Ru
   0.1250000000000000    0.8135063976530823    0.6127012795306164 T T T Ru
   0.6250000000000000    0.3135063976530824    0.6127012795306164 T T T Ru
   0.6250000000000000    0.9364936023469179    0.5372987204693835 F F F Ru
   0.1250000000000000    0.4364936023469178    0.5372987204693835 F F F Ru
   0.1250000000000000    0.9364936023469179    0.6372987204693836 T T T Ru
   0.6250000000000000    0.4364936023469178    0.6372987204693834 T T T Ru
   0.5000000000000000    0.9385063976530824    0.5627012795306165 F F F Ru
   0.0000000000000000    0.4385063976530823    0.5627012795306165 F F F Ru
   0.0000000000000000    0.9385063976530824    0.6627012795306164 T T T Ru
   0.5000000000000000    0.4385063976530823    0.6627012795306164 T T T Ru
   0.5000000000000000    0.8114936023469177    0.6372987204693836 T T T Ru
   0.0000000000000000    0.3114936023469178    0.6372987204693836 T T T Ru
   0.0000000000000000    0.8114936023469178    0.5372987204693835 F F F Ru
   0.5000000000000000    0.3114936023469178    0.5372987204693835 F F F Ru
   0.8750000000000001    0.8135063976530823    0.6627012795306164 T T T Ru
   0.3750000000000001    0.3135063976530824    0.6627012795306164 T T T Ru
   0.3750000000000001    0.8135063976530823    0.5627012795306165 F F F Ru
   0.8750000000000001    0.3135063976530824    0.5627012795306165 F F F Ru
   0.8750000000000001    0.9364936023469178    0.6872987204693837 T T T Ru
   0.3750000000000001    0.4364936023469178    0.6872987204693835 T T T Ru
   0.3750000000000001    0.9364936023469179    0.5872987204693836 F F F Ru
   0.8750000000000001    0.4364936023469178    0.5872987204693836 F F F Ru
   0.7500000000000001    0.6885063976530823    0.5627012795306165 F F F Ru
   0.2500000000000000    0.1885063976530823    0.5627012795306165 F F F Ru
   0.2500000000000000    0.6885063976530823    0.6627012795306164 T T T Ru
   0.7500000000000001    0.1885063976530824    0.6627012795306164 T T T Ru
   0.7500000000000001    0.5614936023469177    0.6372987204693836 T T T Ru
   0.2500000000000000    0.0614936023469178    0.6372987204693836 T T T Ru
   0.2500000000000000    0.5614936023469178    0.5372987204693835 F F F Ru
   0.7500000000000001    0.0614936023469178    0.5372987204693835 F F F Ru
   0.6250000000000000    0.5635063976530823    0.5627012795306165 F F F Ru
   0.1250000000000000    0.0635063976530823    0.5627012795306165 F F F Ru
   0.1250000000000000    0.5635063976530824    0.6627012795306164 T T T Ru
   0.6250000000000000    0.0635063976530824    0.6627012795306164 T T T Ru
   0.6250000000000000    0.6864936023469178    0.5872987204693836 F F F Ru
   0.1250000000000000    0.1864936023469177    0.5872987204693836 F F F Ru
   0.1250000000000000    0.6864936023469178    0.6872987204693835 T T T Ru
   0.6250000000000000    0.1864936023469178    0.6872987204693835 T T T Ru
