Ca24 Ga48 Ni24
1.0
  10.3967709078680084    0.0000000000000000   -4.0495804452199247
   0.0000000000000054   14.0705298458255310   -4.0495804452199264
   0.0000000000000000    0.0000000000000000   32.3966435617594115
Ca Ga Ni Ca Ga Ni Ca Ga Ni
8 16 8 8 16 8 8 16 8
Selective dynamics
direct
   0.4444220678625292    0.1250000000000000    0.3680527584828162 T T T Ca
   0.4444220678625292    0.6250000000000000    0.4305527584828162 F F F Ca
   0.0555779321374708    0.3750000000000001    0.4131972415171838 T T T Ca
   0.0555779321374708    0.8750000000000001    0.3506972415171838 T T T Ca
   0.9444220678625292    0.1250000000000001    0.3680527584828162 T T T Ca
   0.9444220678625292    0.6250000000000001    0.4305527584828162 F F F Ca
   0.5555779321374708    0.3750000000000000    0.4131972415171838 T T T Ca
   0.5555779321374708    0.8750000000000000    0.3506972415171838 T T T Ca
   0.1631178446936551    0.2219151880951280    0.3450041290985979 T T T Ga
   0.1631178446936551    0.7219151880951280    0.4075041290985979 T T T Ga
   0.3368821553063449    0.2780848119048721    0.4362458709014021 F F F Ga
   0.3368821553063449    0.7780848119048721    0.3737458709014021 T T T Ga
   0.1631178446936551    0.0280848119048720    0.3207753320748159 T T T Ga
   0.1631178446936551    0.5280848119048721    0.3832753320748159 T T T Ga
   0.3368821553063449    0.4719151880951281    0.3354746679251841 T T T Ga
   0.3368821553063449    0.9719151880951282    0.3979746679251841 T T T Ga
   0.6631178446936551    0.2219151880951281    0.3450041290985978 T T T Ga
   0.6631178446936551    0.7219151880951281    0.4075041290985979 T T T Ga
   0.8368821553063450    0.2780848119048721    0.4362458709014021 F F F Ga
   0.8368821553063450    0.7780848119048721    0.3737458709014021 T T T Ga
   0.6631178446936551    0.0280848119048721    0.3207753320748158 T T T Ga
   0.6631178446936551    0.5280848119048721    0.3832753320748158 T T T Ga
   0.8368821553063450    0.4719151880951281    0.3354746679251841 T T T Ga
   0.8368821553063450    0.9719151880951281    0.3979746679251841 T T T Ga
   0.2809172294130419    0.3750000000000000    0.3788646536766302 T T T Ni
   0.2809172294130419    0.8750000000000000    0.3163646536766302 T T T Ni
   0.2190827705869581    0.1250000000000001    0.4023853463233698 T T T Ni
   0.2190827705869581    0.6250000000000001    0.3398853463233698 T T T Ni
   0.7809172294130420    0.3750000000000001    0.3788646536766302 T T T Ni
   0.7809172294130420    0.8750000000000002    0.3163646536766302 T T T Ni
   0.7190827705869580    0.1250000000000000    0.4023853463233698 T T T Ni
   0.7190827705869580    0.6250000000000000    0.3398853463233698 T T T Ni
   0.4444220678625292    0.1250000000000000    0.4930527584828162 F F F Ca
   0.4444220678625292    0.6250000000000000    0.5555527584828162 F F F Ca
   0.0555779321374708    0.3750000000000001    0.5381972415171838 F F F Ca
   0.0555779321374708    0.8750000000000001    0.4756972415171838 F F F Ca
   0.9444220678625292    0.1250000000000001    0.4930527584828162 F F F Ca
   0.9444220678625292    0.6250000000000001    0.5555527584828162 F F F Ca
   0.5555779321374708    0.3750000000000000    0.5381972415171838 F F F Ca
   0.5555779321374708    0.8750000000000000    0.4756972415171838 F F F Ca
   0.1631178446936551    0.2219151880951280    0.4700041290985979 F F F Ga
   0.1631178446936551    0.7219151880951280    0.5325041290985979 F F F Ga
   0.3368821553063449    0.2780848119048721    0.5612458709014021 F F F Ga
   0.3368821553063449    0.7780848119048721    0.4987458709014021 F F F Ga
   0.1631178446936551    0.0280848119048720    0.4457753320748159 F F F Ga
   0.1631178446936551    0.5280848119048721    0.5082753320748159 F F F Ga
   0.3368821553063449    0.4719151880951281    0.4604746679251841 F F F Ga
   0.3368821553063449    0.9719151880951282    0.5229746679251841 F F F Ga
   0.6631178446936551    0.2219151880951281    0.4700041290985978 F F F Ga
   0.6631178446936551    0.7219151880951281    0.5325041290985979 F F F Ga
   0.8368821553063450    0.2780848119048721    0.5612458709014021 F F F Ga
   0.8368821553063450    0.7780848119048721    0.4987458709014021 F F F Ga
   0.6631178446936551    0.0280848119048721    0.4457753320748158 F F F Ga
   0.6631178446936551    0.5280848119048721    0.5082753320748159 F F F Ga
   0.8368821553063450    0.4719151880951281    0.4604746679251841 F F F Ga
   0.8368821553063450    0.9719151880951281    0.5229746679251841 F F F Ga
   0.2809172294130419    0.3750000000000000    0.5038646536766302 F F F Ni
   0.2809172294130419    0.8750000000000000    0.4413646536766302 F F F Ni
   0.2190827705869581    0.1250000000000001    0.5273853463233698 F F F Ni
   0.2190827705869581    0.6250000000000001    0.4648853463233698 F F F Ni
   0.7809172294130420    0.3750000000000001    0.5038646536766302 F F F Ni
   0.7809172294130420    0.8750000000000002    0.4413646536766302 F F F Ni
   0.7190827705869580    0.1250000000000000    0.5273853463233698 F F F Ni
   0.7190827705869580    0.6250000000000000    0.4648853463233698 F F F Ni
   0.4444220678625292    0.1250000000000000    0.6180527584828162 T T T Ca
   0.4444220678625292    0.6250000000000000    0.6805527584828162 T T T Ca
   0.0555779321374708    0.3750000000000001    0.6631972415171838 T T T Ca
   0.0555779321374708    0.8750000000000001    0.6006972415171838 T T T Ca
   0.9444220678625292    0.1250000000000001    0.6180527584828162 T T T Ca
   0.9444220678625292    0.6250000000000001    0.6805527584828162 T T T Ca
   0.5555779321374708    0.3750000000000000    0.6631972415171838 T T T Ca
   0.5555779321374708    0.8750000000000000    0.6006972415171838 T T T Ca
   0.1631178446936551    0.2219151880951280    0.5950041290985979 T T T Ga
   0.1631178446936551    0.7219151880951280    0.6575041290985979 T T T Ga
   0.3368821553063449    0.2780848119048721    0.6862458709014021 T T T Ga
   0.3368821553063449    0.7780848119048721    0.6237458709014021 T T T Ga
   0.1631178446936551    0.0280848119048720    0.5707753320748159 F F F Ga
   0.1631178446936551    0.5280848119048721    0.6332753320748159 T T T Ga
   0.3368821553063449    0.4719151880951281    0.5854746679251841 T T T Ga
   0.3368821553063449    0.9719151880951282    0.6479746679251841 T T T Ga
   0.6631178446936551    0.2219151880951281    0.5950041290985979 T T T Ga
   0.6631178446936551    0.7219151880951281    0.6575041290985979 T T T Ga
   0.8368821553063450    0.2780848119048721    0.6862458709014021 T T T Ga
   0.8368821553063450    0.7780848119048721    0.6237458709014021 T T T Ga
   0.6631178446936551    0.0280848119048721    0.5707753320748159 F F F Ga
   0.6631178446936551    0.5280848119048721    0.6332753320748159 T T T Ga
   0.8368821553063450    0.4719151880951281    0.5854746679251841 T T T Ga
   0.8368821553063450    0.9719151880951281    0.6479746679251841 T T T Ga
   0.2809172294130419    0.3750000000000000    0.6288646536766302 T T T Ni
   0.2809172294130419    0.8750000000000000    0.5663646536766302 F F F Ni
   0.2190827705869581    0.1250000000000001    0.6523853463233698 T T T Ni
   0.2190827705869581    0.6250000000000001    0.5898853463233698 T T T Ni
   0.7809172294130420    0.3750000000000001    0.6288646536766302 T T T Ni
   0.7809172294130420    0.8750000000000002    0.5663646536766302 F F F Ni
   0.7190827705869580    0.1250000000000000    0.6523853463233698 T T T Ni
   0.7190827705869580    0.6250000000000000    0.5898853463233698 T T T Ni
