Sc24 Zn12 Ru12
1.0
   6.5483334107122202    0.0000000000000000    0.0000000000000004
   0.0000000000000011    6.5483334107122193   -6.5483334107122184
   0.0000000000000000    0.0000000000000000   45.8383338749855440
Sc Zn Ru Sc Zn Ru Sc Zn Ru
8 4 4 8 4 4 8 4 4
Selective dynamics
direct
   0.2500000000000000    0.2500000000000001    0.3928571428571428 T T T Sc
   0.2500000000000001    0.7500000000000000    0.3214285714285714 T T T Sc
   0.7500000000000000    0.7500000000000000    0.3214285714285714 T T T Sc
   0.7500000000000000    0.2500000000000001    0.3928571428571428 T T T Sc
   0.7500000000000000    0.2500000000000001    0.3214285714285714 T T T Sc
   0.7500000000000000    0.7500000000000000    0.3928571428571428 T T T Sc
   0.2500000000000000    0.7500000000000000    0.3928571428571428 T T T Sc
   0.2500000000000000    0.2500000000000001    0.3214285714285714 T T T Sc
   0.0000000000000000    0.0000000000000000    0.3928571428571428 T T T Zn
   0.5000000000000000    0.5000000000000000    0.3214285714285714 T T T Zn
   0.5000000000000000    0.0000000000000000    0.3214285714285714 T T T Zn
   0.0000000000000000    0.5000000000000000    0.3928571428571428 T T T Zn
   0.0000000000000000    0.0000000000000000    0.3214285714285714 T T T Ru
   0.5000000000000000    0.5000000000000000    0.3928571428571428 T T T Ru
   0.5000000000000000    0.0000000000000000    0.3928571428571428 T T T Ru
   0.0000000000000000    0.5000000000000000    0.3214285714285714 T T T Ru
   0.2500000000000000    0.2500000000000001    0.5357142857142857 F F F Sc
   0.2500000000000001    0.7500000000000000    0.4642857142857142 F F F Sc
   0.7500000000000000    0.7500000000000000    0.4642857142857142 F F F Sc
   0.7500000000000000    0.2500000000000001    0.5357142857142857 F F F Sc
   0.7500000000000000    0.2500000000000001    0.4642857142857142 F F F Sc
   0.7500000000000000    0.7500000000000000    0.5357142857142857 F F F Sc
   0.2500000000000000    0.7500000000000000    0.5357142857142857 F F F Sc
   0.2500000000000000    0.2500000000000001    0.4642857142857142 F F F Sc
   0.0000000000000000    0.0000000000000000    0.5357142857142857 F F F Zn
   0.5000000000000000    0.5000000000000000    0.4642857142857142 F F F Zn
   0.5000000000000000    0.0000000000000000    0.4642857142857142 F F F Zn
   0.0000000000000000    0.5000000000000000    0.5357142857142857 F F F Zn
   0.0000000000000000    0.0000000000000000    0.4642857142857142 F F F Ru
   0.5000000000000000    0.5000000000000000    0.5357142857142857 F F F Ru
   0.5000000000000000    0.0000000000000000    0.5357142857142857 F F F Ru
   0.0000000000000000    0.5000000000000000    0.4642857142857142 F F F Ru
   0.2500000000000000    0.2500000000000001    0.6785714285714286 T T T Sc
   0.2500000000000001    0.7500000000000000    0.6071428571428571 T T T Sc
   0.7500000000000000    0.7500000000000000    0.6071428571428571 T T T Sc
   0.7500000000000000    0.2500000000000001    0.6785714285714286 T T T Sc
   0.7500000000000000    0.2500000000000001    0.6071428571428571 T T T Sc
   0.7500000000000000    0.7500000000000000    0.6785714285714286 T T T Sc
   0.2500000000000000    0.7500000000000000    0.6785714285714286 T T T Sc
   0.2500000000000000    0.2500000000000001    0.6071428571428571 T T T Sc
   0.0000000000000000    0.0000000000000000    0.6785714285714286 T T T Zn
   0.5000000000000000    0.5000000000000000    0.6071428571428571 T T T Zn
   0.5000000000000000    0.0000000000000000    0.6071428571428571 T T T Zn
   0.0000000000000000    0.5000000000000000    0.6785714285714286 T T T Zn
   0.0000000000000000    0.0000000000000000    0.6071428571428571 T T T Ru
   0.5000000000000000    0.5000000000000000    0.6785714285714286 T T T Ru
   0.5000000000000000    0.0000000000000000    0.6785714285714286 T T T Ru
   0.0000000000000000    0.5000000000000000    0.6071428571428571 T T T Ru
