Hf24 Cu32 Ge16
1.0
  16.9123135735273635    0.0000000000000000    0.0000000000000010
   4.8320895924363905    4.1847123404123083    4.0104915307555622
   0.0000000000000000    0.0000000000000000   40.1049153075556433
Hf Cu Ge Hf Cu Ge Hf Cu Ge Hf Cu Ge
6 8 4 6 8 4 6 8 4 6 8 4
Selective dynamics
direct
   0.7941898632891853    0.2058101367108147    0.3933078752178074 T T T Hf
   0.2941898632891853    0.7058101367108147    0.3433078752178074 T T T Hf
   0.7058101367108147    0.8825695898675561    0.3256319299021332 T T T Hf
   0.2058101367108147    0.3825695898675561    0.3756319299021332 T T T Hf
   0.5000000000000000    0.9116202734216293    0.3227268615467259 T T T Hf
   0.0000000000000000    0.4116202734216293    0.3727268615467260 T T T Hf
   0.5000000000000000    0.5000000000000000    0.3638888888888889 T T T Cu
   0.0000000000000000    0.0000000000000000    0.3138888888888889 T T T Cu
   0.5000000000000000    0.2602950203944767    0.3378593868494412 T T T Cu
   0.0000000000000000    0.7602950203944767    0.3878593868494412 T T T Cu
   0.8801475101972384    0.3595574694082850    0.3279331419480604 T T T Cu
   0.3801475101972384    0.8595574694082850    0.3779331419480604 T T T Cu
   0.6198524898027616    0.3801475101972383    0.3258741378691650 T T T Cu
   0.1198524898027617    0.8801475101972384    0.3758741378691650 T T T Cu
   0.6666666666666666    0.6666666666666667    0.2972222222222222 T T T Ge
   0.1666666666666667    0.1666666666666666    0.3472222222222222 T T T Ge
   0.8333333333333333    0.8333333333333333    0.3805555555555555 T T T Ge
   0.3333333333333333    0.3333333333333334    0.3305555555555555 T T T Ge
   0.7941898632891853    0.2058101367108147    0.4933078752178074 F F F Hf
   0.2941898632891853    0.7058101367108147    0.4433078752178074 F F F Hf
   0.7058101367108147    0.8825695898675561    0.4256319299021333 F F F Hf
   0.2058101367108147    0.3825695898675561    0.4756319299021333 F F F Hf
   0.5000000000000000    0.9116202734216293    0.4227268615467259 F F F Hf
   0.0000000000000000    0.4116202734216293    0.4727268615467259 F F F Hf
   0.5000000000000000    0.5000000000000000    0.4638888888888889 F F F Cu
   0.0000000000000000    0.0000000000000000    0.4138888888888889 F F F Cu
   0.5000000000000000    0.2602950203944767    0.4378593868494412 F F F Cu
   0.0000000000000000    0.7602950203944767    0.4878593868494412 F F F Cu
   0.8801475101972384    0.3595574694082850    0.4279331419480604 F F F Cu
   0.3801475101972384    0.8595574694082850    0.4779331419480604 F F F Cu
   0.6198524898027616    0.3801475101972383    0.4258741378691651 F F F Cu
   0.1198524898027617    0.8801475101972384    0.4758741378691650 F F F Cu
   0.6666666666666666    0.6666666666666667    0.3972222222222222 T T T Ge
   0.1666666666666667    0.1666666666666666    0.4472222222222222 F F F Ge
   0.8333333333333333    0.8333333333333333    0.4805555555555556 F F F Ge
   0.3333333333333333    0.3333333333333334    0.4305555555555555 F F F Ge
   0.7941898632891853    0.2058101367108147    0.5933078752178074 T T T Hf
   0.2941898632891853    0.7058101367108147    0.5433078752178074 F F F Hf
   0.7058101367108147    0.8825695898675561    0.5256319299021333 F F F Hf
   0.2058101367108147    0.3825695898675561    0.5756319299021333 F F F Hf
   0.5000000000000000    0.9116202734216293    0.5227268615467260 F F F Hf
   0.0000000000000000    0.4116202734216293    0.5727268615467259 F F F Hf
   0.5000000000000000    0.5000000000000000    0.5638888888888889 F F F Cu
   0.0000000000000000    0.0000000000000000    0.5138888888888888 F F F Cu
   0.5000000000000000    0.2602950203944767    0.5378593868494412 F F F Cu
   0.0000000000000000    0.7602950203944767    0.5878593868494413 F F F Cu
   0.8801475101972384    0.3595574694082850    0.5279331419480604 F F F Cu
   0.3801475101972384    0.8595574694082850    0.5779331419480604 F F F Cu
   0.6198524898027616    0.3801475101972383    0.5258741378691650 F F F Cu
   0.1198524898027617    0.8801475101972384    0.5758741378691651 F F F Cu
   0.6666666666666666    0.6666666666666667    0.4972222222222222 F F F Ge
   0.1666666666666667    0.1666666666666666    0.5472222222222223 F F F Ge
   0.8333333333333333    0.8333333333333333    0.5805555555555555 F F F Ge
   0.3333333333333333    0.3333333333333334    0.5305555555555556 F F F Ge
   0.7941898632891853    0.2058101367108147    0.6933078752178075 T T T Hf
   0.2941898632891853    0.7058101367108147    0.6433078752178074 T T T Hf
   0.7058101367108147    0.8825695898675561    0.6256319299021332 T T T Hf
   0.2058101367108147    0.3825695898675561    0.6756319299021333 T T T Hf
   0.5000000000000000    0.9116202734216293    0.6227268615467259 T T T Hf
   0.0000000000000000    0.4116202734216293    0.6727268615467259 T T T Hf
   0.5000000000000000    0.5000000000000000    0.6638888888888889 T T T Cu
   0.0000000000000000    0.0000000000000000    0.6138888888888889 T T T Cu
   0.5000000000000000    0.2602950203944767    0.6378593868494412 T T T Cu
   0.0000000000000000    0.7602950203944767    0.6878593868494411 T T T Cu
   0.8801475101972384    0.3595574694082850    0.6279331419480604 T T T Cu
   0.3801475101972384    0.8595574694082850    0.6779331419480603 T T T Cu
   0.6198524898027616    0.3801475101972383    0.6258741378691650 T T T Cu
   0.1198524898027617    0.8801475101972384    0.6758741378691651 T T T Cu
   0.6666666666666666    0.6666666666666667    0.5972222222222222 T T T Ge
   0.1666666666666667    0.1666666666666666    0.6472222222222221 T T T Ge
   0.8333333333333333    0.8333333333333333    0.6805555555555556 T T T Ge
   0.3333333333333333    0.3333333333333334    0.6305555555555555 T T T Ge
