Y24 Si48 Os48
1.0
   8.3423585152143023    0.0000000000000000   -4.1711792576071511
  -0.0000000000000012   19.4072752949681906   -4.1711792576071565
   0.0000000000000000    0.0000000000000000   33.3694340608572162
Y Si Os Y Si Os Y Si Os
8 16 16 8 16 16 8 16 16
Selective dynamics
direct
   0.5000000000000000    0.5000000000000000    0.4187500000000000 T T T Y
   0.0000000000000000    0.0000000000000000    0.4187500000000000 T T T Y
   0.0000000000000000    0.5000000000000000    0.3562500000000000 T T T Y
   0.5000000000000000    0.0000000000000001    0.3562500000000000 T T T Y
   0.7500000000000000    0.7500000000000001    0.4187500000000001 T T T Y
   0.2500000000000000    0.2500000000000001    0.4187500000000000 T T T Y
   0.2500000000000000    0.7500000000000001    0.3562500000000000 T T T Y
   0.7500000000000000    0.2500000000000002    0.3562500000000001 T T T Y
   0.5000000000000000    0.6862412420534383    0.3170301552566798 T T T Si
   0.0000000000000000    0.1862412420534383    0.3170301552566798 T T T Si
   0.0000000000000000    0.6862412420534383    0.3795301552566798 T T T Si
   0.5000000000000000    0.1862412420534384    0.3795301552566798 T T T Si
   0.7500000000000000    0.5637587579465618    0.3954698447433203 T T T Si
   0.2500000000000000    0.0637587579465618    0.3954698447433203 T T T Si
   0.2500000000000000    0.5637587579465618    0.3329698447433203 T T T Si
   0.7500000000000000    0.0637587579465619    0.3329698447433203 T T T Si
   0.7500000000000000    0.9362412420534383    0.3170301552566798 T T T Si
   0.2500000000000000    0.4362412420534384    0.3170301552566798 T T T Si
   0.2500000000000000    0.9362412420534383    0.3795301552566798 T T T Si
   0.7500000000000000    0.4362412420534384    0.3795301552566798 T T T Si
   0.5000000000000000    0.8137587579465617    0.3329698447433203 T T T Si
   0.0000000000000000    0.3137587579465617    0.3329698447433203 T T T Si
   0.0000000000000000    0.8137587579465617    0.3954698447433203 T T T Si
   0.5000000000000000    0.3137587579465618    0.3954698447433203 T T T Si
   0.5000000000000000    0.6250000000000000    0.3718750000000000 T T T Os
   0.0000000000000000    0.1250000000000000    0.3718750000000000 T T T Os
   0.0000000000000000    0.6250000000000000    0.4343750000000000 F F F Os
   0.5000000000000000    0.1250000000000001    0.4343750000000000 F F F Os
   0.7500000000000000    0.6250000000000001    0.3406250000000000 T T T Os
   0.2500000000000000    0.1250000000000001    0.3406250000000000 T T T Os
   0.2500000000000000    0.6250000000000000    0.4031250000000000 T T T Os
   0.7500000000000000    0.1250000000000001    0.4031250000000000 T T T Os
   0.7500000000000000    0.8750000000000002    0.3718750000000001 T T T Os
   0.2500000000000000    0.3750000000000001    0.3718750000000000 T T T Os
   0.2500000000000000    0.8750000000000002    0.4343750000000001 F F F Os
   0.7500000000000000    0.3750000000000002    0.4343750000000001 F F F Os
   0.5000000000000000    0.8750000000000002    0.4031250000000001 T T T Os
   0.0000000000000000    0.3750000000000001    0.4031250000000000 T T T Os
   0.0000000000000000    0.8750000000000002    0.3406250000000001 T T T Os
   0.5000000000000000    0.3750000000000002    0.3406250000000000 T T T Os
   0.5000000000000000    0.5000000000000000    0.5437500000000000 F F F Y
   0.0000000000000000    0.0000000000000000    0.5437500000000000 F F F Y
   0.0000000000000000    0.5000000000000000    0.4812500000000000 F F F Y
   0.5000000000000000    0.0000000000000001    0.4812500000000000 F F F Y
   0.7500000000000000    0.7500000000000001    0.5437500000000001 F F F Y
   0.2500000000000000    0.2500000000000001    0.5437500000000000 F F F Y
   0.2500000000000000    0.7500000000000001    0.4812500000000000 F F F Y
   0.7500000000000000    0.2500000000000002    0.4812500000000001 F F F Y
   0.5000000000000000    0.6862412420534383    0.4420301552566798 F F F Si
   0.0000000000000000    0.1862412420534383    0.4420301552566798 F F F Si
   0.0000000000000000    0.6862412420534383    0.5045301552566798 F F F Si
   0.5000000000000000    0.1862412420534384    0.5045301552566799 F F F Si
   0.7500000000000000    0.5637587579465618    0.5204698447433203 F F F Si
   0.2500000000000000    0.0637587579465618    0.5204698447433203 F F F Si
   0.2500000000000000    0.5637587579465618    0.4579698447433203 F F F Si
   0.7500000000000000    0.0637587579465619    0.4579698447433203 F F F Si
   0.7500000000000000    0.9362412420534383    0.4420301552566798 F F F Si
   0.2500000000000000    0.4362412420534384    0.4420301552566798 F F F Si
   0.2500000000000000    0.9362412420534383    0.5045301552566798 F F F Si
   0.7500000000000000    0.4362412420534384    0.5045301552566799 F F F Si
   0.5000000000000000    0.8137587579465617    0.4579698447433203 F F F Si
   0.0000000000000000    0.3137587579465617    0.4579698447433203 F F F Si
   0.0000000000000000    0.8137587579465617    0.5204698447433203 F F F Si
   0.5000000000000000    0.3137587579465618    0.5204698447433203 F F F Si
   0.5000000000000000    0.6250000000000000    0.4968750000000000 F F F Os
   0.0000000000000000    0.1250000000000000    0.4968750000000000 F F F Os
   0.0000000000000000    0.6250000000000000    0.5593750000000000 F F F Os
   0.5000000000000000    0.1250000000000001    0.5593750000000000 F F F Os
   0.7500000000000000    0.6250000000000001    0.4656250000000000 F F F Os
   0.2500000000000000    0.1250000000000001    0.4656250000000000 F F F Os
   0.2500000000000000    0.6250000000000000    0.5281250000000000 F F F Os
   0.7500000000000000    0.1250000000000001    0.5281250000000000 F F F Os
   0.7500000000000000    0.8750000000000002    0.4968750000000001 F F F Os
   0.2500000000000000    0.3750000000000001    0.4968750000000000 F F F Os
   0.2500000000000000    0.8750000000000002    0.5593750000000001 F F F Os
   0.7500000000000000    0.3750000000000002    0.5593750000000001 F F F Os
   0.5000000000000000    0.8750000000000002    0.5281250000000001 F F F Os
   0.0000000000000000    0.3750000000000001    0.5281250000000000 F F F Os
   0.0000000000000000    0.8750000000000002    0.4656250000000001 F F F Os
   0.5000000000000000    0.3750000000000002    0.4656250000000000 F F F Os
   0.5000000000000000    0.5000000000000000    0.6687500000000000 T T T Y
   0.0000000000000000    0.0000000000000000    0.6687500000000000 T T T Y
   0.0000000000000000    0.5000000000000000    0.6062500000000000 T T T Y
   0.5000000000000000    0.0000000000000001    0.6062500000000000 T T T Y
   0.7500000000000000    0.7500000000000001    0.6687500000000001 T T T Y
   0.2500000000000000    0.2500000000000001    0.6687500000000000 T T T Y
   0.2500000000000000    0.7500000000000001    0.6062500000000000 T T T Y
   0.7500000000000000    0.2500000000000002    0.6062500000000001 T T T Y
   0.5000000000000000    0.6862412420534383    0.5670301552566799 F F F Si
   0.0000000000000000    0.1862412420534383    0.5670301552566798 F F F Si
   0.0000000000000000    0.6862412420534383    0.6295301552566798 T T T Si
   0.5000000000000000    0.1862412420534384    0.6295301552566799 T T T Si
   0.7500000000000000    0.5637587579465618    0.6454698447433203 T T T Si
   0.2500000000000000    0.0637587579465618    0.6454698447433203 T T T Si
   0.2500000000000000    0.5637587579465618    0.5829698447433203 T T T Si
   0.7500000000000000    0.0637587579465619    0.5829698447433203 T T T Si
   0.7500000000000000    0.9362412420534383    0.5670301552566798 F F F Si
   0.2500000000000000    0.4362412420534384    0.5670301552566798 F F F Si
   0.2500000000000000    0.9362412420534383    0.6295301552566798 T T T Si
   0.7500000000000000    0.4362412420534384    0.6295301552566799 T T T Si
   0.5000000000000000    0.8137587579465617    0.5829698447433203 T T T Si
   0.0000000000000000    0.3137587579465617    0.5829698447433203 T T T Si
   0.0000000000000000    0.8137587579465617    0.6454698447433203 T T T Si
   0.5000000000000000    0.3137587579465618    0.6454698447433203 T T T Si
   0.5000000000000000    0.6250000000000000    0.6218750000000000 T T T Os
   0.0000000000000000    0.1250000000000000    0.6218750000000000 T T T Os
   0.0000000000000000    0.6250000000000000    0.6843750000000000 T T T Os
   0.5000000000000000    0.1250000000000001    0.6843750000000000 T T T Os
   0.7500000000000000    0.6250000000000001    0.5906250000000000 T T T Os
   0.2500000000000000    0.1250000000000001    0.5906250000000000 T T T Os
   0.2500000000000000    0.6250000000000000    0.6531250000000000 T T T Os
   0.7500000000000000    0.1250000000000001    0.6531250000000000 T T T Os
   0.7500000000000000    0.8750000000000002    0.6218750000000001 T T T Os
   0.2500000000000000    0.3750000000000001    0.6218750000000000 T T T Os
   0.2500000000000000    0.8750000000000002    0.6843750000000001 T T T Os
   0.7500000000000000    0.3750000000000002    0.6843750000000001 T T T Os
   0.5000000000000000    0.8750000000000002    0.6531250000000001 T T T Os
   0.0000000000000000    0.3750000000000001    0.6531250000000000 T T T Os
   0.0000000000000000    0.8750000000000002    0.5906250000000001 T T T Os
   0.5000000000000000    0.3750000000000002    0.5906250000000000 T T T Os
