Hf32 Ga48 Cu16
1.0
  11.1581074992673699    0.0000000000000000    6.4679018480951278
   5.0742297710014821    5.5561671583835244   12.9630894718774670
   0.0000000000000000    0.0000000000000000   58.4566886140410560
Hf Ga Cu Hf Ga Cu Hf Ga Cu Hf Ga Cu
8 12 4 8 12 4 8 12 4 8 12 4
Selective dynamics
direct
   0.7500000000000000    0.2049654503025663    0.3209648752026563 T T T Hf
   0.2500000000000000    0.7049654503025664    0.3765204307582119 T T T Hf
   0.7500000000000000    0.2984691445229470    0.3551939803597675 T T T Hf
   0.2500000000000000    0.7984691445229470    0.2996384248042120 T T T Hf
   0.5000000000000000    0.9549654503025662    0.3487426529804342 T T T Hf
   0.0000000000000000    0.4549654503025663    0.2931870974248786 T T T Hf
   0.5000000000000000    0.0484691445229470    0.3829717581375452 T T T Hf
   0.0000000000000000    0.5484691445229473    0.3274162025819897 T T T Hf
   0.5000000000000000    0.6474726292233509    0.3369805853798423 T T T Ga
   0.0000000000000000    0.1474726292233512    0.2814250298242867 T T T Ga
   0.7500000000000000    0.9231616713406294    0.3510229248615913 T T T Ga
   0.2500000000000000    0.4231616713406298    0.2954673693060357 T T T Ga
   0.7500000000000000    0.5914996232215655    0.3227434961716930 T T T Ga
   0.2500000000000000    0.0914996232215657    0.3782990517272485 T T T Ga
   0.7500000000000000    0.8974726292233511    0.3092028076020644 T T T Ga
   0.2500000000000000    0.3974726292233512    0.3647583631576200 T T T Ga
   0.5000000000000000    0.6731616713406295    0.3788007026393690 T T T Ga
   0.0000000000000000    0.1731616713406298    0.3232451470838135 T T T Ga
   0.5000000000000000    0.3414996232215655    0.3505212739494707 T T T Ga
   0.0000000000000000    0.8414996232215657    0.2949657183939152 T T T Ga
   0.5000000000000000    0.3344314813889359    0.2853163602466718 T T T Cu
   0.0000000000000000    0.8344314813889362    0.3408719158022274 T T T Cu
   0.7500000000000000    0.5844314813889360    0.3686496935800052 T T T Cu
   0.2500000000000000    0.0844314813889361    0.3130941380244496 T T T Cu
   0.7500000000000000    0.2049654503025663    0.4320759863137674 F F F Hf
   0.2500000000000000    0.7049654503025664    0.4876315418693230 F F F Hf
   0.7500000000000000    0.2984691445229470    0.4663050914708786 F F F Hf
   0.2500000000000000    0.7984691445229470    0.4107495359153230 F F F Hf
   0.5000000000000000    0.9549654503025662    0.4598537640915452 F F F Hf
   0.0000000000000000    0.4549654503025663    0.4042982085359897 F F F Hf
   0.5000000000000000    0.0484691445229470    0.4940828692486564 F F F Hf
   0.0000000000000000    0.5484691445229473    0.4385273136931008 F F F Hf
   0.5000000000000000    0.6474726292233509    0.4480916964909534 F F F Ga
   0.0000000000000000    0.1474726292233512    0.3925361409353978 F F F Ga
   0.7500000000000000    0.9231616713406294    0.4621340359727024 F F F Ga
   0.2500000000000000    0.4231616713406298    0.4065784804171468 F F F Ga
   0.7500000000000000    0.5914996232215655    0.4338546072828041 F F F Ga
   0.2500000000000000    0.0914996232215657    0.4894101628383597 F F F Ga
   0.7500000000000000    0.8974726292233511    0.4203139187131756 F F F Ga
   0.2500000000000000    0.3974726292233512    0.4758694742687311 F F F Ga
   0.5000000000000000    0.6731616713406295    0.4899118137504802 F F F Ga
   0.0000000000000000    0.1731616713406298    0.4343562581949246 F F F Ga
   0.5000000000000000    0.3414996232215655    0.4616323850605819 F F F Ga
   0.0000000000000000    0.8414996232215657    0.4060768295050263 F F F Ga
   0.5000000000000000    0.3344314813889359    0.3964274713577829 F F F Cu
   0.0000000000000000    0.8344314813889362    0.4519830269133385 F F F Cu
   0.7500000000000000    0.5844314813889360    0.4797608046911163 F F F Cu
   0.2500000000000000    0.0844314813889361    0.4242052491355607 F F F Cu
   0.7500000000000000    0.2049654503025663    0.5431870974248785 F F F Hf
   0.2500000000000000    0.7049654503025664    0.5987426529804341 F F F Hf
   0.7500000000000000    0.2984691445229470    0.5774162025819898 F F F Hf
   0.2500000000000000    0.7984691445229470    0.5218606470264342 F F F Hf
   0.5000000000000000    0.9549654503025662    0.5709648752026564 F F F Hf
   0.0000000000000000    0.4549654503025663    0.5154093196471008 F F F Hf
   0.5000000000000000    0.0484691445229470    0.6051939803597675 F F F Hf
   0.0000000000000000    0.5484691445229473    0.5496384248042119 F F F Hf
   0.5000000000000000    0.6474726292233509    0.5592028076020645 F F F Ga
   0.0000000000000000    0.1474726292233512    0.5036472520465088 F F F Ga
   0.7500000000000000    0.9231616713406294    0.5732451470838135 F F F Ga
   0.2500000000000000    0.4231616713406298    0.5176895915282579 F F F Ga
   0.7500000000000000    0.5914996232215655    0.5449657183939152 F F F Ga
   0.2500000000000000    0.0914996232215657    0.6005212739494707 F F F Ga
   0.7500000000000000    0.8974726292233511    0.5314250298242866 F F F Ga
   0.2500000000000000    0.3974726292233512    0.5869805853798422 F F F Ga
   0.5000000000000000    0.6731616713406295    0.6010229248615913 F F F Ga
   0.0000000000000000    0.1731616713406298    0.5454673693060357 F F F Ga
   0.5000000000000000    0.3414996232215655    0.5727434961716930 F F F Ga
   0.0000000000000000    0.8414996232215657    0.5171879406161375 F F F Ga
   0.5000000000000000    0.3344314813889359    0.5075385824688941 F F F Cu
   0.0000000000000000    0.8344314813889362    0.5630941380244496 F F F Cu
   0.7500000000000000    0.5844314813889360    0.5908719158022274 F F F Cu
   0.2500000000000000    0.0844314813889361    0.5353163602466718 F F F Cu
   0.7500000000000000    0.2049654503025663    0.6542982085359896 T T T Hf
   0.2500000000000000    0.7049654503025664    0.7098537640915452 T T T Hf
   0.7500000000000000    0.2984691445229470    0.6885273136931008 T T T Hf
   0.2500000000000000    0.7984691445229470    0.6329717581375454 T T T Hf
   0.5000000000000000    0.9549654503025662    0.6820759863137674 T T T Hf
   0.0000000000000000    0.4549654503025663    0.6265204307582120 T T T Hf
   0.5000000000000000    0.0484691445229470    0.7163050914708786 T T T Hf
   0.0000000000000000    0.5484691445229473    0.6607495359153230 T T T Hf
   0.5000000000000000    0.6474726292233509    0.6703139187131756 T T T Ga
   0.0000000000000000    0.1474726292233512    0.6147583631576200 T T T Ga
   0.7500000000000000    0.9231616713406294    0.6843562581949245 T T T Ga
   0.2500000000000000    0.4231616713406298    0.6288007026393690 T T T Ga
   0.7500000000000000    0.5914996232215655    0.6560768295050263 T T T Ga
   0.2500000000000000    0.0914996232215657    0.7116323850605819 T T T Ga
   0.7500000000000000    0.8974726292233511    0.6425361409353978 T T T Ga
   0.2500000000000000    0.3974726292233512    0.6980916964909534 T T T Ga
   0.5000000000000000    0.6731616713406295    0.7121340359727024 T T T Ga
   0.0000000000000000    0.1731616713406298    0.6565784804171468 T T T Ga
   0.5000000000000000    0.3414996232215655    0.6838546072828041 T T T Ga
   0.0000000000000000    0.8414996232215657    0.6282990517272485 T T T Ga
   0.5000000000000000    0.3344314813889359    0.6186496935800052 T T T Cu
   0.0000000000000000    0.8344314813889362    0.6742052491355607 T T T Cu
   0.7500000000000000    0.5844314813889360    0.7019830269133385 T T T Cu
   0.2500000000000000    0.0844314813889361    0.6464274713577829 T T T Cu
