Hf24 Ga36 Cu12
1.0
   8.5784580016990652    0.0000000000000000    6.4679018480951287
  13.2002281178280167    7.2269760398504248   19.4309913199725983
   0.0000000000000000    0.0000000000000000   51.9615009902587204
Hf Ga Cu Hf Ga Cu Hf Ga Cu
8 12 4 8 12 4 8 12 4
Selective dynamics
direct
   0.5000000000000000    0.2274827251512833    0.3322291585802321 T T T Hf
   0.5000000000000000    0.7274827251512832    0.3947291585802322 T T T Hf
   0.5000000000000000    0.7742345722614735    0.3140808827707560 T T T Hf
   0.5000000000000000    0.2742345722614736    0.3765808827707560 T T T Hf
   0.0000000000000000    0.2274827251512831    0.3322291585802322 T T T Hf
   0.0000000000000000    0.7274827251512832    0.3947291585802322 T T T Hf
   0.0000000000000000    0.2742345722614735    0.3765808827707560 T T T Hf
   0.0000000000000000    0.7742345722614736    0.3140808827707560 T T T Hf
   0.0000000000000000    0.0737363146116755    0.4247785312121153 F F F Ga
   0.0000000000000000    0.5737363146116756    0.3622785312121153 T T T Ga
   0.5000000000000000    0.0865808356703148    0.3484317282614129 T T T Ga
   0.5000000000000000    0.5865808356703148    0.4109317282614129 T T T Ga
   0.5000000000000000    0.9207498116107827    0.4208884929778358 F F F Ga
   0.5000000000000000    0.4207498116107828    0.3583884929778358 T T T Ga
   0.5000000000000000    0.0737363146116756    0.4247785312121153 F F F Ga
   0.5000000000000000    0.5737363146116756    0.3622785312121153 T T T Ga
   0.0000000000000000    0.0865808356703148    0.3484317282614129 T T T Ga
   0.0000000000000000    0.5865808356703148    0.4109317282614129 T T T Ga
   0.0000000000000000    0.4207498116107828    0.3583884929778358 T T T Ga
   0.0000000000000000    0.9207498116107828    0.4208884929778358 F F F Ga
   0.0000000000000000    0.4172157406944680    0.4095912061976477 T T T Cu
   0.0000000000000000    0.9172157406944681    0.3470912061976477 T T T Cu
   0.5000000000000000    0.9172157406944680    0.3470912061976477 T T T Cu
   0.5000000000000000    0.4172157406944681    0.4095912061976477 T T T Cu
   0.5000000000000000    0.2274827251512833    0.4572291585802321 F F F Hf
   0.5000000000000000    0.7274827251512832    0.5197291585802322 F F F Hf
   0.5000000000000000    0.7742345722614735    0.4390808827707560 F F F Hf
   0.5000000000000000    0.2742345722614736    0.5015808827707560 F F F Hf
   0.0000000000000000    0.2274827251512831    0.4572291585802322 F F F Hf
   0.0000000000000000    0.7274827251512832    0.5197291585802322 F F F Hf
   0.0000000000000000    0.2742345722614735    0.5015808827707560 F F F Hf
   0.0000000000000000    0.7742345722614736    0.4390808827707560 F F F Hf
   0.0000000000000000    0.0737363146116755    0.5497785312121153 F F F Ga
   0.0000000000000000    0.5737363146116756    0.4872785312121153 F F F Ga
   0.5000000000000000    0.0865808356703148    0.4734317282614129 F F F Ga
   0.5000000000000000    0.5865808356703148    0.5359317282614129 F F F Ga
   0.5000000000000000    0.9207498116107827    0.5458884929778358 F F F Ga
   0.5000000000000000    0.4207498116107828    0.4833884929778358 F F F Ga
   0.5000000000000000    0.0737363146116756    0.5497785312121153 F F F Ga
   0.5000000000000000    0.5737363146116756    0.4872785312121153 F F F Ga
   0.0000000000000000    0.0865808356703148    0.4734317282614129 F F F Ga
   0.0000000000000000    0.5865808356703148    0.5359317282614129 F F F Ga
   0.0000000000000000    0.4207498116107828    0.4833884929778358 F F F Ga
   0.0000000000000000    0.9207498116107828    0.5458884929778358 F F F Ga
   0.0000000000000000    0.4172157406944680    0.5345912061976477 F F F Cu
   0.0000000000000000    0.9172157406944681    0.4720912061976477 F F F Cu
   0.5000000000000000    0.9172157406944680    0.4720912061976477 F F F Cu
   0.5000000000000000    0.4172157406944681    0.5345912061976477 F F F Cu
   0.5000000000000000    0.2274827251512833    0.5822291585802322 T T T Hf
   0.5000000000000000    0.7274827251512832    0.6447291585802322 T T T Hf
   0.5000000000000000    0.7742345722614735    0.5640808827707560 F F F Hf
   0.5000000000000000    0.2742345722614736    0.6265808827707560 T T T Hf
   0.0000000000000000    0.2274827251512831    0.5822291585802322 T T T Hf
   0.0000000000000000    0.7274827251512832    0.6447291585802322 T T T Hf
   0.0000000000000000    0.2742345722614735    0.6265808827707560 T T T Hf
   0.0000000000000000    0.7742345722614736    0.5640808827707560 F F F Hf
   0.0000000000000000    0.0737363146116755    0.6747785312121153 T T T Ga
   0.0000000000000000    0.5737363146116756    0.6122785312121153 T T T Ga
   0.5000000000000000    0.0865808356703148    0.5984317282614129 T T T Ga
   0.5000000000000000    0.5865808356703148    0.6609317282614129 T T T Ga
   0.5000000000000000    0.9207498116107827    0.6708884929778358 T T T Ga
   0.5000000000000000    0.4207498116107828    0.6083884929778358 T T T Ga
   0.5000000000000000    0.0737363146116756    0.6747785312121153 T T T Ga
   0.5000000000000000    0.5737363146116756    0.6122785312121153 T T T Ga
   0.0000000000000000    0.0865808356703148    0.5984317282614129 T T T Ga
   0.0000000000000000    0.5865808356703148    0.6609317282614129 T T T Ga
   0.0000000000000000    0.4207498116107828    0.6083884929778358 T T T Ga
   0.0000000000000000    0.9207498116107828    0.6708884929778358 T T T Ga
   0.0000000000000000    0.4172157406944680    0.6595912061976477 T T T Cu
   0.0000000000000000    0.9172157406944681    0.5970912061976477 T T T Cu
   0.5000000000000000    0.9172157406944680    0.5970912061976477 T T T Cu
   0.5000000000000000    0.4172157406944681    0.6595912061976477 T T T Cu
