Mg8 Ag4 Pd4
1.0
   3.2070279464434495    0.0000000000000000    0.0000000000000002
   0.0000000000000011    6.7467616411857980   -3.2070279464434486
   0.0000000000000000    0.0000000000000000   32.0702794644344920
Mg Ag Pd Mg Ag Pd Mg Ag Pd Mg Ag Pd
2 1 1 2 1 1 2 1 1 2 1 1
Selective dynamics
direct
   0.5000000000000000    0.2675532785374697    0.3392553278537470 T T T Mg
   0.5000000000000000    0.7324467214625302    0.3857446721462530 T T T Mg
   0.0000000000000000    0.0000000000000000    0.3625000000000000 T T T Ag
   0.0000000000000000    0.4999999999999999    0.3125000000000000 T T T Pd
   0.5000000000000000    0.2675532785374697    0.4392553278537470 F F F Mg
   0.5000000000000000    0.7324467214625302    0.4857446721462530 F F F Mg
   0.0000000000000000    0.0000000000000000    0.4625000000000000 F F F Ag
   0.0000000000000000    0.4999999999999999    0.4125000000000000 T T T Pd
   0.5000000000000000    0.2675532785374697    0.5392553278537470 F F F Mg
   0.5000000000000000    0.7324467214625302    0.5857446721462529 T T T Mg
   0.0000000000000000    0.0000000000000000    0.5625000000000000 F F F Ag
   0.0000000000000000    0.4999999999999999    0.5125000000000000 F F F Pd
   0.5000000000000000    0.2675532785374697    0.6392553278537469 T T T Mg
   0.5000000000000000    0.7324467214625302    0.6857446721462530 T T T Mg
   0.0000000000000000    0.0000000000000000    0.6625000000000000 T T T Ag
   0.0000000000000000    0.4999999999999999    0.6125000000000000 T T T Pd
