Sr8 Cd8 Sn8
1.0
   5.8915065279339904    0.0000000000000000   -7.5620707056071534
   0.5482507633369573    6.0789031991829816   -7.5545233150848272
   0.0000000000000000    0.0000000000000000   50.4154176051355165
Sr Cd Sn Sr Cd Sn Sr Cd Sn Sr Cd Sn
2 2 2 2 2 2 2 2 2 2 2 2
Selective dynamics
direct
   0.2914121027730302    0.7988155446946906    0.3635040726972684 T T T Sr
   0.7085878972269696    0.2011844553053095    0.3364959273027318 T T T Sr
   0.7233278047486991    0.5898993101320260    0.3469938595289947 T T T Cd
   0.2766721952513009    0.4101006898679740    0.3530061404710054 T T T Cd
   0.8821794446291021    0.7893390269926998    0.3506284237529791 T T T Sn
   0.1178205553708979    0.2106609730073002    0.3493715762470210 T T T Sn
   0.2914121027730302    0.7988155446946906    0.4635040726972683 F F F Sr
   0.7085878972269696    0.2011844553053095    0.4364959273027317 T T T Sr
   0.7233278047486991    0.5898993101320260    0.4469938595289947 T T T Cd
   0.2766721952513009    0.4101006898679740    0.4530061404710055 T T T Cd
   0.8821794446291021    0.7893390269926998    0.4506284237529791 T T T Sn
   0.1178205553708979    0.2106609730073002    0.4493715762470210 T T T Sn
   0.2914121027730302    0.7988155446946906    0.5635040726972683 T T T Sr
   0.7085878972269696    0.2011844553053095    0.5364959273027318 F F F Sr
   0.7233278047486991    0.5898993101320260    0.5469938595289947 T T T Cd
   0.2766721952513009    0.4101006898679740    0.5530061404710054 T T T Cd
   0.8821794446291021    0.7893390269926998    0.5506284237529792 T T T Sn
   0.1178205553708979    0.2106609730073002    0.5493715762470210 T T T Sn
   0.2914121027730302    0.7988155446946906    0.6635040726972683 T T T Sr
   0.7085878972269696    0.2011844553053095    0.6364959273027317 T T T Sr
   0.7233278047486991    0.5898993101320260    0.6469938595289947 T T T Cd
   0.2766721952513009    0.4101006898679740    0.6530061404710055 T T T Cd
   0.8821794446291021    0.7893390269926998    0.6506284237529791 T T T Sn
   0.1178205553708979    0.2106609730073002    0.6493715762470209 T T T Sn
