Sr8 Cd8 Sn8
1.0
   4.6351611985436731    0.0000000000000000    1.9830340356426708
   4.1895416808229404   12.1578063983659561   -3.4230123892764648
   0.0000000000000000    0.0000000000000000   32.0401760808767619
Sr Cd Sn Sr Cd Sn
4 4 4 4 4 4
Selective dynamics
direct
   0.4551869204950381    0.3994077723473453    0.4214973083574085 T T T Sr
   0.4551869204950379    0.8994077723473453    0.3214973083574085 T T T Sr
   0.5448130795049622    0.1005922276526547    0.4451693583092582 F F F Sr
   0.5448130795049622    0.6005922276526547    0.3451693583092582 T T T Sr
   0.8432885195907787    0.2949496550660130    0.4869888252962757 F F F Cd
   0.8432885195907787    0.7949496550660130    0.3869888252962758 T T T Cd
   0.1567114804092213    0.2050503449339870    0.3796778413703910 T T T Cd
   0.1567114804092211    0.7050503449339870    0.4796778413703909 F F F Cd
   0.1652342340920113    0.3946695134963499    0.3387031249584238 T T T Sn
   0.1652342340920113    0.8946695134963498    0.4387031249584238 F F F Sn
   0.8347657659079885    0.1053304865036501    0.3279635417082429 T T T Sn
   0.8347657659079885    0.6053304865036502    0.4279635417082430 T T T Sn
   0.4551869204950381    0.3994077723473453    0.6214973083574085 T T T Sr
   0.4551869204950379    0.8994077723473453    0.5214973083574085 F F F Sr
   0.5448130795049622    0.1005922276526547    0.6451693583092583 T T T Sr
   0.5448130795049622    0.6005922276526547    0.5451693583092583 F F F Sr
   0.8432885195907787    0.2949496550660130    0.6869888252962757 T T T Cd
   0.8432885195907787    0.7949496550660130    0.5869888252962758 T T T Cd
   0.1567114804092213    0.2050503449339870    0.5796778413703909 T T T Cd
   0.1567114804092211    0.7050503449339870    0.6796778413703910 T T T Cd
   0.1652342340920113    0.3946695134963499    0.5387031249584238 F F F Sn
   0.1652342340920113    0.8946695134963498    0.6387031249584237 T T T Sn
   0.8347657659079885    0.1053304865036501    0.5279635417082429 F F F Sn
   0.8347657659079885    0.6053304865036502    0.6279635417082430 T T T Sn
