Sc9 Ge9 Ru9
1.0
   3.4828977455561807    0.0000000000000000    0.0000000000000002
   0.0000000000000010    6.0569685215155564  -10.4909772191103006
   0.0000000000000000    0.0000000000000000   55.9518785019215912
Sc Ge Ru Sc Ge Ru Sc Ge Ru
3 3 3 3 3 3 3 3 3
Selective dynamics
direct
   0.0000000000000000    0.5994272023059679    0.4276345783542698 T T T Sc
   0.0000000000000000    0.0000000000000000    0.3278493774895318 T T T Sc
   0.0000000000000000    0.4005727976940319    0.3278493774895318 T T T Sc
   0.5000000000000000    0.6666666666666667    0.4027777777777778 T T T Ge
   0.0000000000000000    0.0000000000000000    0.4027777777777778 T T T Ge
   0.5000000000000000    0.3333333333333334    0.4027777777777778 T T T Ge
   0.5000000000000000    0.7472741524826390    0.3711870468381077 T T T Ru
   0.5000000000000000    0.2527258475173610    0.3409592396571181 T T T Ru
   0.5000000000000000    0.0000000000000000    0.3711870468381077 T T T Ru
   0.0000000000000000    0.5994272023059679    0.5526345783542698 F F F Sc
   0.0000000000000000    0.0000000000000000    0.4528493774895318 F F F Sc
   0.0000000000000000    0.4005727976940319    0.4528493774895318 F F F Sc
   0.5000000000000000    0.6666666666666667    0.5277777777777778 F F F Ge
   0.0000000000000000    0.0000000000000000    0.5277777777777778 F F F Ge
   0.5000000000000000    0.3333333333333334    0.5277777777777778 F F F Ge
   0.5000000000000000    0.7472741524826390    0.4961870468381077 F F F Ru
   0.5000000000000000    0.2527258475173610    0.4659592396571181 F F F Ru
   0.5000000000000000    0.0000000000000000    0.4961870468381077 F F F Ru
   0.0000000000000000    0.5994272023059679    0.6776345783542698 T T T Sc
   0.0000000000000000    0.0000000000000000    0.5778493774895318 T T T Sc
   0.0000000000000000    0.4005727976940319    0.5778493774895318 T T T Sc
   0.5000000000000000    0.6666666666666667    0.6527777777777778 T T T Ge
   0.0000000000000000    0.0000000000000000    0.6527777777777778 T T T Ge
   0.5000000000000000    0.3333333333333334    0.6527777777777778 T T T Ge
   0.5000000000000000    0.7472741524826390    0.6211870468381077 T T T Ru
   0.5000000000000000    0.2527258475173610    0.5909592396571181 T T T Ru
   0.5000000000000000    0.0000000000000000    0.6211870468381077 T T T Ru
