Sr16 Tl32 Pd16
1.0
  11.3577643032160562    0.0000000000000000   -9.0392847372524532
   0.0000000000000013    8.3643106889326138   -4.5196423686262284
   0.0000000000000000    0.0000000000000000   40.6767813176360562
Sr Tl Pd Sr Tl Pd Sr Tl Pd Sr Tl Pd
4 8 4 4 8 4 4 8 4 4 8 4
Selective dynamics
direct
   0.4356411277505359    0.2500000000000000    0.2912535839445635 T T T Sr
   0.0643588722494641    0.7499999999999999    0.3198575271665476 T T T Sr
   0.9356411277505359    0.2500000000000000    0.3468091395001191 T T T Sr
   0.5643588722494641    0.7499999999999999    0.3754130827221032 T T T Sr
   0.1468516593152103    0.4485009074559443    0.3602449140095961 T T T Tl
   0.3531483406847897    0.5514990925440557    0.3619773082126261 T T T Tl
   0.1468516593152103    0.0514990925440557    0.3161336012416085 T T T Tl
   0.3531483406847897    0.9485009074559442    0.2949775098695027 T T T Tl
   0.6468516593152103    0.4485009074559443    0.3046893584540406 T T T Tl
   0.8531483406847897    0.5514990925440557    0.3064217526570706 T T T Tl
   0.6468516593152103    0.0514990925440557    0.3716891567971641 T T T Tl
   0.8531483406847897    0.9485009074559442    0.3505330654250582 T T T Tl
   0.2811310916891401    0.7499999999999999    0.3124735759309200 T T T Pd
   0.2188689083108599    0.2500000000000000    0.2986375351801911 T T T Pd
   0.7811310916891401    0.7500000000000000    0.3680291314864756 T T T Pd
   0.7188689083108599    0.2500000000000000    0.3541930907357467 T T T Pd
   0.4356411277505359    0.2500000000000000    0.4023646950556746 F F F Sr
   0.0643588722494641    0.7499999999999999    0.4309686382776587 F F F Sr
   0.9356411277505359    0.2500000000000000    0.4579202506112302 F F F Sr
   0.5643588722494641    0.7499999999999999    0.4865241938332143 F F F Sr
   0.1468516593152103    0.4485009074559443    0.4713560251207072 F F F Tl
   0.3531483406847897    0.5514990925440557    0.4730884193237372 F F F Tl
   0.1468516593152103    0.0514990925440557    0.4272447123527196 F F F Tl
   0.3531483406847897    0.9485009074559442    0.4060886209806138 F F F Tl
   0.6468516593152103    0.4485009074559443    0.4158004695651517 F F F Tl
   0.8531483406847897    0.5514990925440557    0.4175328637681817 F F F Tl
   0.6468516593152103    0.0514990925440557    0.4828002679082752 F F F Tl
   0.8531483406847897    0.9485009074559442    0.4616441765361693 F F F Tl
   0.2811310916891401    0.7499999999999999    0.4235846870420311 F F F Pd
   0.2188689083108599    0.2500000000000000    0.4097486462913022 F F F Pd
   0.7811310916891401    0.7500000000000000    0.4791402425975867 F F F Pd
   0.7188689083108599    0.2500000000000000    0.4653042018468578 F F F Pd
   0.4356411277505359    0.2500000000000000    0.5134758061667858 F F F Sr
   0.0643588722494641    0.7499999999999999    0.5420797493887698 F F F Sr
   0.9356411277505359    0.2500000000000000    0.5690313617223413 F F F Sr
   0.5643588722494641    0.7499999999999999    0.5976353049443254 F F F Sr
   0.1468516593152103    0.4485009074559443    0.5824671362318183 F F F Tl
   0.3531483406847897    0.5514990925440557    0.5841995304348484 F F F Tl
   0.1468516593152103    0.0514990925440557    0.5383558234638307 F F F Tl
   0.3531483406847897    0.9485009074559442    0.5171997320917249 F F F Tl
   0.6468516593152103    0.4485009074559443    0.5269115806762628 F F F Tl
   0.8531483406847897    0.5514990925440557    0.5286439748792928 F F F Tl
   0.6468516593152103    0.0514990925440557    0.5939113790193863 F F F Tl
   0.8531483406847897    0.9485009074559442    0.5727552876472803 F F F Tl
   0.2811310916891401    0.7499999999999999    0.5346957981531422 F F F Pd
   0.2188689083108599    0.2500000000000000    0.5208597574024133 F F F Pd
   0.7811310916891401    0.7500000000000000    0.5902513537086977 F F F Pd
   0.7188689083108599    0.2500000000000000    0.5764153129579689 F F F Pd
   0.4356411277505359    0.2500000000000000    0.6245869172778968 T T T Sr
   0.0643588722494641    0.7499999999999999    0.6531908604998808 T T T Sr
   0.9356411277505359    0.2500000000000000    0.6801424728334524 T T T Sr
   0.5643588722494641    0.7499999999999999    0.7087464160554364 T T T Sr
   0.1468516593152103    0.4485009074559443    0.6935782473429294 T T T Tl
   0.3531483406847897    0.5514990925440557    0.6953106415459595 T T T Tl
   0.1468516593152103    0.0514990925440557    0.6494669345749418 T T T Tl
   0.3531483406847897    0.9485009074559442    0.6283108432028359 T T T Tl
   0.6468516593152103    0.4485009074559443    0.6380226917873739 T T T Tl
   0.8531483406847897    0.5514990925440557    0.6397550859904040 T T T Tl
   0.6468516593152103    0.0514990925440557    0.7050224901304973 T T T Tl
   0.8531483406847897    0.9485009074559442    0.6838663987583915 T T T Tl
   0.2811310916891401    0.7499999999999999    0.6458069092642533 T T T Pd
   0.2188689083108599    0.2500000000000000    0.6319708685135244 T T T Pd
   0.7811310916891401    0.7500000000000000    0.7013624648198089 T T T Pd
   0.7188689083108599    0.2500000000000000    0.6875264240690799 T T T Pd
