Zr18 Fe3 Te6
1.0
   3.5949992409714384    0.0000000000000000    0.0000000000000002
   0.0000000000000011    6.7839714588441113  -11.7501832438151723
   0.0000000000000000    0.0000000000000000   54.8341884711374519
Zr Fe Te Zr Fe Te Zr Fe Te
6 1 2 6 1 2 6 1 2
Selective dynamics
direct
   0.5000000000000000    0.2395144171165171    0.3779565001285287 T T T Zr
   0.0000000000000000    0.4033055563824703    0.3671388890070196 T T T Zr
   0.5000000000000000    0.0000000000000000    0.4181646070785928 T T T Zr
   0.5000000000000000    0.7604855828834829    0.4181646070785928 T T T Zr
   0.0000000000000000    0.0000000000000000    0.3671388890070196 T T T Zr
   0.0000000000000000    0.5966944436175297    0.3371507934145323 T T T Zr
   0.0000000000000000    0.0000000000000000    0.3095238095238095 T T T Fe
   0.5000000000000000    0.6666666666666667    0.3095238095238095 T T T Te
   0.5000000000000000    0.3333333333333335    0.3095238095238095 T T T Te
   0.5000000000000000    0.2395144171165171    0.5208136429856716 F F F Zr
   0.0000000000000000    0.4033055563824703    0.5099960318641624 F F F Zr
   0.5000000000000000    0.0000000000000000    0.5610217499357356 F F F Zr
   0.5000000000000000    0.7604855828834829    0.5610217499357356 F F F Zr
   0.0000000000000000    0.0000000000000000    0.5099960318641624 F F F Zr
   0.0000000000000000    0.5966944436175297    0.4800079362716752 F F F Zr
   0.0000000000000000    0.0000000000000000    0.4523809523809523 F F F Fe
   0.5000000000000000    0.6666666666666667    0.4523809523809524 F F F Te
   0.5000000000000000    0.3333333333333335    0.4523809523809524 F F F Te
   0.5000000000000000    0.2395144171165171    0.6636707858428144 T T T Zr
   0.0000000000000000    0.4033055563824703    0.6528531747213053 T T T Zr
   0.5000000000000000    0.0000000000000000    0.7038788927928785 T T T Zr
   0.5000000000000000    0.7604855828834829    0.7038788927928785 T T T Zr
   0.0000000000000000    0.0000000000000000    0.6528531747213053 T T T Zr
   0.0000000000000000    0.5966944436175297    0.6228650791288179 T T T Zr
   0.0000000000000000    0.0000000000000000    0.5952380952380952 T T T Fe
   0.5000000000000000    0.6666666666666667    0.5952380952380952 T T T Te
   0.5000000000000000    0.3333333333333335    0.5952380952380952 T T T Te
