Mg16 Al32 Cu16
1.0
   9.2983400209333880    0.0000000000000000   -8.0427834167882626
  -0.0000000000000004    7.1168755428335189   -4.0213917083941286
   0.0000000000000000    0.0000000000000000   40.2139170839413040
Mg Al Cu Mg Al Cu Mg Al Cu Mg Al Cu
4 8 4 4 8 4 4 8 4 4 8 4
Selective dynamics
direct
   0.0644210753147973    0.7500000000000000    0.3878842150629594 T T T Mg
   0.4355789246852027    0.2500000000000001    0.3621157849370405 T T T Mg
   0.5644210753147973    0.7500000000000000    0.3378842150629595 T T T Mg
   0.9355789246852027    0.2500000000000000    0.3121157849370405 T T T Mg
   0.3553683605837535    0.9447887078613348    0.3655525429028842 T T T Al
   0.3553683605837535    0.5552112921386652    0.3265948013306172 T T T Al
   0.1446316394162466    0.0552112921386652    0.3844474570971158 T T T Al
   0.1446316394162466    0.4447887078613348    0.3234051986693828 T T T Al
   0.8553683605837534    0.9447887078613350    0.3155525429028841 T T T Al
   0.8553683605837534    0.5552112921386652    0.3765948013306172 T T T Al
   0.6446316394162467    0.0552112921386652    0.3344474570971158 T T T Al
   0.6446316394162467    0.4447887078613349    0.3734051986693828 T T T Al
   0.2798403258998335    0.7500000000000001    0.3809680651799667 T T T Cu
   0.2201596741001666    0.2500000000000000    0.3690319348200333 T T T Cu
   0.7798403258998335    0.7500000000000000    0.3309680651799667 T T T Cu
   0.7201596741001666    0.2500000000000000    0.3190319348200333 T T T Cu
   0.0644210753147973    0.7500000000000000    0.4878842150629594 F F F Mg
   0.4355789246852027    0.2500000000000001    0.4621157849370405 F F F Mg
   0.5644210753147973    0.7500000000000000    0.4378842150629595 F F F Mg
   0.9355789246852027    0.2500000000000000    0.4121157849370405 T T T Mg
   0.3553683605837535    0.9447887078613348    0.4655525429028842 F F F Al
   0.3553683605837535    0.5552112921386652    0.4265948013306172 F F F Al
   0.1446316394162466    0.0552112921386652    0.4844474570971158 F F F Al
   0.1446316394162466    0.4447887078613348    0.4234051986693828 F F F Al
   0.8553683605837534    0.9447887078613350    0.4155525429028842 T T T Al
   0.8553683605837534    0.5552112921386652    0.4765948013306172 F F F Al
   0.6446316394162467    0.0552112921386652    0.4344474570971159 F F F Al
   0.6446316394162467    0.4447887078613349    0.4734051986693828 F F F Al
   0.2798403258998335    0.7500000000000001    0.4809680651799667 F F F Cu
   0.2201596741001666    0.2500000000000000    0.4690319348200333 F F F Cu
   0.7798403258998335    0.7500000000000000    0.4309680651799667 F F F Cu
   0.7201596741001666    0.2500000000000000    0.4190319348200333 T T T Cu
   0.0644210753147973    0.7500000000000000    0.5878842150629595 T T T Mg
   0.4355789246852027    0.2500000000000001    0.5621157849370405 F F F Mg
   0.5644210753147973    0.7500000000000000    0.5378842150629595 F F F Mg
   0.9355789246852027    0.2500000000000000    0.5121157849370406 F F F Mg
   0.3553683605837535    0.9447887078613348    0.5655525429028843 F F F Al
   0.3553683605837535    0.5552112921386652    0.5265948013306172 F F F Al
   0.1446316394162466    0.0552112921386652    0.5844474570971159 T T T Al
   0.1446316394162466    0.4447887078613348    0.5234051986693828 F F F Al
   0.8553683605837534    0.9447887078613350    0.5155525429028842 F F F Al
   0.8553683605837534    0.5552112921386652    0.5765948013306172 F F F Al
   0.6446316394162467    0.0552112921386652    0.5344474570971158 F F F Al
   0.6446316394162467    0.4447887078613349    0.5734051986693829 F F F Al
   0.2798403258998335    0.7500000000000001    0.5809680651799667 T T T Cu
   0.2201596741001666    0.2500000000000000    0.5690319348200332 F F F Cu
   0.7798403258998335    0.7500000000000000    0.5309680651799666 F F F Cu
   0.7201596741001666    0.2500000000000000    0.5190319348200333 F F F Cu
   0.0644210753147973    0.7500000000000000    0.6878842150629594 T T T Mg
   0.4355789246852027    0.2500000000000001    0.6621157849370405 T T T Mg
   0.5644210753147973    0.7500000000000000    0.6378842150629594 T T T Mg
   0.9355789246852027    0.2500000000000000    0.6121157849370404 T T T Mg
   0.3553683605837535    0.9447887078613348    0.6655525429028841 T T T Al
   0.3553683605837535    0.5552112921386652    0.6265948013306172 T T T Al
   0.1446316394162466    0.0552112921386652    0.6844474570971157 T T T Al
   0.1446316394162466    0.4447887078613348    0.6234051986693827 T T T Al
   0.8553683605837534    0.9447887078613350    0.6155525429028841 T T T Al
   0.8553683605837534    0.5552112921386652    0.6765948013306171 T T T Al
   0.6446316394162467    0.0552112921386652    0.6344474570971158 T T T Al
   0.6446316394162467    0.4447887078613349    0.6734051986693828 T T T Al
   0.2798403258998335    0.7500000000000001    0.6809680651799667 T T T Cu
   0.2201596741001666    0.2500000000000000    0.6690319348200333 T T T Cu
   0.7798403258998335    0.7500000000000000    0.6309680651799667 T T T Cu
   0.7201596741001666    0.2500000000000000    0.6190319348200333 T T T Cu
