Sc12 Mn12 Ge12
1.0
   6.6040124683437380    0.0000000000000000    0.0000000000000004
   3.3020062341718681    5.7192425644948539    3.9251687987020687
   0.0000000000000000    0.0000000000000000   35.3265191883186205
Sc Mn Ge Sc Mn Ge Sc Mn Ge Sc Mn Ge
3 3 3 3 3 3 3 3 3 3 3 3
Selective dynamics
direct
   0.0000000000000000    0.5831792628973176    0.3364368720237548 T T T Sc
   0.4168207371026824    0.0000000000000000    0.2901234567901235 T T T Sc
   0.5831792628973176    0.4168207371026824    0.3549211526676032 T T T Sc
   0.0000000000000000    0.2290013271016491    0.3202344204454958 T T T Mn
   0.7709986728983508    0.0000000000000001    0.3456790123456790 T T T Mn
   0.2290013271016491    0.7709986728983509    0.3711236042458623 T T T Mn
   0.6666666666666665    0.6666666666666667    0.3827160493827161 T T T Ge
   0.3333333333333333    0.3333333333333334    0.3086419753086420 T T T Ge
   0.0000000000000000    0.0000000000000000    0.2901234567901235 T T T Ge
   0.0000000000000000    0.5831792628973176    0.4475479831348660 F F F Sc
   0.4168207371026824    0.0000000000000000    0.4012345679012346 F F F Sc
   0.5831792628973176    0.4168207371026824    0.4660322637787143 F F F Sc
   0.0000000000000000    0.2290013271016491    0.4313455315566069 F F F Mn
   0.7709986728983508    0.0000000000000001    0.4567901234567902 F F F Mn
   0.2290013271016491    0.7709986728983509    0.4822347153569734 F F F Mn
   0.6666666666666665    0.6666666666666667    0.4938271604938272 F F F Ge
   0.3333333333333333    0.3333333333333334    0.4197530864197531 F F F Ge
   0.0000000000000000    0.0000000000000000    0.4012345679012346 F F F Ge
   0.0000000000000000    0.5831792628973176    0.5586590942459770 F F F Sc
   0.4168207371026824    0.0000000000000000    0.5123456790123457 F F F Sc
   0.5831792628973176    0.4168207371026824    0.5771433748898254 F F F Sc
   0.0000000000000000    0.2290013271016491    0.5424566426677180 F F F Mn
   0.7709986728983508    0.0000000000000001    0.5679012345679013 F F F Mn
   0.2290013271016491    0.7709986728983509    0.5933458264680844 F F F Mn
   0.6666666666666665    0.6666666666666667    0.6049382716049383 F F F Ge
   0.3333333333333333    0.3333333333333334    0.5308641975308642 F F F Ge
   0.0000000000000000    0.0000000000000000    0.5123456790123457 F F F Ge
   0.0000000000000000    0.5831792628973176    0.6697702053570882 T T T Sc
   0.4168207371026824    0.0000000000000000    0.6234567901234568 T T T Sc
   0.5831792628973176    0.4168207371026824    0.6882544860009365 T T T Sc
   0.0000000000000000    0.2290013271016491    0.6535677537788291 T T T Mn
   0.7709986728983508    0.0000000000000001    0.6790123456790124 T T T Mn
   0.2290013271016491    0.7709986728983509    0.7044569375791956 T T T Mn
   0.6666666666666665    0.6666666666666667    0.7160493827160495 T T T Ge
   0.3333333333333333    0.3333333333333334    0.6419753086419753 T T T Ge
   0.0000000000000000    0.0000000000000000    0.6234567901234568 T T T Ge
