Mg36 Si18 Ni54
1.0
   4.3320232652073543    0.0000000000000000   -2.5010947983031859
  -0.0000000000000063   22.1359757131694401    5.0021895966063727
   0.0000000000000000    0.0000000000000000   35.0153271762446181
Mg Si Ni Mg Si Ni Mg Si Ni
12 6 18 12 6 18 12 6 18
Selective dynamics
direct
   0.6666666666666666    0.3960070037985837    0.3898561423144881 T T T Mg
   0.6666666666666666    0.8960070037985838    0.3184275708859167 T T T Mg
   0.6666666666666667    0.2706596628680830    0.4077629053045596 F F F Mg
   0.6666666666666667    0.7706596628680831    0.3363343338759882 T T T Mg
   0.0000000000000000    0.0626736704652503    0.3898561423144881 T T T Mg
   0.0000000000000000    0.5626736704652503    0.3184275708859167 T T T Mg
   0.0000000000000000    0.4373263295347495    0.3363343338759882 T T T Mg
   0.0000000000000000    0.9373263295347496    0.4077629053045596 F F F Mg
   0.3333333333333333    0.2293403371319169    0.3184275708859167 T T T Mg
   0.3333333333333333    0.7293403371319169    0.3898561423144881 T T T Mg
   0.3333333333333335    0.1039929962014164    0.3363343338759882 T T T Mg
   0.3333333333333335    0.6039929962014163    0.4077629053045596 F F F Mg
   0.6666666666666666    0.0833333333333334    0.2916666666666667 T T T Si
   0.6666666666666666    0.5833333333333335    0.3630952380952381 T T T Si
   0.9999999999999999    0.2500000000000001    0.3630952380952381 T T T Si
   0.9999999999999998    0.7500000000000000    0.2916666666666667 T T T Si
   0.3333333333333330    0.4166666666666666    0.2916666666666667 T T T Si
   0.3333333333333329    0.9166666666666667    0.3630952380952381 T T T Si
   0.0000000000000000    0.0000000000000000    0.3273809523809524 T T T Ni
   0.0000000000000000    0.5000000000000001    0.3988095238095238 F F F Ni
   0.5000000000000000    0.0000000000000000    0.3273809523809524 T T T Ni
   0.5000000000000000    0.5000000000000001    0.3988095238095238 F F F Ni
   0.8333333333333333    0.1666666666666667    0.3273809523809524 T T T Ni
   0.8333333333333330    0.6666666666666667    0.3988095238095238 F F F Ni
   0.3333333333333333    0.1666666666666667    0.3988095238095238 F F F Ni
   0.3333333333333333    0.6666666666666667    0.3273809523809524 T T T Ni
   0.8333333333333333    0.1666666666666667    0.3988095238095238 F F F Ni
   0.8333333333333334    0.6666666666666667    0.3273809523809524 T T T Ni
   0.1666666666666665    0.3333333333333333    0.3988095238095238 F F F Ni
   0.1666666666666666    0.8333333333333333    0.3273809523809524 T T T Ni
   0.6666666666666665    0.3333333333333334    0.3273809523809524 T T T Ni
   0.6666666666666664    0.8333333333333334    0.3988095238095238 F F F Ni
   0.1666666666666665    0.3333333333333334    0.3273809523809524 T T T Ni
   0.1666666666666665    0.8333333333333334    0.3988095238095238 F F F Ni
   0.5000000000000000    0.0000000000000000    0.3988095238095239 F F F Ni
   0.5000000000000000    0.5000000000000000    0.3273809523809524 T T T Ni
   0.6666666666666666    0.3960070037985837    0.5327132851716310 F F F Mg
   0.6666666666666666    0.8960070037985838    0.4612847137430595 F F F Mg
   0.6666666666666667    0.2706596628680830    0.5506200481617025 F F F Mg
   0.6666666666666667    0.7706596628680831    0.4791914767331310 F F F Mg
   0.0000000000000000    0.0626736704652503    0.5327132851716310 F F F Mg
   0.0000000000000000    0.5626736704652503    0.4612847137430596 F F F Mg
   0.0000000000000000    0.4373263295347495    0.4791914767331311 F F F Mg
   0.0000000000000000    0.9373263295347496    0.5506200481617025 F F F Mg
   0.3333333333333333    0.2293403371319169    0.4612847137430596 F F F Mg
   0.3333333333333333    0.7293403371319169    0.5327132851716310 F F F Mg
   0.3333333333333335    0.1039929962014164    0.4791914767331311 F F F Mg
   0.3333333333333335    0.6039929962014163    0.5506200481617024 F F F Mg
   0.6666666666666666    0.0833333333333334    0.4345238095238096 F F F Si
   0.6666666666666666    0.5833333333333335    0.5059523809523809 F F F Si
   0.9999999999999999    0.2500000000000001    0.5059523809523809 F F F Si
   0.9999999999999998    0.7500000000000000    0.4345238095238095 F F F Si
   0.3333333333333330    0.4166666666666666    0.4345238095238095 F F F Si
   0.3333333333333329    0.9166666666666667    0.5059523809523809 F F F Si
   0.0000000000000000    0.0000000000000000    0.4702380952380953 F F F Ni
   0.0000000000000000    0.5000000000000001    0.5416666666666667 F F F Ni
   0.5000000000000000    0.0000000000000000    0.4702380952380953 F F F Ni
   0.5000000000000000    0.5000000000000001    0.5416666666666667 F F F Ni
   0.8333333333333333    0.1666666666666667    0.4702380952380953 F F F Ni
   0.8333333333333330    0.6666666666666667    0.5416666666666667 F F F Ni
   0.3333333333333333    0.1666666666666667    0.5416666666666667 F F F Ni
   0.3333333333333333    0.6666666666666667    0.4702380952380953 F F F Ni
   0.8333333333333333    0.1666666666666667    0.5416666666666667 F F F Ni
   0.8333333333333334    0.6666666666666667    0.4702380952380953 F F F Ni
   0.1666666666666665    0.3333333333333333    0.5416666666666667 F F F Ni
   0.1666666666666666    0.8333333333333333    0.4702380952380953 F F F Ni
   0.6666666666666665    0.3333333333333334    0.4702380952380953 F F F Ni
   0.6666666666666664    0.8333333333333334    0.5416666666666667 F F F Ni
   0.1666666666666665    0.3333333333333334    0.4702380952380953 F F F Ni
   0.1666666666666665    0.8333333333333334    0.5416666666666667 F F F Ni
   0.5000000000000000    0.0000000000000000    0.5416666666666667 F F F Ni
   0.5000000000000000    0.5000000000000000    0.4702380952380953 F F F Ni
   0.6666666666666666    0.3960070037985837    0.6755704280287738 T T T Mg
   0.6666666666666666    0.8960070037985838    0.6041418566002024 T T T Mg
   0.6666666666666667    0.2706596628680830    0.6934771910188453 T T T Mg
   0.6666666666666667    0.7706596628680831    0.6220486195902739 T T T Mg
   0.0000000000000000    0.0626736704652503    0.6755704280287738 T T T Mg
   0.0000000000000000    0.5626736704652503    0.6041418566002024 T T T Mg
   0.0000000000000000    0.4373263295347495    0.6220486195902739 T T T Mg
   0.0000000000000000    0.9373263295347496    0.6934771910188453 T T T Mg
   0.3333333333333333    0.2293403371319169    0.6041418566002024 T T T Mg
   0.3333333333333333    0.7293403371319169    0.6755704280287738 T T T Mg
   0.3333333333333335    0.1039929962014164    0.6220486195902739 T T T Mg
   0.3333333333333335    0.6039929962014163    0.6934771910188453 T T T Mg
   0.6666666666666666    0.0833333333333334    0.5773809523809524 F F F Si
   0.6666666666666666    0.5833333333333335    0.6488095238095238 T T T Si
   0.9999999999999999    0.2500000000000001    0.6488095238095238 T T T Si
   0.9999999999999998    0.7500000000000000    0.5773809523809523 F F F Si
   0.3333333333333330    0.4166666666666666    0.5773809523809524 F F F Si
   0.3333333333333329    0.9166666666666667    0.6488095238095238 T T T Si
   0.0000000000000000    0.0000000000000000    0.6130952380952381 T T T Ni
   0.0000000000000000    0.5000000000000001    0.6845238095238095 T T T Ni
   0.5000000000000000    0.0000000000000000    0.6130952380952381 T T T Ni
   0.5000000000000000    0.5000000000000001    0.6845238095238095 T T T Ni
   0.8333333333333333    0.1666666666666667    0.6130952380952381 T T T Ni
   0.8333333333333330    0.6666666666666667    0.6845238095238095 T T T Ni
   0.3333333333333333    0.1666666666666667    0.6845238095238095 T T T Ni
   0.3333333333333333    0.6666666666666667    0.6130952380952381 T T T Ni
   0.8333333333333333    0.1666666666666667    0.6845238095238095 T T T Ni
   0.8333333333333334    0.6666666666666667    0.6130952380952381 T T T Ni
   0.1666666666666665    0.3333333333333333    0.6845238095238095 T T T Ni
   0.1666666666666666    0.8333333333333333    0.6130952380952381 T T T Ni
   0.6666666666666665    0.3333333333333334    0.6130952380952381 T T T Ni
   0.6666666666666664    0.8333333333333334    0.6845238095238095 T T T Ni
   0.1666666666666665    0.3333333333333334    0.6130952380952381 T T T Ni
   0.1666666666666665    0.8333333333333334    0.6845238095238095 T T T Ni
   0.5000000000000000    0.0000000000000000    0.6845238095238095 T T T Ni
   0.5000000000000000    0.5000000000000000    0.6130952380952381 T T T Ni
