Zr24 Ni4 Te8
1.0
  13.3897019276500906    0.0000000000000000    0.0000000000000008
   6.6948509638250453    3.8652740061488147    3.7106855269139403
   0.0000000000000000    0.0000000000000000   37.1068552691394018
Zr Ni Te Zr Ni Te Zr Ni Te Zr Ni Te
6 1 2 6 1 2 6 1 2 6 1 2
Selective dynamics
direct
   0.0000000000000000    0.7609158208480196    0.3850195290263091 T T T Zr
   0.2390841791519804    0.7609158208480196    0.3850195290263091 T T T Zr
   0.7609158208480196    0.4781683583039609    0.3132942752807150 T T T Zr
   0.0000000000000000    0.4067539774723556    0.3704357133638755 T T T Zr
   0.5932460225276444    0.4067539774723556    0.3704357133638755 T T T Zr
   0.4067539774723556    0.1864920450552887    0.2924619066055822 T T T Zr
   0.0000000000000000    0.0000000000000000    0.3111111111111111 T T T Ni
   0.6666666666666666    0.0000000000000001    0.3611111111111110 T T T Te
   0.3333333333333333    0.0000000000000001    0.3611111111111110 T T T Te
   0.0000000000000000    0.7609158208480196    0.4850195290263091 F F F Zr
   0.2390841791519804    0.7609158208480196    0.4850195290263091 F F F Zr
   0.7609158208480196    0.4781683583039609    0.4132942752807150 F F F Zr
   0.0000000000000000    0.4067539774723556    0.4704357133638755 F F F Zr
   0.5932460225276444    0.4067539774723556    0.4704357133638755 F F F Zr
   0.4067539774723556    0.1864920450552887    0.3924619066055822 T T T Zr
   0.0000000000000000    0.0000000000000000    0.4111111111111111 F F F Ni
   0.6666666666666666    0.0000000000000001    0.4611111111111111 F F F Te
   0.3333333333333333    0.0000000000000001    0.4611111111111111 F F F Te
   0.0000000000000000    0.7609158208480196    0.5850195290263092 T T T Zr
   0.2390841791519804    0.7609158208480196    0.5850195290263092 T T T Zr
   0.7609158208480196    0.4781683583039609    0.5132942752807150 F F F Zr
   0.0000000000000000    0.4067539774723556    0.5704357133638756 F F F Zr
   0.5932460225276444    0.4067539774723556    0.5704357133638756 F F F Zr
   0.4067539774723556    0.1864920450552887    0.4924619066055822 F F F Zr
   0.0000000000000000    0.0000000000000000    0.5111111111111111 F F F Ni
   0.6666666666666666    0.0000000000000001    0.5611111111111111 F F F Te
   0.3333333333333333    0.0000000000000001    0.5611111111111111 F F F Te
   0.0000000000000000    0.7609158208480196    0.6850195290263091 T T T Zr
   0.2390841791519804    0.7609158208480196    0.6850195290263091 T T T Zr
   0.7609158208480196    0.4781683583039609    0.6132942752807150 T T T Zr
   0.0000000000000000    0.4067539774723556    0.6704357133638755 T T T Zr
   0.5932460225276444    0.4067539774723556    0.6704357133638755 T T T Zr
   0.4067539774723556    0.1864920450552887    0.5924619066055823 T T T Zr
   0.0000000000000000    0.0000000000000000    0.6111111111111112 T T T Ni
   0.6666666666666666    0.0000000000000001    0.6611111111111111 T T T Te
   0.3333333333333333    0.0000000000000001    0.6611111111111111 T T T Te
