Zr24 Ni4 Te8
1.0
  13.3897019276500906    0.0000000000000000    0.0000000000000008
   6.6948509638250453    3.8652740061488147    3.7106855269139403
   0.0000000000000000    0.0000000000000000   37.1068552691394018
Zr Ni Te Zr Ni Te Zr Ni Te Zr Ni Te
6 1 2 6 1 2 6 1 2 6 1 2
Selective dynamics
direct
   0.0000000000000000    0.7609158208480196    0.3294639734707536 T T T Zr
   0.2390841791519804    0.7609158208480196    0.3294639734707536 T T T Zr
   0.7609158208480196    0.4781683583039609    0.3577387197251595 T T T Zr
   0.0000000000000000    0.4067539774723556    0.3148801578083200 T T T Zr
   0.5932460225276444    0.4067539774723556    0.3148801578083200 T T T Zr
   0.4067539774723556    0.1864920450552887    0.3369063510500267 T T T Zr
   0.0000000000000000    0.0000000000000000    0.3555555555555556 T T T Ni
   0.6666666666666666    0.0000000000000001    0.4055555555555556 T T T Te
   0.3333333333333333    0.0000000000000001    0.4055555555555556 T T T Te
   0.0000000000000000    0.7609158208480196    0.4294639734707536 F F F Zr
   0.2390841791519804    0.7609158208480196    0.4294639734707536 F F F Zr
   0.7609158208480196    0.4781683583039609    0.4577387197251595 F F F Zr
   0.0000000000000000    0.4067539774723556    0.4148801578083200 T T T Zr
   0.5932460225276444    0.4067539774723556    0.4148801578083200 T T T Zr
   0.4067539774723556    0.1864920450552887    0.4369063510500267 F F F Zr
   0.0000000000000000    0.0000000000000000    0.4555555555555556 F F F Ni
   0.6666666666666666    0.0000000000000001    0.5055555555555555 F F F Te
   0.3333333333333333    0.0000000000000001    0.5055555555555555 F F F Te
   0.0000000000000000    0.7609158208480196    0.5294639734707536 F F F Zr
   0.2390841791519804    0.7609158208480196    0.5294639734707536 F F F Zr
   0.7609158208480196    0.4781683583039609    0.5577387197251595 F F F Zr
   0.0000000000000000    0.4067539774723556    0.5148801578083200 F F F Zr
   0.5932460225276444    0.4067539774723556    0.5148801578083200 F F F Zr
   0.4067539774723556    0.1864920450552887    0.5369063510500267 F F F Zr
   0.0000000000000000    0.0000000000000000    0.5555555555555556 F F F Ni
   0.6666666666666666    0.0000000000000001    0.6055555555555556 T T T Te
   0.3333333333333333    0.0000000000000001    0.6055555555555556 T T T Te
   0.0000000000000000    0.7609158208480196    0.6294639734707537 T T T Zr
   0.2390841791519804    0.7609158208480196    0.6294639734707537 T T T Zr
   0.7609158208480196    0.4781683583039609    0.6577387197251594 T T T Zr
   0.0000000000000000    0.4067539774723556    0.6148801578083201 T T T Zr
   0.5932460225276444    0.4067539774723556    0.6148801578083201 T T T Zr
   0.4067539774723556    0.1864920450552887    0.6369063510500267 T T T Zr
   0.0000000000000000    0.0000000000000000    0.6555555555555556 T T T Ni
   0.6666666666666666    0.0000000000000001    0.7055555555555555 T T T Te
   0.3333333333333333    0.0000000000000001    0.7055555555555555 T T T Te
