Ca64 In32 Pd64
1.0
  11.5631457381813245    0.0000000000000000   10.2458783824799244
  -0.0000000000000010   15.8993111864301984    6.0723151015945067
   0.0000000000000000    0.0000000000000000   51.2293919123996133
Ca In Pd Ca In Pd
32 16 32 32 16 32
Selective dynamics
direct
   0.3232679300503635    0.3246990724372374    0.3852249947685087 F F F Ca
   0.8232679300503635    0.3246990724372374    0.4852249947685087 F F F Ca
   0.8232679300503635    0.8246990724372374    0.3852249947685087 F F F Ca
   0.3232679300503635    0.8246990724372374    0.4852249947685087 F F F Ca
   0.0732679300503635    0.4253009275627626    0.4554678332113459 F F F Ca
   0.5732679300503636    0.4253009275627626    0.3554678332113460 T T T Ca
   0.5732679300503636    0.9253009275627626    0.4554678332113459 F F F Ca
   0.0732679300503635    0.9253009275627626    0.3554678332113460 T T T Ca
   0.4267320699496365    0.1753009275627626    0.4347750052314913 F F F Ca
   0.9267320699496364    0.1753009275627626    0.3347750052314913 T T T Ca
   0.9267320699496364    0.6753009275627626    0.4347750052314914 F F F Ca
   0.4267320699496365    0.6753009275627626    0.3347750052314913 T T T Ca
   0.1767320699496365    0.0746990724372374    0.4645321667886541 F F F Ca
   0.6767320699496365    0.0746990724372374    0.3645321667886541 T T T Ca
   0.6767320699496365    0.5746990724372374    0.4645321667886541 F F F Ca
   0.1767320699496365    0.5746990724372374    0.3645321667886541 T T T Ca
   0.0732679300503635    0.3246990724372374    0.3352249947685086 T T T Ca
   0.5732679300503636    0.3246990724372374    0.4352249947685086 F F F Ca
   0.5732679300503636    0.8246990724372374    0.3352249947685086 T T T Ca
   0.0732679300503635    0.8246990724372374    0.4352249947685086 F F F Ca
   0.3232679300503635    0.4253009275627626    0.3054678332113460 T T T Ca
   0.8232679300503635    0.4253009275627626    0.4054678332113459 F F F Ca
   0.8232679300503635    0.9253009275627626    0.3054678332113460 T T T Ca
   0.3232679300503635    0.9253009275627626    0.4054678332113459 F F F Ca
   0.1767320699496365    0.1753009275627626    0.3847750052314913 F F F Ca
   0.6767320699496365    0.1753009275627626    0.4847750052314913 F F F Ca
   0.6767320699496365    0.6753009275627626    0.3847750052314913 F F F Ca
   0.1767320699496365    0.6753009275627626    0.4847750052314913 F F F Ca
   0.4267320699496365    0.0746990724372374    0.3145321667886540 T T T Ca
   0.9267320699496364    0.0746990724372374    0.4145321667886541 F F F Ca
   0.9267320699496364    0.5746990724372374    0.3145321667886540 T T T Ca
   0.4267320699496365    0.5746990724372374    0.4145321667886540 F F F Ca
   0.0771297957218167    0.3750000000000000    0.3945740408556367 F F F In
   0.5771297957218167    0.3750000000000000    0.4945740408556367 F F F In
   0.5771297957218167    0.8750000000000000    0.3945740408556366 F F F In
   0.0771297957218167    0.8750000000000000    0.4945740408556367 F F F In
   0.4228702042781833    0.1250000000000000    0.3754259591443633 T T T In
   0.9228702042781833    0.1250000000000000    0.4754259591443633 F F F In
   0.9228702042781833    0.6250000000000000    0.3754259591443633 T T T In
   0.4228702042781833    0.6250000000000000    0.4754259591443633 F F F In
   0.3271297957218167    0.3750000000000000    0.4445740408556367 F F F In
   0.8271297957218167    0.3750000000000000    0.3445740408556366 T T T In
   0.8271297957218167    0.8750000000000000    0.4445740408556367 F F F In
   0.3271297957218167    0.8750000000000000    0.3445740408556366 T T T In
   0.1728702042781834    0.1250000000000000    0.3254259591443633 T T T In
   0.6728702042781833    0.1250000000000000    0.4254259591443633 F F F In
   0.6728702042781833    0.6250000000000000    0.3254259591443633 T T T In
   0.1728702042781834    0.6250000000000000    0.4254259591443633 F F F In
   0.3190890813371077    0.4987776645548009    0.3946023529091489 F F F Pd
   0.8190890813371078    0.4987776645548009    0.4946023529091489 F F F Pd
   0.8190890813371078    0.9987776645548010    0.3946023529091489 F F F Pd
   0.3190890813371077    0.9987776645548010    0.4946023529091489 F F F Pd
   0.0690890813371077    0.2512223354451990    0.4477620145560080 F F F Pd
   0.5690890813371077    0.2512223354451990    0.3477620145560080 T T T Pd
   0.5690890813371077    0.7512223354451990    0.4477620145560080 F F F Pd
   0.0690890813371077    0.7512223354451990    0.3477620145560080 T T T Pd
   0.4309109186628924    0.0012223354451990    0.4253976470908510 F F F Pd
   0.9309109186628924    0.0012223354451990    0.3253976470908510 T T T Pd
   0.9309109186628924    0.5012223354451990    0.4253976470908510 F F F Pd
   0.4309109186628924    0.5012223354451990    0.3253976470908511 T T T Pd
   0.1809109186628924    0.2487776645548010    0.4722379854439920 F F F Pd
   0.6809109186628924    0.2487776645548010    0.3722379854439920 T T T Pd
   0.6809109186628924    0.7487776645548010    0.4722379854439920 F F F Pd
   0.1809109186628924    0.7487776645548010    0.3722379854439920 T T T Pd
   0.0690890813371077    0.4987776645548009    0.3446023529091489 T T T Pd
   0.5690890813371077    0.4987776645548009    0.4446023529091490 F F F Pd
   0.5690890813371077    0.9987776645548010    0.3446023529091489 T T T Pd
   0.0690890813371077    0.9987776645548010    0.4446023529091490 F F F Pd
   0.3190890813371077    0.2512223354451990    0.2977620145560080 T T T Pd
   0.8190890813371078    0.2512223354451990    0.3977620145560079 F F F Pd
   0.8190890813371078    0.7512223354451990    0.2977620145560079 T T T Pd
   0.3190890813371077    0.7512223354451990    0.3977620145560080 F F F Pd
   0.1809109186628924    0.0012223354451990    0.3753976470908510 T T T Pd
   0.6809109186628924    0.0012223354451990    0.4753976470908510 F F F Pd
   0.6809109186628924    0.5012223354451990    0.3753976470908510 T T T Pd
   0.1809109186628924    0.5012223354451990    0.4753976470908510 F F F Pd
   0.4309109186628924    0.2487776645548010    0.3222379854439920 T T T Pd
   0.9309109186628924    0.2487776645548010    0.4222379854439920 F F F Pd
   0.9309109186628924    0.7487776645548010    0.3222379854439920 T T T Pd
   0.4309109186628924    0.7487776645548010    0.4222379854439920 F F F Pd
   0.3232679300503635    0.3246990724372374    0.5852249947685086 F F F Ca
   0.8232679300503635    0.3246990724372374    0.6852249947685087 T T T Ca
   0.8232679300503635    0.8246990724372374    0.5852249947685086 F F F Ca
   0.3232679300503635    0.8246990724372374    0.6852249947685087 T T T Ca
   0.0732679300503635    0.4253009275627626    0.6554678332113459 T T T Ca
   0.5732679300503636    0.4253009275627626    0.5554678332113460 F F F Ca
   0.5732679300503636    0.9253009275627626    0.6554678332113459 T T T Ca
   0.0732679300503635    0.9253009275627626    0.5554678332113460 F F F Ca
   0.4267320699496365    0.1753009275627626    0.6347750052314913 T T T Ca
   0.9267320699496364    0.1753009275627626    0.5347750052314914 F F F Ca
   0.9267320699496364    0.6753009275627626    0.6347750052314913 T T T Ca
   0.4267320699496365    0.6753009275627626    0.5347750052314914 F F F Ca
   0.1767320699496365    0.0746990724372374    0.6645321667886541 T T T Ca
   0.6767320699496365    0.0746990724372374    0.5645321667886540 F F F Ca
   0.6767320699496365    0.5746990724372374    0.6645321667886541 T T T Ca
   0.1767320699496365    0.5746990724372374    0.5645321667886540 F F F Ca
   0.0732679300503635    0.3246990724372374    0.5352249947685086 F F F Ca
   0.5732679300503636    0.3246990724372374    0.6352249947685087 T T T Ca
   0.5732679300503636    0.8246990724372374    0.5352249947685086 F F F Ca
   0.0732679300503635    0.8246990724372374    0.6352249947685087 T T T Ca
   0.3232679300503635    0.4253009275627626    0.5054678332113459 F F F Ca
   0.8232679300503635    0.4253009275627626    0.6054678332113459 F F F Ca
   0.8232679300503635    0.9253009275627626    0.5054678332113460 F F F Ca
   0.3232679300503635    0.9253009275627626    0.6054678332113459 F F F Ca
   0.1767320699496365    0.1753009275627626    0.5847750052314913 F F F Ca
   0.6767320699496365    0.1753009275627626    0.6847750052314914 T T T Ca
   0.6767320699496365    0.6753009275627626    0.5847750052314913 F F F Ca
   0.1767320699496365    0.6753009275627626    0.6847750052314914 T T T Ca
   0.4267320699496365    0.0746990724372374    0.5145321667886540 F F F Ca
   0.9267320699496364    0.0746990724372374    0.6145321667886541 T T T Ca
   0.9267320699496364    0.5746990724372374    0.5145321667886541 F F F Ca
   0.4267320699496365    0.5746990724372374    0.6145321667886541 T T T Ca
   0.0771297957218167    0.3750000000000000    0.5945740408556367 F F F In
   0.5771297957218167    0.3750000000000000    0.6945740408556367 T T T In
   0.5771297957218167    0.8750000000000000    0.5945740408556367 F F F In
   0.0771297957218167    0.8750000000000000    0.6945740408556367 T T T In
   0.4228702042781833    0.1250000000000000    0.5754259591443633 F F F In
   0.9228702042781833    0.1250000000000000    0.6754259591443633 T T T In
   0.9228702042781833    0.6250000000000000    0.5754259591443633 F F F In
   0.4228702042781833    0.6250000000000000    0.6754259591443633 T T T In
   0.3271297957218167    0.3750000000000000    0.6445740408556366 T T T In
   0.8271297957218167    0.3750000000000000    0.5445740408556367 F F F In
   0.8271297957218167    0.8750000000000000    0.6445740408556366 T T T In
   0.3271297957218167    0.8750000000000000    0.5445740408556367 F F F In
   0.1728702042781834    0.1250000000000000    0.5254259591443633 F F F In
   0.6728702042781833    0.1250000000000000    0.6254259591443634 T T T In
   0.6728702042781833    0.6250000000000000    0.5254259591443633 F F F In
   0.1728702042781834    0.6250000000000000    0.6254259591443634 T T T In
   0.3190890813371077    0.4987776645548009    0.5946023529091490 F F F Pd
   0.8190890813371078    0.4987776645548009    0.6946023529091490 T T T Pd
   0.8190890813371078    0.9987776645548010    0.5946023529091489 F F F Pd
   0.3190890813371077    0.9987776645548010    0.6946023529091490 T T T Pd
   0.0690890813371077    0.2512223354451990    0.6477620145560080 T T T Pd
   0.5690890813371077    0.2512223354451990    0.5477620145560080 F F F Pd
   0.5690890813371077    0.7512223354451990    0.6477620145560080 T T T Pd
   0.0690890813371077    0.7512223354451990    0.5477620145560080 F F F Pd
   0.4309109186628924    0.0012223354451990    0.6253976470908511 T T T Pd
   0.9309109186628924    0.0012223354451990    0.5253976470908510 F F F Pd
   0.9309109186628924    0.5012223354451990    0.6253976470908511 T T T Pd
   0.4309109186628924    0.5012223354451990    0.5253976470908510 F F F Pd
   0.1809109186628924    0.2487776645548010    0.6722379854439920 T T T Pd
   0.6809109186628924    0.2487776645548010    0.5722379854439921 F F F Pd
   0.6809109186628924    0.7487776645548010    0.6722379854439919 T T T Pd
   0.1809109186628924    0.7487776645548010    0.5722379854439921 F F F Pd
   0.0690890813371077    0.4987776645548009    0.5446023529091489 F F F Pd
   0.5690890813371077    0.4987776645548009    0.6446023529091489 T T T Pd
   0.5690890813371077    0.9987776645548010    0.5446023529091489 F F F Pd
   0.0690890813371077    0.9987776645548010    0.6446023529091489 T T T Pd
   0.3190890813371077    0.2512223354451990    0.4977620145560080 F F F Pd
   0.8190890813371078    0.2512223354451990    0.5977620145560080 F F F Pd
   0.8190890813371078    0.7512223354451990    0.4977620145560080 F F F Pd
   0.3190890813371077    0.7512223354451990    0.5977620145560080 F F F Pd
   0.1809109186628924    0.0012223354451990    0.5753976470908511 F F F Pd
   0.6809109186628924    0.0012223354451990    0.6753976470908510 T T T Pd
   0.6809109186628924    0.5012223354451990    0.5753976470908511 F F F Pd
   0.1809109186628924    0.5012223354451990    0.6753976470908510 T T T Pd
   0.4309109186628924    0.2487776645548010    0.5222379854439920 F F F Pd
   0.9309109186628924    0.2487776645548010    0.6222379854439920 T T T Pd
   0.9309109186628924    0.7487776645548010    0.5222379854439920 F F F Pd
   0.4309109186628924    0.7487776645548010    0.6222379854439920 T T T Pd
