Ca32 In16 Pd32
1.0
   5.7815728690906623    0.0000000000000000    0.0000000000000004
  -0.0000000000000010   15.8993111864301984    6.0723151015945067
   0.0000000000000000    0.0000000000000000   40.9835135299196907
Ca In Pd Ca In Pd
16 8 16 16 8 16
Selective dynamics
direct
   0.6465358601007269    0.1753009275627626    0.4189017740267733 F F F Ca
   0.6465358601007269    0.6753009275627626    0.2939017740267733 T T T Ca
   0.1465358601007269    0.0746990724372374    0.3935982259732267 F F F Ca
   0.1465358601007269    0.5746990724372374    0.2685982259732267 T T T Ca
   0.8534641398992731    0.3246990724372374    0.3310982259732267 T T T Ca
   0.8534641398992731    0.8246990724372373    0.4560982259732267 F F F Ca
   0.3534641398992731    0.4253009275627626    0.3564017740267733 F F F Ca
   0.3534641398992731    0.9253009275627626    0.4814017740267733 F F F Ca
   0.1465358601007269    0.1753009275627626    0.2939017740267733 T T T Ca
   0.1465358601007269    0.6753009275627626    0.4189017740267733 F F F Ca
   0.6465358601007269    0.0746990724372374    0.2685982259732267 T T T Ca
   0.6465358601007269    0.5746990724372374    0.3935982259732267 F F F Ca
   0.3534641398992731    0.3246990724372374    0.4560982259732267 F F F Ca
   0.3534641398992731    0.8246990724372373    0.3310982259732267 T T T Ca
   0.8534641398992731    0.4253009275627626    0.4814017740267733 F F F Ca
   0.8534641398992731    0.9253009275627626    0.3564017740267733 F F F Ca
   0.1542595914436333    0.1250000000000000    0.4687500000000000 F F F In
   0.1542595914436333    0.6249999999999999    0.3437500000000000 T T T In
   0.8457404085563667    0.3750000000000000    0.4062500000000000 F F F In
   0.8457404085563667    0.8750000000000000    0.2812500000000000 T T T In
   0.6542595914436333    0.1250000000000000    0.3437500000000000 T T T In
   0.6542595914436333    0.6249999999999999    0.4687500000000000 F F F In
   0.3457404085563667    0.3750000000000000    0.2812500000000000 T T T In
   0.3457404085563667    0.8750000000000000    0.4062500000000000 F F F In
   0.6381781626742153    0.0012223354451990    0.4082247885292869 F F F Pd
   0.6381781626742153    0.5012223354451990    0.2832247885292869 T T T Pd
   0.1381781626742153    0.2487776645548010    0.4042752114707131 F F F Pd
   0.1381781626742153    0.7487776645548010    0.2792752114707131 T T T Pd
   0.8618218373257848    0.4987776645548009    0.3417752114707131 T T T Pd
   0.8618218373257848    0.9987776645548009    0.4667752114707131 F F F Pd
   0.3618218373257847    0.2512223354451990    0.3457247885292869 T T T Pd
   0.3618218373257847    0.7512223354451990    0.4707247885292869 F F F Pd
   0.1381781626742153    0.0012223354451990    0.2832247885292869 T T T Pd
   0.1381781626742153    0.5012223354451990    0.4082247885292869 F F F Pd
   0.6381781626742153    0.2487776645548010    0.2792752114707131 T T T Pd
   0.6381781626742153    0.7487776645548010    0.4042752114707131 F F F Pd
   0.3618218373257847    0.4987776645548009    0.4667752114707131 F F F Pd
   0.3618218373257847    0.9987776645548009    0.3417752114707131 T T T Pd
   0.8618218373257848    0.2512223354451990    0.4707247885292869 F F F Pd
   0.8618218373257848    0.7512223354451990    0.3457247885292869 T T T Pd
   0.6465358601007269    0.1753009275627626    0.6689017740267733 T T T Ca
   0.6465358601007269    0.6753009275627626    0.5439017740267733 F F F Ca
   0.1465358601007269    0.0746990724372374    0.6435982259732267 F F F Ca
   0.1465358601007269    0.5746990724372374    0.5185982259732267 F F F Ca
   0.8534641398992731    0.3246990724372374    0.5810982259732267 F F F Ca
   0.8534641398992731    0.8246990724372373    0.7060982259732267 T T T Ca
   0.3534641398992731    0.4253009275627626    0.6064017740267733 F F F Ca
   0.3534641398992731    0.9253009275627626    0.7314017740267733 T T T Ca
   0.1465358601007269    0.1753009275627626    0.5439017740267733 F F F Ca
   0.1465358601007269    0.6753009275627626    0.6689017740267733 T T T Ca
   0.6465358601007269    0.0746990724372374    0.5185982259732267 F F F Ca
   0.6465358601007269    0.5746990724372374    0.6435982259732267 F F F Ca
   0.3534641398992731    0.3246990724372374    0.7060982259732267 T T T Ca
   0.3534641398992731    0.8246990724372373    0.5810982259732267 F F F Ca
   0.8534641398992731    0.4253009275627626    0.7314017740267733 T T T Ca
   0.8534641398992731    0.9253009275627626    0.6064017740267733 F F F Ca
   0.1542595914436333    0.1250000000000000    0.7187500000000000 T T T In
   0.1542595914436333    0.6249999999999999    0.5937500000000000 F F F In
   0.8457404085563667    0.3750000000000000    0.6562500000000000 T T T In
   0.8457404085563667    0.8750000000000000    0.5312500000000000 F F F In
   0.6542595914436333    0.1250000000000000    0.5937500000000000 F F F In
   0.6542595914436333    0.6249999999999999    0.7187500000000000 T T T In
   0.3457404085563667    0.3750000000000000    0.5312500000000000 F F F In
   0.3457404085563667    0.8750000000000000    0.6562500000000000 T T T In
   0.6381781626742153    0.0012223354451990    0.6582247885292869 T T T Pd
   0.6381781626742153    0.5012223354451990    0.5332247885292869 F F F Pd
   0.1381781626742153    0.2487776645548010    0.6542752114707131 T T T Pd
   0.1381781626742153    0.7487776645548010    0.5292752114707131 F F F Pd
   0.8618218373257848    0.4987776645548009    0.5917752114707131 F F F Pd
   0.8618218373257848    0.9987776645548009    0.7167752114707131 T T T Pd
   0.3618218373257847    0.2512223354451990    0.5957247885292869 F F F Pd
   0.3618218373257847    0.7512223354451990    0.7207247885292869 T T T Pd
   0.1381781626742153    0.0012223354451990    0.5332247885292869 F F F Pd
   0.1381781626742153    0.5012223354451990    0.6582247885292869 T T T Pd
   0.6381781626742153    0.2487776645548010    0.5292752114707131 F F F Pd
   0.6381781626742153    0.7487776645548010    0.6542752114707131 T T T Pd
   0.3618218373257847    0.4987776645548009    0.7167752114707131 T T T Pd
   0.3618218373257847    0.9987776645548009    0.5917752114707131 F F F Pd
   0.8618218373257848    0.2512223354451990    0.7207247885292869 T T T Pd
   0.8618218373257848    0.7512223354451990    0.5957247885292869 F F F Pd
