Mn6 Ni6 As6
1.0
   5.3464503148493936    0.0000000000000000   -3.0867745284872585
   0.0000000000000006    3.6855799830243341    0.0000000000000002
   0.0000000000000000    0.0000000000000000   30.8677452848725764
Mn Ni As Mn Ni As
3 3 3 3 3 3
Selective dynamics
direct
   0.5870831325266153    0.5000000000000000    0.3618610709497675 T T T Mn
   0.4129168674733847    0.5000000000000000    0.4444444444444444 F F F Mn
   0.0000000000000000    0.5000000000000000    0.3270278179391213 T T T Mn
   0.2521849660694891    0.0000000000000000    0.4948814376583422 F F F Ni
   0.7478150339305109    0.0000000000000000    0.4444444444444444 F F F Ni
   0.0000000000000000    0.0000000000000000    0.3940074512305466 T T T Ni
   0.3333333333333333    0.0000000000000000    0.3777777777777778 T T T As
   0.6666666666666666    0.0000000000000000    0.3111111111111111 T T T As
   0.0000000000000000    0.5000000000000000    0.4444444444444444 F F F As
   0.5870831325266153    0.5000000000000000    0.5618610709497676 F F F Mn
   0.4129168674733847    0.5000000000000000    0.6444444444444444 T T T Mn
   0.0000000000000000    0.5000000000000000    0.5270278179391213 F F F Mn
   0.2521849660694891    0.0000000000000000    0.6948814376583423 T T T Ni
   0.7478150339305109    0.0000000000000000    0.6444444444444444 T T T Ni
   0.0000000000000000    0.0000000000000000    0.5940074512305467 T T T Ni
   0.3333333333333333    0.0000000000000000    0.5777777777777777 F F F As
   0.6666666666666666    0.0000000000000000    0.5111111111111111 F F F As
   0.0000000000000000    0.5000000000000000    0.6444444444444444 T T T As
