Zn8 Si8 As16
1.0
   5.6822204481771816    0.0000000000000000    0.0000000000000003
   0.0000000000000018   11.0434158364961732    0.0000000000000007
   0.0000000000000000    0.0000000000000000   28.4111022408859100
Zn Si As Zn Si As
4 4 8 4 4 8
Selective dynamics
direct
   0.0000000000000000    0.0000000000000000    0.4750000000000000 F F F Zn
   0.4999999999999999    0.2500000000000000    0.4750000000000000 F F F Zn
   0.4999999999999999    0.5000000000000000    0.3750000000000000 T T T Zn
   0.0000000000000000    0.7500000000000000    0.3750000000000000 T T T Zn
   0.4999999999999999    0.0000000000000000    0.3750000000000000 T T T Si
   0.0000000000000000    0.2500000000000000    0.3750000000000000 T T T Si
   0.0000000000000000    0.5000000000000000    0.4750000000000000 F F F Si
   0.4999999999999999    0.7500000000000000    0.4750000000000000 F F F Si
   0.7499999999999999    0.1250000000000000    0.4223240689593240 T T T As
   0.7633796552033799    0.3750000000000000    0.3250000000000000 T T T As
   0.2366203447966199    0.3750000000000000    0.4249999999999999 T T T As
   0.2500000000000000    0.1250000000000000    0.3276759310406760 T T T As
   0.2500000000000000    0.6250000000000000    0.3223240689593240 T T T As
   0.2633796552033800    0.8750000000000001    0.4249999999999999 T T T As
   0.7366203447966200    0.8750000000000001    0.3250000000000000 T T T As
   0.7499999999999999    0.6250000000000001    0.4276759310406760 T T T As
   0.0000000000000000    0.0000000000000000    0.6750000000000000 T T T Zn
   0.4999999999999999    0.2500000000000000    0.6750000000000000 T T T Zn
   0.4999999999999999    0.5000000000000000    0.5750000000000000 T T T Zn
   0.0000000000000000    0.7500000000000000    0.5750000000000000 T T T Zn
   0.4999999999999999    0.0000000000000000    0.5750000000000000 T T T Si
   0.0000000000000000    0.2500000000000000    0.5750000000000000 T T T Si
   0.0000000000000000    0.5000000000000000    0.6750000000000000 T T T Si
   0.4999999999999999    0.7500000000000000    0.6750000000000000 T T T Si
   0.7499999999999999    0.1250000000000000    0.6223240689593240 T T T As
   0.7633796552033799    0.3750000000000000    0.5250000000000000 F F F As
   0.2366203447966199    0.3750000000000000    0.6250000000000000 T T T As
   0.2500000000000000    0.1250000000000000    0.5276759310406760 F F F As
   0.2500000000000000    0.6250000000000000    0.5223240689593240 F F F As
   0.2633796552033800    0.8750000000000001    0.6250000000000000 T T T As
   0.7366203447966200    0.8750000000000001    0.5250000000000000 F F F As
   0.7499999999999999    0.6250000000000001    0.6276759310406760 T T T As
