Sr16 In8 Pd16
1.0
  10.5754464430934352    0.0000000000000000    0.0000000000000006
  -1.9881161103851812    8.1791751353618150    0.0000000000000005
   0.0000000000000000    0.0000000000000000   30.5187335135005497
Sr In Pd Sr In Pd
8 4 8 8 4 8
Selective dynamics
direct
   0.3515282990303419    0.3523930879166883    0.4719973910439734 F F F Sr
   0.1484717009696581    0.1476069120833117    0.3719973910439734 T T T Sr
   0.1484717009696582    0.6476069120833117    0.4280026089560266 F F F Sr
   0.3515282990303419    0.8523930879166883    0.3280026089560266 T T T Sr
   0.8515282990303419    0.3523930879166883    0.3719973910439734 T T T Sr
   0.6484717009696581    0.1476069120833117    0.4719973910439734 F F F Sr
   0.6484717009696581    0.6476069120833117    0.3280026089560266 T T T Sr
   0.8515282990303419    0.8523930879166883    0.4280026089560266 F F F Sr
   0.0000000000000000    0.2500000000000001    0.4732181812885485 F F F In
   0.0000000000000000    0.7500000000000000    0.3267818187114514 T T T In
   0.5000000000000000    0.2500000000000001    0.3732181812885486 T T T In
   0.5000000000000000    0.7500000000000000    0.4267818187114514 F F F In
   0.1344850078907385    0.0033065464748886    0.4726052976181961 F F F Pd
   0.3655149921092616    0.4966934535251113    0.3726052976181961 T T T Pd
   0.3655149921092615    0.9966934535251114    0.4273947023818039 F F F Pd
   0.1344850078907386    0.5033065464748885    0.3273947023818038 T T T Pd
   0.6344850078907385    0.0033065464748886    0.3726052976181961 T T T Pd
   0.8655149921092615    0.4966934535251113    0.4726052976181961 F F F Pd
   0.8655149921092615    0.9966934535251114    0.3273947023818038 T T T Pd
   0.6344850078907385    0.5033065464748885    0.4273947023818039 F F F Pd
   0.3515282990303419    0.3523930879166883    0.6719973910439734 T T T Sr
   0.1484717009696581    0.1476069120833117    0.5719973910439734 F F F Sr
   0.1484717009696582    0.6476069120833117    0.6280026089560267 T T T Sr
   0.3515282990303419    0.8523930879166883    0.5280026089560266 F F F Sr
   0.8515282990303419    0.3523930879166883    0.5719973910439734 F F F Sr
   0.6484717009696581    0.1476069120833117    0.6719973910439734 T T T Sr
   0.6484717009696581    0.6476069120833117    0.5280026089560266 F F F Sr
   0.8515282990303419    0.8523930879166883    0.6280026089560267 T T T Sr
   0.0000000000000000    0.2500000000000001    0.6732181812885485 T T T In
   0.0000000000000000    0.7500000000000000    0.5267818187114515 F F F In
   0.5000000000000000    0.2500000000000001    0.5732181812885486 F F F In
   0.5000000000000000    0.7500000000000000    0.6267818187114513 T T T In
   0.1344850078907385    0.0033065464748886    0.6726052976181962 T T T Pd
   0.3655149921092616    0.4966934535251113    0.5726052976181961 F F F Pd
   0.3655149921092615    0.9966934535251114    0.6273947023818038 T T T Pd
   0.1344850078907386    0.5033065464748885    0.5273947023818039 F F F Pd
   0.6344850078907385    0.0033065464748886    0.5726052976181961 F F F Pd
   0.8655149921092615    0.4966934535251113    0.6726052976181962 T T T Pd
   0.8655149921092615    0.9966934535251114    0.5273947023818039 F F F Pd
   0.6344850078907385    0.5033065464748885    0.6273947023818038 T T T Pd
