Sr16 Mg32 Pd16
1.0
  14.3456743071969264    0.0000000000000000    0.0000000000000009
   5.3371579991966529    6.9339653066724498    8.2741929170929787
   0.0000000000000000    0.0000000000000000   41.3709645854648898
Sr Mg Pd Sr Mg Pd
8 16 8 8 16 8
Selective dynamics
direct
   0.0521013236336572    0.4478986763663428    0.3354202647267314 T T T Sr
   0.0521013236336572    0.9478986763663427    0.4354202647267315 F F F Sr
   0.4478986763663427    0.8021013236336572    0.3645797352732686 T T T Sr
   0.4478986763663427    0.3021013236336573    0.4645797352732686 F F F Sr
   0.5521013236336573    0.6978986763663427    0.4854202647267314 F F F Sr
   0.5521013236336573    0.1978986763663427    0.3854202647267315 T T T Sr
   0.9478986763663428    0.5521013236336570    0.4145797352732686 T T T Sr
   0.9478986763663428    0.0521013236336570    0.3145797352732686 T T T Sr
   0.3336746283686978    0.1663253716313021    0.4297451892392928 F F F Mg
   0.3336746283686978    0.6663253716313022    0.3297451892392928 T T T Mg
   0.1663253716313022    0.0836746283686978    0.4702548107607072 F F F Mg
   0.1663253716313022    0.5836746283686978    0.3702548107607072 T T T Mg
   0.3336746283686978    0.1663253716313021    0.3537246621081863 T T T Mg
   0.3336746283686978    0.6663253716313022    0.4537246621081863 F F F Mg
   0.1663253716313022    0.0836746283686978    0.3462753378918137 T T T Mg
   0.1663253716313022    0.5836746283686978    0.4462753378918137 F F F Mg
   0.8336746283686977    0.4163253716313023    0.3797451892392928 T T T Mg
   0.8336746283686977    0.9163253716313022    0.4797451892392928 F F F Mg
   0.6663253716313022    0.8336746283686978    0.3202548107607072 T T T Mg
   0.6663253716313022    0.3336746283686978    0.4202548107607071 F F F Mg
   0.8336746283686977    0.4163253716313023    0.3037246621081863 T T T Mg
   0.8336746283686977    0.9163253716313022    0.4037246621081862 T T T Mg
   0.6663253716313022    0.8336746283686978    0.3962753378918137 T T T Mg
   0.6663253716313022    0.3336746283686978    0.4962753378918137 F F F Mg
   0.2706401807788588    0.9793598192211412    0.4291280361557718 F F F Pd
   0.2706401807788588    0.4793598192211412    0.3291280361557717 T T T Pd
   0.2293598192211412    0.2706401807788588    0.4708719638442282 F F F Pd
   0.2293598192211412    0.7706401807788588    0.3708719638442282 T T T Pd
   0.7706401807788588    0.7293598192211411    0.4791280361557717 F F F Pd
   0.7706401807788588    0.2293598192211412    0.3791280361557717 T T T Pd
   0.7293598192211411    0.5206401807788588    0.4208719638442282 F F F Pd
   0.7293598192211411    0.0206401807788588    0.3208719638442282 T T T Pd
   0.0521013236336572    0.4478986763663428    0.5354202647267314 F F F Sr
   0.0521013236336572    0.9478986763663427    0.6354202647267315 T T T Sr
   0.4478986763663427    0.8021013236336572    0.5645797352732687 F F F Sr
   0.4478986763663427    0.3021013236336573    0.6645797352732685 T T T Sr
   0.5521013236336573    0.6978986763663427    0.6854202647267313 T T T Sr
   0.5521013236336573    0.1978986763663427    0.5854202647267315 T T T Sr
   0.9478986763663428    0.5521013236336570    0.6145797352732687 T T T Sr
   0.9478986763663428    0.0521013236336570    0.5145797352732686 F F F Sr
   0.3336746283686978    0.1663253716313021    0.6297451892392929 T T T Mg
   0.3336746283686978    0.6663253716313022    0.5297451892392928 F F F Mg
   0.1663253716313022    0.0836746283686978    0.6702548107607071 T T T Mg
   0.1663253716313022    0.5836746283686978    0.5702548107607072 F F F Mg
   0.3336746283686978    0.1663253716313021    0.5537246621081863 F F F Mg
   0.3336746283686978    0.6663253716313022    0.6537246621081862 T T T Mg
   0.1663253716313022    0.0836746283686978    0.5462753378918137 F F F Mg
   0.1663253716313022    0.5836746283686978    0.6462753378918137 T T T Mg
   0.8336746283686977    0.4163253716313023    0.5797451892392929 F F F Mg
   0.8336746283686977    0.9163253716313022    0.6797451892392927 T T T Mg
   0.6663253716313022    0.8336746283686978    0.5202548107607072 F F F Mg
   0.6663253716313022    0.3336746283686978    0.6202548107607071 T T T Mg
   0.8336746283686977    0.4163253716313023    0.5037246621081863 F F F Mg
   0.8336746283686977    0.9163253716313022    0.6037246621081862 T T T Mg
   0.6663253716313022    0.8336746283686978    0.5962753378918138 T T T Mg
   0.6663253716313022    0.3336746283686978    0.6962753378918136 T T T Mg
   0.2706401807788588    0.9793598192211412    0.6291280361557718 T T T Pd
   0.2706401807788588    0.4793598192211412    0.5291280361557718 F F F Pd
   0.2293598192211412    0.2706401807788588    0.6708719638442282 T T T Pd
   0.2293598192211412    0.7706401807788588    0.5708719638442282 F F F Pd
   0.7706401807788588    0.7293598192211411    0.6791280361557717 T T T Pd
   0.7706401807788588    0.2293598192211412    0.5791280361557718 F F F Pd
   0.7293598192211411    0.5206401807788588    0.6208719638442282 T T T Pd
   0.7293598192211411    0.0206401807788588    0.5208719638442283 F F F Pd
