Sr24 Ni24 Sn72
1.0
   9.5673997947806004    0.0000000000000000   -4.7836998973903002
  -0.0000000000000062   22.0083197250721376   -4.7836998973903011
   0.0000000000000000    0.0000000000000000   33.4858992817321095
Sr Ni Sn Sr Ni Sn Sr Ni Sn
8 8 24 8 8 24 8 8 24
Selective dynamics
direct
   0.5000000000000000    0.5001817750260180    0.4084259107894311 F F F Sr
   0.0000000000000000    0.0001817750260180    0.4084259107894311 F F F Sr
   0.0000000000000000    0.5001817750260180    0.3369973393608597 T T T Sr
   0.5000000000000000    0.0001817750260180    0.3369973393608597 T T T Sr
   0.7500000000000000    0.7501817750260180    0.4084259107894311 F F F Sr
   0.2500000000000000    0.2501817750260180    0.4084259107894311 F F F Sr
   0.2500000000000000    0.7501817750260180    0.3369973393608597 T T T Sr
   0.7500000000000000    0.2501817750260180    0.3369973393608597 T T T Sr
   0.5000000000000000    0.6706110244314090    0.2899158035616298 T T T Ni
   0.0000000000000000    0.1706110244314089    0.2899158035616298 T T T Ni
   0.0000000000000000    0.6706110244314090    0.3613443749902012 T T T Ni
   0.5000000000000000    0.1706110244314089    0.3613443749902012 T T T Ni
   0.7500000000000000    0.9206110244314090    0.2899158035616298 T T T Ni
   0.2500000000000000    0.4206110244314089    0.2899158035616298 T T T Ni
   0.2500000000000000    0.9206110244314090    0.3613443749902012 T T T Ni
   0.7500000000000000    0.4206110244314089    0.3613443749902012 T T T Ni
   0.7500000000000000    0.5345779558921322    0.3776253651988760 T T T Sn
   0.2500000000000000    0.0345779558921322    0.3776253651988760 T T T Sn
   0.2500000000000000    0.5345779558921322    0.3061967937703046 T T T Sn
   0.7500000000000000    0.0345779558921322    0.3061967937703046 T T T Sn
   0.5000000000000000    0.6253156210752220    0.3548736030821745 T T T Sn
   0.0000000000000000    0.1253156210752220    0.3548736030821745 T T T Sn
   0.0000000000000000    0.6253156210752220    0.4263021745107459 F F F Sn
   0.5000000000000000    0.1253156210752220    0.4263021745107459 F F F Sn
   0.7500000000000000    0.6253156210752220    0.3191593173678888 T T T Sn
   0.2500000000000000    0.1253156210752220    0.3191593173678888 T T T Sn
   0.2500000000000000    0.6253156210752220    0.3905878887964602 T T T Sn
   0.7500000000000000    0.1253156210752220    0.3905878887964602 T T T Sn
   0.5000000000000000    0.7845779558921322    0.3061967937703046 T T T Sn
   0.0000000000000000    0.2845779558921322    0.3061967937703046 T T T Sn
   0.0000000000000000    0.7845779558921322    0.3776253651988760 T T T Sn
   0.5000000000000000    0.2845779558921322    0.3776253651988760 T T T Sn
   0.7500000000000000    0.8753156210752220    0.3548736030821745 T T T Sn
   0.2500000000000000    0.3753156210752220    0.3548736030821745 T T T Sn
   0.2500000000000000    0.8753156210752220    0.4263021745107459 F F F Sn
   0.7500000000000000    0.3753156210752219    0.4263021745107459 F F F Sn
   0.5000000000000000    0.8753156210752220    0.3905878887964602 T T T Sn
   0.0000000000000000    0.3753156210752220    0.3905878887964602 T T T Sn
   0.0000000000000000    0.8753156210752220    0.3191593173678888 T T T Sn
   0.5000000000000000    0.3753156210752220    0.3191593173678888 T T T Sn
   0.5000000000000000    0.5001817750260180    0.5512830536465739 F F F Sr
   0.0000000000000000    0.0001817750260180    0.5512830536465739 F F F Sr
   0.0000000000000000    0.5001817750260180    0.4798544822180025 F F F Sr
   0.5000000000000000    0.0001817750260180    0.4798544822180025 F F F Sr
   0.7500000000000000    0.7501817750260180    0.5512830536465739 F F F Sr
   0.2500000000000000    0.2501817750260180    0.5512830536465739 F F F Sr
   0.2500000000000000    0.7501817750260180    0.4798544822180025 F F F Sr
   0.7500000000000000    0.2501817750260180    0.4798544822180025 F F F Sr
   0.5000000000000000    0.6706110244314090    0.4327729464187726 F F F Ni
   0.0000000000000000    0.1706110244314089    0.4327729464187726 F F F Ni
   0.0000000000000000    0.6706110244314090    0.5042015178473440 F F F Ni
   0.5000000000000000    0.1706110244314089    0.5042015178473440 F F F Ni
   0.7500000000000000    0.9206110244314090    0.4327729464187726 F F F Ni
   0.2500000000000000    0.4206110244314089    0.4327729464187726 F F F Ni
   0.2500000000000000    0.9206110244314090    0.5042015178473440 F F F Ni
   0.7500000000000000    0.4206110244314089    0.5042015178473440 F F F Ni
   0.7500000000000000    0.5345779558921322    0.5204825080560188 F F F Sn
   0.2500000000000000    0.0345779558921322    0.5204825080560188 F F F Sn
   0.2500000000000000    0.5345779558921322    0.4490539366274474 F F F Sn
   0.7500000000000000    0.0345779558921322    0.4490539366274474 F F F Sn
   0.5000000000000000    0.6253156210752220    0.4977307459393174 F F F Sn
   0.0000000000000000    0.1253156210752220    0.4977307459393174 F F F Sn
   0.0000000000000000    0.6253156210752220    0.5691593173678888 F F F Sn
   0.5000000000000000    0.1253156210752220    0.5691593173678888 F F F Sn
   0.7500000000000000    0.6253156210752220    0.4620164602250316 F F F Sn
   0.2500000000000000    0.1253156210752220    0.4620164602250316 F F F Sn
   0.2500000000000000    0.6253156210752220    0.5334450316536030 F F F Sn
   0.7500000000000000    0.1253156210752220    0.5334450316536030 F F F Sn
   0.5000000000000000    0.7845779558921322    0.4490539366274474 F F F Sn
   0.0000000000000000    0.2845779558921322    0.4490539366274474 F F F Sn
   0.0000000000000000    0.7845779558921322    0.5204825080560188 F F F Sn
   0.5000000000000000    0.2845779558921322    0.5204825080560188 F F F Sn
   0.7500000000000000    0.8753156210752220    0.4977307459393173 F F F Sn
   0.2500000000000000    0.3753156210752220    0.4977307459393174 F F F Sn
   0.2500000000000000    0.8753156210752220    0.5691593173678888 F F F Sn
   0.7500000000000000    0.3753156210752219    0.5691593173678887 F F F Sn
   0.5000000000000000    0.8753156210752220    0.5334450316536030 F F F Sn
   0.0000000000000000    0.3753156210752220    0.5334450316536030 F F F Sn
   0.0000000000000000    0.8753156210752220    0.4620164602250316 F F F Sn
   0.5000000000000000    0.3753156210752220    0.4620164602250316 F F F Sn
   0.5000000000000000    0.5001817750260180    0.6941401965037168 T T T Sr
   0.0000000000000000    0.0001817750260180    0.6941401965037168 T T T Sr
   0.0000000000000000    0.5001817750260180    0.6227116250751454 T T T Sr
   0.5000000000000000    0.0001817750260180    0.6227116250751454 T T T Sr
   0.7500000000000000    0.7501817750260180    0.6941401965037168 T T T Sr
   0.2500000000000000    0.2501817750260180    0.6941401965037168 T T T Sr
   0.2500000000000000    0.7501817750260180    0.6227116250751454 T T T Sr
   0.7500000000000000    0.2501817750260180    0.6227116250751454 T T T Sr
   0.5000000000000000    0.6706110244314090    0.5756300892759154 F F F Ni
   0.0000000000000000    0.1706110244314089    0.5756300892759154 F F F Ni
   0.0000000000000000    0.6706110244314090    0.6470586607044869 T T T Ni
   0.5000000000000000    0.1706110244314089    0.6470586607044869 T T T Ni
   0.7500000000000000    0.9206110244314090    0.5756300892759154 F F F Ni
   0.2500000000000000    0.4206110244314089    0.5756300892759154 F F F Ni
   0.2500000000000000    0.9206110244314090    0.6470586607044869 T T T Ni
   0.7500000000000000    0.4206110244314089    0.6470586607044869 T T T Ni
   0.7500000000000000    0.5345779558921322    0.6633396509131617 T T T Sn
   0.2500000000000000    0.0345779558921322    0.6633396509131617 T T T Sn
   0.2500000000000000    0.5345779558921322    0.5919110794845903 F F F Sn
   0.7500000000000000    0.0345779558921322    0.5919110794845903 F F F Sn
   0.5000000000000000    0.6253156210752220    0.6405878887964602 T T T Sn
   0.0000000000000000    0.1253156210752220    0.6405878887964602 T T T Sn
   0.0000000000000000    0.6253156210752220    0.7120164602250316 T T T Sn
   0.5000000000000000    0.1253156210752220    0.7120164602250316 T T T Sn
   0.7500000000000000    0.6253156210752220    0.6048736030821744 F F F Sn
   0.2500000000000000    0.1253156210752220    0.6048736030821744 F F F Sn
   0.2500000000000000    0.6253156210752220    0.6763021745107459 T T T Sn
   0.7500000000000000    0.1253156210752220    0.6763021745107459 T T T Sn
   0.5000000000000000    0.7845779558921322    0.5919110794845903 F F F Sn
   0.0000000000000000    0.2845779558921322    0.5919110794845903 F F F Sn
   0.0000000000000000    0.7845779558921322    0.6633396509131617 T T T Sn
   0.5000000000000000    0.2845779558921322    0.6633396509131617 T T T Sn
   0.7500000000000000    0.8753156210752220    0.6405878887964602 T T T Sn
   0.2500000000000000    0.3753156210752220    0.6405878887964602 T T T Sn
   0.2500000000000000    0.8753156210752220    0.7120164602250316 T T T Sn
   0.7500000000000000    0.3753156210752219    0.7120164602250316 T T T Sn
   0.5000000000000000    0.8753156210752220    0.6763021745107459 T T T Sn
   0.0000000000000000    0.3753156210752220    0.6763021745107459 T T T Sn
   0.0000000000000000    0.8753156210752220    0.6048736030821744 F F F Sn
   0.5000000000000000    0.3753156210752220    0.6048736030821744 F F F Sn
