Sr12 Ni12 Sn36
1.0
   9.5673997947806004    0.0000000000000000   -4.7836998973903002
   0.0000000000000018   11.0041598625360688   -4.7836998973902984
   0.0000000000000000    0.0000000000000000   33.4858992817321095
Sr Ni Sn Sr Ni Sn Sr Ni Sn
4 4 12 4 4 12 4 4 12
Selective dynamics
direct
   0.0000000000000000    0.0003635500520360    0.4061375358645765 T T T Sr
   0.5000000000000000    0.0003635500520361    0.3347089644360050 T T T Sr
   0.2500000000000000    0.5003635500520360    0.2989946787217193 T T T Sr
   0.7500000000000000    0.5003635500520360    0.3704232501502908 T T T Sr
   0.0000000000000000    0.3412220488628178    0.3119744642661167 T T T Ni
   0.5000000000000000    0.3412220488628179    0.3834030356946881 T T T Ni
   0.2500000000000000    0.8412220488628178    0.3476887499804024 T T T Ni
   0.7500000000000000    0.8412220488628178    0.4191173214089738 F F F Ni
   0.2500000000000000    0.0691559117842644    0.3802507303977519 T T T Sn
   0.7500000000000000    0.0691559117842645    0.3088221589691805 T T T Sn
   0.0000000000000000    0.2506312421504440    0.3704614918786348 T T T Sn
   0.5000000000000000    0.2506312421504440    0.2990329204500633 T T T Sn
   0.2500000000000000    0.2506312421504440    0.3347472061643490 T T T Sn
   0.7500000000000000    0.2506312421504440    0.4061757775929205 T T T Sn
   0.0000000000000000    0.5691559117842644    0.3445364446834662 T T T Sn
   0.5000000000000000    0.5691559117842644    0.4159650161120376 F F F Sn
   0.2500000000000000    0.7506312421504440    0.4061757775929205 T T T Sn
   0.7500000000000000    0.7506312421504440    0.3347472061643490 T T T Sn
   0.0000000000000000    0.7506312421504440    0.2990329204500633 T T T Sn
   0.5000000000000000    0.7506312421504440    0.3704614918786348 T T T Sn
   0.0000000000000000    0.0003635500520360    0.5489946787217193 F F F Sr
   0.5000000000000000    0.0003635500520361    0.4775661072931479 F F F Sr
   0.2500000000000000    0.5003635500520360    0.4418518215788622 F F F Sr
   0.7500000000000000    0.5003635500520360    0.5132803930074336 F F F Sr
   0.0000000000000000    0.3412220488628178    0.4548316071232595 F F F Ni
   0.5000000000000000    0.3412220488628179    0.5262601785518310 F F F Ni
   0.2500000000000000    0.8412220488628178    0.4905458928375452 F F F Ni
   0.7500000000000000    0.8412220488628178    0.5619744642661167 F F F Ni
   0.2500000000000000    0.0691559117842644    0.5231078732548948 F F F Sn
   0.7500000000000000    0.0691559117842645    0.4516793018263233 F F F Sn
   0.0000000000000000    0.2506312421504440    0.5133186347357775 F F F Sn
   0.5000000000000000    0.2506312421504440    0.4418900633072061 F F F Sn
   0.2500000000000000    0.2506312421504440    0.4776043490214918 F F F Sn
   0.7500000000000000    0.2506312421504440    0.5490329204500632 F F F Sn
   0.0000000000000000    0.5691559117842644    0.4873935875406091 F F F Sn
   0.5000000000000000    0.5691559117842644    0.5588221589691805 F F F Sn
   0.2500000000000000    0.7506312421504440    0.5490329204500632 F F F Sn
   0.7500000000000000    0.7506312421504440    0.4776043490214918 F F F Sn
   0.0000000000000000    0.7506312421504440    0.4418900633072061 F F F Sn
   0.5000000000000000    0.7506312421504440    0.5133186347357775 F F F Sn
   0.0000000000000000    0.0003635500520360    0.6918518215788622 T T T Sr
   0.5000000000000000    0.0003635500520361    0.6204232501502907 T T T Sr
   0.2500000000000000    0.5003635500520360    0.5847089644360051 F F F Sr
   0.7500000000000000    0.5003635500520360    0.6561375358645765 T T T Sr
   0.0000000000000000    0.3412220488628178    0.5976887499804024 T T T Ni
   0.5000000000000000    0.3412220488628179    0.6691173214089738 T T T Ni
   0.2500000000000000    0.8412220488628178    0.6334030356946880 T T T Ni
   0.7500000000000000    0.8412220488628178    0.7048316071232595 T T T Ni
   0.2500000000000000    0.0691559117842644    0.6659650161120376 T T T Sn
   0.7500000000000000    0.0691559117842645    0.5945364446834662 F F F Sn
   0.0000000000000000    0.2506312421504440    0.6561757775929205 T T T Sn
   0.5000000000000000    0.2506312421504440    0.5847472061643491 F F F Sn
   0.2500000000000000    0.2506312421504440    0.6204614918786346 T T T Sn
   0.7500000000000000    0.2506312421504440    0.6918900633072061 T T T Sn
   0.0000000000000000    0.5691559117842644    0.6302507303977519 T T T Sn
   0.5000000000000000    0.5691559117842644    0.7016793018263233 T T T Sn
   0.2500000000000000    0.7506312421504440    0.6918900633072061 T T T Sn
   0.7500000000000000    0.7506312421504440    0.6204614918786346 T T T Sn
   0.0000000000000000    0.7506312421504440    0.5847472061643491 F F F Sn
   0.5000000000000000    0.7506312421504440    0.6561757775929205 T T T Sn
