Sr12 Ni12 Sn36
1.0
  11.0041598625360688    0.0000000000000000    0.0000000000000007
   0.0000000000000015    9.5673997947806004   -4.7836998973903002
   0.0000000000000000    0.0000000000000000   33.4858992817321095
Sr Ni Sn Sr Ni Sn Sr Ni Sn
4 4 12 4 4 12 4 4 12
Selective dynamics
direct
   0.9996364499479640    0.5000000000000000    0.3392857142857142 T T T Sr
   0.9996364499479640    0.0000000000000000    0.4107142857142857 F F F Sr
   0.4996364499479640    0.2500000000000000    0.3750000000000000 T T T Sr
   0.4996364499479640    0.7500000000000000    0.3035714285714285 T T T Sr
   0.6587779511371822    0.5000000000000000    0.3392857142857142 T T T Ni
   0.6587779511371822    0.0000000000000000    0.4107142857142857 F F F Ni
   0.1587779511371822    0.2500000000000000    0.3750000000000000 T T T Ni
   0.1587779511371822    0.7500000000000000    0.3035714285714285 T T T Ni
   0.9308440882157356    0.2500000000000000    0.3750000000000000 T T T Sn
   0.9308440882157356    0.7500000000000000    0.3035714285714285 T T T Sn
   0.7493687578495560    0.5000000000000000    0.4107142857142857 F F F Sn
   0.7493687578495560    0.0000000000000000    0.3392857142857142 T T T Sn
   0.7493687578495560    0.2500000000000000    0.3035714285714285 T T T Sn
   0.7493687578495560    0.7500000000000000    0.3750000000000000 T T T Sn
   0.4308440882157356    0.5000000000000000    0.3392857142857142 T T T Sn
   0.4308440882157356    0.0000000000000000    0.4107142857142857 F F F Sn
   0.2493687578495560    0.2500000000000000    0.3035714285714285 T T T Sn
   0.2493687578495561    0.7500000000000000    0.3750000000000000 T T T Sn
   0.2493687578495560    0.5000000000000000    0.4107142857142857 F F F Sn
   0.2493687578495561    0.0000000000000000    0.3392857142857142 T T T Sn
   0.9996364499479640    0.5000000000000000    0.4821428571428571 F F F Sr
   0.9996364499479640    0.0000000000000000    0.5535714285714286 F F F Sr
   0.4996364499479640    0.2500000000000000    0.5178571428571428 F F F Sr
   0.4996364499479640    0.7500000000000000    0.4464285714285714 F F F Sr
   0.6587779511371822    0.5000000000000000    0.4821428571428571 F F F Ni
   0.6587779511371822    0.0000000000000000    0.5535714285714286 F F F Ni
   0.1587779511371822    0.2500000000000000    0.5178571428571428 F F F Ni
   0.1587779511371822    0.7500000000000000    0.4464285714285714 F F F Ni
   0.9308440882157356    0.2500000000000000    0.5178571428571428 F F F Sn
   0.9308440882157356    0.7500000000000000    0.4464285714285714 F F F Sn
   0.7493687578495560    0.5000000000000000    0.5535714285714286 F F F Sn
   0.7493687578495560    0.0000000000000000    0.4821428571428571 F F F Sn
   0.7493687578495560    0.2500000000000000    0.4464285714285714 F F F Sn
   0.7493687578495560    0.7500000000000000    0.5178571428571428 F F F Sn
   0.4308440882157356    0.5000000000000000    0.4821428571428571 F F F Sn
   0.4308440882157356    0.0000000000000000    0.5535714285714286 F F F Sn
   0.2493687578495560    0.2500000000000000    0.4464285714285714 F F F Sn
   0.2493687578495561    0.7500000000000000    0.5178571428571428 F F F Sn
   0.2493687578495560    0.5000000000000000    0.5535714285714286 F F F Sn
   0.2493687578495561    0.0000000000000000    0.4821428571428571 F F F Sn
   0.9996364499479640    0.5000000000000000    0.6250000000000000 T T T Sr
   0.9996364499479640    0.0000000000000000    0.6964285714285714 T T T Sr
   0.4996364499479640    0.2500000000000000    0.6607142857142857 T T T Sr
   0.4996364499479640    0.7500000000000000    0.5892857142857142 F F F Sr
   0.6587779511371822    0.5000000000000000    0.6250000000000000 T T T Ni
   0.6587779511371822    0.0000000000000000    0.6964285714285714 T T T Ni
   0.1587779511371822    0.2500000000000000    0.6607142857142857 T T T Ni
   0.1587779511371822    0.7500000000000000    0.5892857142857142 F F F Ni
   0.9308440882157356    0.2500000000000000    0.6607142857142857 T T T Sn
   0.9308440882157356    0.7500000000000000    0.5892857142857142 F F F Sn
   0.7493687578495560    0.5000000000000000    0.6964285714285714 T T T Sn
   0.7493687578495560    0.0000000000000000    0.6250000000000000 T T T Sn
   0.7493687578495560    0.2500000000000000    0.5892857142857142 F F F Sn
   0.7493687578495560    0.7500000000000000    0.6607142857142857 T T T Sn
   0.4308440882157356    0.5000000000000000    0.6250000000000000 T T T Sn
   0.4308440882157356    0.0000000000000000    0.6964285714285714 T T T Sn
   0.2493687578495560    0.2500000000000000    0.5892857142857142 F F F Sn
   0.2493687578495561    0.7500000000000000    0.6607142857142857 T T T Sn
   0.2493687578495560    0.5000000000000000    0.6964285714285714 T T T Sn
   0.2493687578495561    0.0000000000000000    0.6250000000000000 T T T Sn
