Ca16 Sn32 Rh16
1.0
  14.0011779146031561    0.0000000000000000    0.0000000000000009
   5.4711653455117926    6.8314792808580442    7.6381403961114742
   0.0000000000000000    0.0000000000000000   38.1907019805573782
Ca Sn Rh Ca Sn Rh
8 16 8 8 16 8
Selective dynamics
direct
   0.0663406774288546    0.4336593225711454    0.3132681354857709 T T T Ca
   0.0663406774288546    0.9336593225711454    0.4132681354857709 T T T Ca
   0.4336593225711454    0.8163406774288546    0.3367318645142290 T T T Ca
   0.4336593225711454    0.3163406774288546    0.4367318645142291 F F F Ca
   0.5663406774288546    0.6836593225711454    0.4632681354857709 F F F Ca
   0.5663406774288546    0.1836593225711454    0.3632681354857710 T T T Ca
   0.9336593225711454    0.5663406774288546    0.3867318645142290 T T T Ca
   0.9336593225711454    0.0663406774288547    0.4867318645142290 F F F Ca
   0.3543921000258692    0.1456078999741308    0.4114713829374708 T T T Sn
   0.3543921000258692    0.6456078999741308    0.3114713829374708 T T T Sn
   0.1456078999741309    0.1043921000258691    0.4385286170625292 F F F Sn
   0.1456078999741309    0.6043921000258691    0.3385286170625292 T T T Sn
   0.1456078999741309    0.1043921000258691    0.3197145429271231 T T T Sn
   0.1456078999741309    0.6043921000258691    0.4197145429271231 T T T Sn
   0.3543921000258692    0.1456078999741308    0.3302854570728769 T T T Sn
   0.3543921000258692    0.6456078999741308    0.4302854570728769 F F F Sn
   0.8543921000258693    0.3956078999741308    0.3614713829374708 T T T Sn
   0.8543921000258693    0.8956078999741308    0.4614713829374708 F F F Sn
   0.6456078999741308    0.8543921000258692    0.4885286170625292 F F F Sn
   0.6456078999741308    0.3543921000258692    0.3885286170625292 T T T Sn
   0.6456078999741308    0.8543921000258692    0.3697145429271230 T T T Sn
   0.6456078999741308    0.3543921000258692    0.4697145429271231 F F F Sn
   0.8543921000258693    0.3956078999741308    0.4802854570728770 F F F Sn
   0.8543921000258693    0.8956078999741308    0.3802854570728769 T T T Sn
   0.2896927778874883    0.9603072221125117    0.4079385555774977 T T T Rh
   0.2896927778874883    0.4603072221125118    0.3079385555774977 T T T Rh
   0.2103072221125118    0.2896927778874883    0.4420614444225023 F F F Rh
   0.2103072221125118    0.7896927778874883    0.3420614444225024 T T T Rh
   0.7896927778874884    0.7103072221125117    0.4579385555774976 F F F Rh
   0.7896927778874884    0.2103072221125117    0.3579385555774977 T T T Rh
   0.7103072221125117    0.5396927778874883    0.3920614444225023 T T T Rh
   0.7103072221125117    0.0396927778874883    0.4920614444225023 F F F Rh
   0.0663406774288546    0.4336593225711454    0.5132681354857709 F F F Ca
   0.0663406774288546    0.9336593225711454    0.6132681354857710 T T T Ca
   0.4336593225711454    0.8163406774288546    0.5367318645142291 F F F Ca
   0.4336593225711454    0.3163406774288546    0.6367318645142290 T T T Ca
   0.5663406774288546    0.6836593225711454    0.6632681354857710 T T T Ca
   0.5663406774288546    0.1836593225711454    0.5632681354857709 F F F Ca
   0.9336593225711454    0.5663406774288546    0.5867318645142290 T T T Ca
   0.9336593225711454    0.0663406774288547    0.6867318645142291 T T T Ca
   0.3543921000258692    0.1456078999741308    0.6114713829374707 T T T Sn
   0.3543921000258692    0.6456078999741308    0.5114713829374709 F F F Sn
   0.1456078999741309    0.1043921000258691    0.6385286170625293 T T T Sn
   0.1456078999741309    0.6043921000258691    0.5385286170625292 F F F Sn
   0.1456078999741309    0.1043921000258691    0.5197145429271230 F F F Sn
   0.1456078999741309    0.6043921000258691    0.6197145429271231 T T T Sn
   0.3543921000258692    0.1456078999741308    0.5302854570728769 F F F Sn
   0.3543921000258692    0.6456078999741308    0.6302854570728769 T T T Sn
   0.8543921000258693    0.3956078999741308    0.5614713829374708 F F F Sn
   0.8543921000258693    0.8956078999741308    0.6614713829374708 T T T Sn
   0.6456078999741308    0.8543921000258692    0.6885286170625292 T T T Sn
   0.6456078999741308    0.3543921000258692    0.5885286170625292 T T T Sn
   0.6456078999741308    0.8543921000258692    0.5697145429271231 F F F Sn
   0.6456078999741308    0.3543921000258692    0.6697145429271232 T T T Sn
   0.8543921000258693    0.3956078999741308    0.6802854570728769 T T T Sn
   0.8543921000258693    0.8956078999741308    0.5802854570728769 T T T Sn
   0.2896927778874883    0.9603072221125117    0.6079385555774977 T T T Rh
   0.2896927778874883    0.4603072221125118    0.5079385555774977 F F F Rh
   0.2103072221125118    0.2896927778874883    0.6420614444225023 T T T Rh
   0.2103072221125118    0.7896927778874883    0.5420614444225024 F F F Rh
   0.7896927778874884    0.7103072221125117    0.6579385555774977 T T T Rh
   0.7896927778874884    0.2103072221125117    0.5579385555774976 F F F Rh
   0.7103072221125117    0.5396927778874883    0.5920614444225023 T T T Rh
   0.7103072221125117    0.0396927778874883    0.6920614444225024 T T T Rh
