Ca8 Sn16 Rh8
1.0
   4.3761501174754587    0.0000000000000000    0.0000000000000003
  -0.0000000000000031   10.9284135899795309    7.6381403961114742
   0.0000000000000000    0.0000000000000000   38.1907019805573782
Ca Sn Rh Ca Sn Rh
4 8 4 4 8 4
Selective dynamics
direct
   0.0000000000000000    0.0663406774288546    0.3242318645142291 T T T Ca
   0.5000000000000000    0.4336593225711454    0.3507681354857710 T T T Ca
   0.5000000000000000    0.5663406774288546    0.4242318645142291 F F F Ca
   0.0000000000000000    0.9336593225711454    0.4507681354857709 F F F Ca
   0.0000000000000000    0.3543921000258692    0.4260286170625293 F F F Sn
   0.5000000000000000    0.1456078999741309    0.4489713829374708 F F F Sn
   0.5000000000000000    0.1456078999741309    0.3677854570728769 T T T Sn
   0.0000000000000000    0.3543921000258692    0.3072145429271231 T T T Sn
   0.5000000000000000    0.8543921000258693    0.3260286170625292 T T T Sn
   0.0000000000000000    0.6456078999741308    0.3489713829374708 T T T Sn
   0.0000000000000000    0.6456078999741308    0.4677854570728769 F F F Sn
   0.5000000000000000    0.8543921000258693    0.4072145429271231 F F F Sn
   0.5000000000000000    0.2896927778874883    0.4795614444225024 F F F Rh
   0.0000000000000000    0.2103072221125118    0.3954385555774977 T T T Rh
   0.0000000000000000    0.7896927778874884    0.3795614444225024 T T T Rh
   0.5000000000000000    0.7103072221125117    0.4954385555774977 F F F Rh
   0.0000000000000000    0.0663406774288546    0.5242318645142291 F F F Ca
   0.5000000000000000    0.4336593225711454    0.5507681354857710 F F F Ca
   0.5000000000000000    0.5663406774288546    0.6242318645142291 T T T Ca
   0.0000000000000000    0.9336593225711454    0.6507681354857709 T T T Ca
   0.0000000000000000    0.3543921000258692    0.6260286170625293 T T T Sn
   0.5000000000000000    0.1456078999741309    0.6489713829374708 T T T Sn
   0.5000000000000000    0.1456078999741309    0.5677854570728770 F F F Sn
   0.0000000000000000    0.3543921000258692    0.5072145429271231 F F F Sn
   0.5000000000000000    0.8543921000258693    0.5260286170625292 F F F Sn
   0.0000000000000000    0.6456078999741308    0.5489713829374708 F F F Sn
   0.0000000000000000    0.6456078999741308    0.6677854570728770 T T T Sn
   0.5000000000000000    0.8543921000258693    0.6072145429271231 T T T Sn
   0.5000000000000000    0.2896927778874883    0.6795614444225024 T T T Rh
   0.0000000000000000    0.2103072221125118    0.5954385555774977 F F F Rh
   0.0000000000000000    0.7896927778874884    0.5795614444225023 F F F Rh
   0.5000000000000000    0.7103072221125117    0.6954385555774977 T T T Rh
