Hf32 Al32 Ru64
1.0
  12.5287490941066544    0.0000000000000000   -6.2643745470533272
  -0.0000000000000035   12.5287490941066544   -6.2643745470533272
   0.0000000000000000    0.0000000000000000   31.3218727352666413
Hf Al Ru Hf Al Ru
16 16 32 16 16 32
Selective dynamics
direct
   0.5000000000000000    0.4999999999999999    0.4750000000000000 F F F Hf
   0.0000000000000000    0.0000000000000000    0.4750000000000000 F F F Hf
   0.0000000000000000    0.5000000000000000    0.3750000000000000 T T T Hf
   0.5000000000000000    0.0000000000000000    0.3750000000000000 T T T Hf
   0.7500000000000000    0.7499999999999999    0.3749999999999999 T T T Hf
   0.2500000000000000    0.2500000000000000    0.3750000000000000 T T T Hf
   0.2500000000000000    0.7499999999999999    0.4750000000000000 F F F Hf
   0.7500000000000000    0.2500000000000000    0.4750000000000000 F F F Hf
   0.5000000000000000    0.7499999999999999    0.4249999999999999 T T T Hf
   0.0000000000000000    0.2500000000000000    0.4250000000000000 T T T Hf
   0.0000000000000000    0.7500000000000000    0.3250000000000000 T T T Hf
   0.5000000000000000    0.2500000000000000    0.3250000000000000 T T T Hf
   0.7500000000000000    0.4999999999999999    0.4249999999999999 T T T Hf
   0.2500000000000000    0.0000000000000000    0.4250000000000000 T T T Hf
   0.2500000000000000    0.5000000000000000    0.3250000000000000 T T T Hf
   0.7500000000000000    0.0000000000000000    0.3250000000000000 T T T Hf
   0.5000000000000000    0.4999999999999999    0.3750000000000000 T T T Al
   0.0000000000000000    0.0000000000000000    0.3750000000000000 T T T Al
   0.0000000000000000    0.5000000000000000    0.4750000000000000 F F F Al
   0.5000000000000000    0.0000000000000000    0.4750000000000000 F F F Al
   0.7500000000000000    0.7500000000000000    0.4750000000000000 F F F Al
   0.2500000000000000    0.2500000000000000    0.4750000000000000 F F F Al
   0.2500000000000000    0.7500000000000001    0.3750000000000000 T T T Al
   0.7500000000000000    0.2500000000000000    0.3749999999999999 T T T Al
   0.5000000000000000    0.7499999999999999    0.3250000000000000 T T T Al
   0.0000000000000000    0.2500000000000000    0.3250000000000000 T T T Al
   0.0000000000000000    0.7500000000000000    0.4250000000000000 T T T Al
   0.5000000000000000    0.2500000000000000    0.4249999999999999 T T T Al
   0.7500000000000000    0.4999999999999999    0.3250000000000000 T T T Al
   0.2500000000000000    0.0000000000000000    0.3250000000000000 T T T Al
   0.2500000000000000    0.5000000000000000    0.4249999999999999 T T T Al
   0.7500000000000000    0.0000000000000000    0.4249999999999999 T T T Al
   0.8750000000000000    0.8749999999999999    0.4750000000000000 F F F Ru
   0.3750000000000000    0.3750000000000000    0.4750000000000000 F F F Ru
   0.3750000000000000    0.8749999999999999    0.3749999999999999 T T T Ru
   0.8750000000000000    0.3749999999999999    0.3749999999999999 T T T Ru
   0.6250000000000000    0.8749999999999999    0.4249999999999999 T T T Ru
   0.1250000000000000    0.3749999999999999    0.4250000000000000 T T T Ru
   0.1250000000000000    0.8750000000000000    0.3250000000000000 T T T Ru
   0.6250000000000000    0.3749999999999999    0.3250000000000000 T T T Ru
   0.6250000000000000    0.6250000000000000    0.3750000000000000 T T T Ru
   0.1250000000000000    0.1250000000000000    0.3750000000000000 T T T Ru
   0.1250000000000000    0.6250000000000000    0.4750000000000000 F F F Ru
   0.6250000000000000    0.1250000000000000    0.4750000000000000 F F F Ru
   0.8750000000000000    0.6249999999999999    0.4249999999999999 T T T Ru
   0.3750000000000000    0.1250000000000000    0.4249999999999999 T T T Ru
   0.3750000000000000    0.6250000000000000    0.3250000000000000 T T T Ru
   0.8750000000000000    0.1250000000000000    0.3250000000000000 T T T Ru
   0.8750000000000000    0.6250000000000000    0.3250000000000000 T T T Ru
   0.3750000000000000    0.1250000000000000    0.3250000000000000 T T T Ru
   0.3750000000000000    0.6250000000000000    0.4250000000000000 T T T Ru
   0.8750000000000000    0.1250000000000000    0.4249999999999999 T T T Ru
   0.6250000000000000    0.6250000000000000    0.4750000000000000 F F F Ru
   0.1250000000000000    0.1250000000000000    0.4750000000000000 F F F Ru
   0.1250000000000000    0.6250000000000000    0.3750000000000000 T T T Ru
   0.6250000000000000    0.1250000000000000    0.3749999999999999 T T T Ru
   0.6250000000000000    0.8749999999999999    0.3250000000000000 T T T Ru
   0.1250000000000000    0.3750000000000001    0.3250000000000000 T T T Ru
   0.1250000000000000    0.8750000000000000    0.4249999999999999 T T T Ru
   0.6250000000000000    0.3750000000000000    0.4249999999999999 T T T Ru
   0.8750000000000000    0.8749999999999999    0.3749999999999999 T T T Ru
   0.3750000000000000    0.3750000000000000    0.3750000000000000 T T T Ru
   0.3750000000000000    0.8749999999999999    0.4750000000000000 F F F Ru
   0.8750000000000000    0.3749999999999999    0.4750000000000000 F F F Ru
   0.5000000000000000    0.4999999999999999    0.6750000000000000 T T T Hf
   0.0000000000000000    0.0000000000000000    0.6750000000000000 T T T Hf
   0.0000000000000000    0.5000000000000000    0.5750000000000000 T T T Hf
   0.5000000000000000    0.0000000000000000    0.5750000000000000 T T T Hf
   0.7500000000000000    0.7499999999999999    0.5750000000000000 T T T Hf
   0.2500000000000000    0.2500000000000000    0.5750000000000000 T T T Hf
   0.2500000000000000    0.7499999999999999    0.6750000000000000 T T T Hf
   0.7500000000000000    0.2500000000000000    0.6750000000000000 T T T Hf
   0.5000000000000000    0.7499999999999999    0.6250000000000000 T T T Hf
   0.0000000000000000    0.2500000000000000    0.6250000000000000 T T T Hf
   0.0000000000000000    0.7500000000000000    0.5250000000000000 F F F Hf
   0.5000000000000000    0.2500000000000000    0.5250000000000000 F F F Hf
   0.7500000000000000    0.4999999999999999    0.6250000000000000 T T T Hf
   0.2500000000000000    0.0000000000000000    0.6250000000000000 T T T Hf
   0.2500000000000000    0.5000000000000000    0.5250000000000000 F F F Hf
   0.7500000000000000    0.0000000000000000    0.5249999999999999 F F F Hf
   0.5000000000000000    0.4999999999999999    0.5750000000000000 T T T Al
   0.0000000000000000    0.0000000000000000    0.5750000000000000 T T T Al
   0.0000000000000000    0.5000000000000000    0.6750000000000000 T T T Al
   0.5000000000000000    0.0000000000000000    0.6750000000000000 T T T Al
   0.7500000000000000    0.7500000000000000    0.6750000000000000 T T T Al
   0.2500000000000000    0.2500000000000000    0.6750000000000000 T T T Al
   0.2500000000000000    0.7500000000000001    0.5750000000000000 T T T Al
   0.7500000000000000    0.2500000000000000    0.5750000000000000 T T T Al
   0.5000000000000000    0.7499999999999999    0.5249999999999999 F F F Al
   0.0000000000000000    0.2500000000000000    0.5250000000000000 F F F Al
   0.0000000000000000    0.7500000000000000    0.6250000000000000 T T T Al
   0.5000000000000000    0.2500000000000000    0.6250000000000000 T T T Al
   0.7500000000000000    0.4999999999999999    0.5249999999999999 F F F Al
   0.2500000000000000    0.0000000000000000    0.5250000000000000 F F F Al
   0.2500000000000000    0.5000000000000000    0.6250000000000000 T T T Al
   0.7500000000000000    0.0000000000000000    0.6250000000000000 T T T Al
   0.8750000000000000    0.8749999999999999    0.6750000000000000 T T T Ru
   0.3750000000000000    0.3750000000000000    0.6750000000000000 T T T Ru
   0.3750000000000000    0.8749999999999999    0.5750000000000000 T T T Ru
   0.8750000000000000    0.3749999999999999    0.5750000000000000 T T T Ru
   0.6250000000000000    0.8749999999999999    0.6250000000000000 T T T Ru
   0.1250000000000000    0.3749999999999999    0.6250000000000000 T T T Ru
   0.1250000000000000    0.8750000000000000    0.5250000000000000 F F F Ru
   0.6250000000000000    0.3749999999999999    0.5249999999999999 F F F Ru
   0.6250000000000000    0.6250000000000000    0.5750000000000000 T T T Ru
   0.1250000000000000    0.1250000000000000    0.5750000000000000 T T T Ru
   0.1250000000000000    0.6250000000000000    0.6750000000000000 T T T Ru
   0.6250000000000000    0.1250000000000000    0.6750000000000000 T T T Ru
   0.8750000000000000    0.6249999999999999    0.6250000000000000 T T T Ru
   0.3750000000000000    0.1250000000000000    0.6250000000000000 T T T Ru
   0.3750000000000000    0.6250000000000000    0.5250000000000000 F F F Ru
   0.8750000000000000    0.1250000000000000    0.5249999999999999 F F F Ru
   0.8750000000000000    0.6250000000000000    0.5249999999999999 F F F Ru
   0.3750000000000000    0.1250000000000000    0.5250000000000000 F F F Ru
   0.3750000000000000    0.6250000000000000    0.6250000000000000 T T T Ru
   0.8750000000000000    0.1250000000000000    0.6250000000000000 T T T Ru
   0.6250000000000000    0.6250000000000000    0.6750000000000000 T T T Ru
   0.1250000000000000    0.1250000000000000    0.6750000000000000 T T T Ru
   0.1250000000000000    0.6250000000000000    0.5750000000000000 T T T Ru
   0.6250000000000000    0.1250000000000000    0.5750000000000000 T T T Ru
   0.6250000000000000    0.8749999999999999    0.5249999999999999 F F F Ru
   0.1250000000000000    0.3750000000000001    0.5250000000000000 F F F Ru
   0.1250000000000000    0.8750000000000000    0.6250000000000000 T T T Ru
   0.6250000000000000    0.3750000000000000    0.6250000000000000 T T T Ru
   0.8750000000000000    0.8749999999999999    0.5750000000000000 T T T Ru
   0.3750000000000000    0.3750000000000000    0.5750000000000000 T T T Ru
   0.3750000000000000    0.8749999999999999    0.6750000000000000 T T T Ru
   0.8750000000000000    0.3749999999999999    0.6750000000000000 T T T Ru
