Hf60 Ga20 Fe10
1.0
  20.5673507400916407    0.0000000000000000    0.0000000000000013
   5.8763859257404683    5.0890994941325802    6.6316936028883147
   0.0000000000000000    0.0000000000000000   43.1060084187740458
Hf Ga Fe Hf Ga Fe Hf Ga Fe Hf Ga Fe Hf Ga Fe
12 4 2 12 4 2 12 4 2 12 4 2 12 4 2
Selective dynamics
direct
   0.4999999999999999    0.2505966104364674    0.3759765898473811 T T T Hf
   0.0000000000000000    0.7505966104364674    0.3759765898473811 T T T Hf
   0.6247016947817663    0.3752983052182337    0.3567917137271094 T T T Hf
   0.1247016947817663    0.8752983052182337    0.3567917137271094 T T T Hf
   0.8752983052182337    0.3741050843452989    0.3569752861690993 T T T Hf
   0.3752983052182337    0.8741050843452989    0.3569752861690993 T T T Hf
   0.4999999999999999    0.8975332626326846    0.3149094125864246 T T T Hf
   0.0000000000000000    0.3975332626326846    0.3149094125864246 T T T Hf
   0.8012333686836577    0.1987666313163423    0.3454888943274004 T T T Hf
   0.3012333686836576    0.6987666313163423    0.3454888943274004 T T T Hf
   0.6987666313163423    0.9037001060509731    0.3139606674451495 T T T Hf
   0.1987666313163423    0.4037001060509731    0.3139606674451495 T T T Hf
   0.8333333333333333    0.8333333333333333    0.3632478632478633 T T T Ga
   0.3333333333333333    0.3333333333333333    0.3632478632478633 T T T Ga
   0.6666666666666666    0.6666666666666667    0.3119658119658120 T T T Ga
   0.1666666666666666    0.1666666666666666    0.3119658119658120 T T T Ga
   0.5000000000000000    0.5000000000000000    0.3760683760683761 T T T Fe
   0.0000000000000000    0.0000000000000000    0.3760683760683761 T T T Fe
   0.4999999999999999    0.2505966104364674    0.4528996667704580 F F F Hf
   0.0000000000000000    0.7505966104364674    0.4528996667704580 F F F Hf
   0.6247016947817663    0.3752983052182337    0.4337147906501863 F F F Hf
   0.1247016947817663    0.8752983052182337    0.4337147906501863 F F F Hf
   0.8752983052182337    0.3741050843452989    0.4338983630921763 F F F Hf
   0.3752983052182337    0.8741050843452989    0.4338983630921763 F F F Hf
   0.4999999999999999    0.8975332626326846    0.3918324895095016 T T T Hf
   0.0000000000000000    0.3975332626326846    0.3918324895095016 T T T Hf
   0.8012333686836577    0.1987666313163423    0.4224119712504772 T T T Hf
   0.3012333686836576    0.6987666313163423    0.4224119712504773 T T T Hf
   0.6987666313163423    0.9037001060509731    0.3908837443682264 T T T Hf
   0.1987666313163423    0.4037001060509731    0.3908837443682264 T T T Hf
   0.8333333333333333    0.8333333333333333    0.4401709401709402 F F F Ga
   0.3333333333333333    0.3333333333333333    0.4401709401709402 F F F Ga
   0.6666666666666666    0.6666666666666667    0.3888888888888889 T T T Ga
   0.1666666666666666    0.1666666666666666    0.3888888888888889 T T T Ga
   0.5000000000000000    0.5000000000000000    0.4529914529914530 F F F Fe
   0.0000000000000000    0.0000000000000000    0.4529914529914530 F F F Fe
   0.4999999999999999    0.2505966104364674    0.5298227436935350 F F F Hf
   0.0000000000000000    0.7505966104364674    0.5298227436935350 F F F Hf
   0.6247016947817663    0.3752983052182337    0.5106378675732632 F F F Hf
   0.1247016947817663    0.8752983052182337    0.5106378675732632 F F F Hf
   0.8752983052182337    0.3741050843452989    0.5108214400152532 F F F Hf
   0.3752983052182337    0.8741050843452989    0.5108214400152532 F F F Hf
   0.4999999999999999    0.8975332626326846    0.4687555664325785 F F F Hf
   0.0000000000000000    0.3975332626326846    0.4687555664325785 F F F Hf
   0.8012333686836577    0.1987666313163423    0.4993350481735542 F F F Hf
   0.3012333686836576    0.6987666313163423    0.4993350481735542 F F F Hf
   0.6987666313163423    0.9037001060509731    0.4678068212913034 F F F Hf
   0.1987666313163423    0.4037001060509731    0.4678068212913034 F F F Hf
   0.8333333333333333    0.8333333333333333    0.5170940170940171 F F F Ga
   0.3333333333333333    0.3333333333333333    0.5170940170940171 F F F Ga
   0.6666666666666666    0.6666666666666667    0.4658119658119658 F F F Ga
   0.1666666666666666    0.1666666666666666    0.4658119658119658 F F F Ga
   0.5000000000000000    0.5000000000000000    0.5299145299145299 F F F Fe
   0.0000000000000000    0.0000000000000000    0.5299145299145299 F F F Fe
   0.4999999999999999    0.2505966104364674    0.6067458206166119 T T T Hf
   0.0000000000000000    0.7505966104364674    0.6067458206166119 T T T Hf
   0.6247016947817663    0.3752983052182337    0.5875609444963401 T T T Hf
   0.1247016947817663    0.8752983052182337    0.5875609444963401 T T T Hf
   0.8752983052182337    0.3741050843452989    0.5877445169383302 T T T Hf
   0.3752983052182337    0.8741050843452989    0.5877445169383302 T T T Hf
   0.4999999999999999    0.8975332626326846    0.5456786433556554 F F F Hf
   0.0000000000000000    0.3975332626326846    0.5456786433556554 F F F Hf
   0.8012333686836577    0.1987666313163423    0.5762581250966311 T T T Hf
   0.3012333686836576    0.6987666313163423    0.5762581250966312 T T T Hf
   0.6987666313163423    0.9037001060509731    0.5447298982143802 F F F Hf
   0.1987666313163423    0.4037001060509731    0.5447298982143802 F F F Hf
   0.8333333333333333    0.8333333333333333    0.5940170940170941 T T T Ga
   0.3333333333333333    0.3333333333333333    0.5940170940170941 T T T Ga
   0.6666666666666666    0.6666666666666667    0.5427350427350428 F F F Ga
   0.1666666666666666    0.1666666666666666    0.5427350427350428 F F F Ga
   0.5000000000000000    0.5000000000000000    0.6068376068376069 T T T Fe
   0.0000000000000000    0.0000000000000000    0.6068376068376069 T T T Fe
   0.4999999999999999    0.2505966104364674    0.6836688975396888 T T T Hf
   0.0000000000000000    0.7505966104364674    0.6836688975396888 T T T Hf
   0.6247016947817663    0.3752983052182337    0.6644840214194171 T T T Hf
   0.1247016947817663    0.8752983052182337    0.6644840214194171 T T T Hf
   0.8752983052182337    0.3741050843452989    0.6646675938614071 T T T Hf
   0.3752983052182337    0.8741050843452989    0.6646675938614071 T T T Hf
   0.4999999999999999    0.8975332626326846    0.6226017202787324 T T T Hf
   0.0000000000000000    0.3975332626326846    0.6226017202787324 T T T Hf
   0.8012333686836577    0.1987666313163423    0.6531812020197081 T T T Hf
   0.3012333686836576    0.6987666313163423    0.6531812020197081 T T T Hf
   0.6987666313163423    0.9037001060509731    0.6216529751374572 T T T Hf
   0.1987666313163423    0.4037001060509731    0.6216529751374572 T T T Hf
   0.8333333333333333    0.8333333333333333    0.6709401709401710 T T T Ga
   0.3333333333333333    0.3333333333333333    0.6709401709401710 T T T Ga
   0.6666666666666666    0.6666666666666667    0.6196581196581197 T T T Ga
   0.1666666666666666    0.1666666666666666    0.6196581196581197 T T T Ga
   0.5000000000000000    0.5000000000000000    0.6837606837606838 T T T Fe
   0.0000000000000000    0.0000000000000000    0.6837606837606838 T T T Fe
