Mn12 Al12 Ge12
1.0
   3.8932691512541737    0.0000000000000000    0.0000000000000002
  -0.0000000000000022    7.7865383025083474    5.9224615881911298
   0.0000000000000000    0.0000000000000000   41.4572311173379120
Mn Al Ge Mn Al Ge Mn Al Ge
4 4 4 4 4 4 4 4 4
Selective dynamics
direct
   0.5000000000000000    0.2500000000000000    0.3869047619047619 F F F Mn
   0.5000000000000000    0.7500000000000000    0.3154761904761905 T T T Mn
   0.0000000000000000    0.5000000000000000    0.3511904761904762 T T T Mn
   0.0000000000000000    0.0000000000000000    0.4226190476190477 F F F Mn
   0.5000000000000000    0.5000000000000000    0.3090959502625896 T T T Al
   0.5000000000000000    0.0000000000000000    0.3805245216911610 F F F Al
   0.0000000000000000    0.2500000000000000    0.2861421449755057 T T T Al
   0.0000000000000000    0.7500000000000000    0.3575707164040771 T T T Al
   0.0000000000000000    0.2500000000000000    0.3471962398589532 T T T Ge
   0.0000000000000000    0.7500000000000000    0.4186248112875247 F F F Ge
   0.5000000000000000    0.5000000000000000    0.3908989982362849 F F F Ge
   0.5000000000000000    0.0000000000000000    0.3194704268077135 T T T Ge
   0.5000000000000000    0.2500000000000000    0.5297619047619048 F F F Mn
   0.5000000000000000    0.7500000000000000    0.4583333333333334 F F F Mn
   0.0000000000000000    0.5000000000000000    0.4940476190476191 F F F Mn
   0.0000000000000000    0.0000000000000000    0.5654761904761905 F F F Mn
   0.5000000000000000    0.5000000000000000    0.4519530931197324 F F F Al
   0.5000000000000000    0.0000000000000000    0.5233816645483038 F F F Al
   0.0000000000000000    0.2500000000000000    0.4289992878326486 F F F Al
   0.0000000000000000    0.7500000000000000    0.5004278592612200 F F F Al
   0.0000000000000000    0.2500000000000000    0.4900533827160961 F F F Ge
   0.0000000000000000    0.7500000000000000    0.5614819541446676 F F F Ge
   0.5000000000000000    0.5000000000000000    0.5337561410934277 F F F Ge
   0.5000000000000000    0.0000000000000000    0.4623275696648563 F F F Ge
   0.5000000000000000    0.2500000000000000    0.6726190476190477 T T T Mn
   0.5000000000000000    0.7500000000000000    0.6011904761904762 F F F Mn
   0.0000000000000000    0.5000000000000000    0.6369047619047619 T T T Mn
   0.0000000000000000    0.0000000000000000    0.7083333333333333 T T T Mn
   0.5000000000000000    0.5000000000000000    0.5948102359768752 F F F Al
   0.5000000000000000    0.0000000000000000    0.6662388074054466 T T T Al
   0.0000000000000000    0.2500000000000000    0.5718564306897914 F F F Al
   0.0000000000000000    0.7500000000000000    0.6432850021183629 T T T Al
   0.0000000000000000    0.2500000000000000    0.6329105255732390 T T T Ge
   0.0000000000000000    0.7500000000000000    0.7043390970018104 T T T Ge
   0.5000000000000000    0.5000000000000000    0.6766132839505705 T T T Ge
   0.5000000000000000    0.0000000000000000    0.6051847125219991 F F F Ge
