K36 Cd9 As18
1.0
   5.0591837084732951    0.0000000000000000   -2.9209210759668278
   0.0000000000000108   28.1409338095273220   11.6836843038673077
   0.0000000000000000    0.0000000000000000   40.8928950635355690
K Cd As K Cd As K Cd As
12 3 6 12 3 6 12 3 6
Selective dynamics
direct
   0.0000000000000000    0.2082814768604588    0.3384501902847669 T T T K
   0.3333333333333333    0.1250518564728745    0.3146110342050290 T T T K
   0.6666666666666666    0.0585301874953312    0.2859981777224224 T T T K
   0.6666666666666667    0.2748031458380021    0.3670630467673735 T T T K
   0.3333333333333333    0.5416148101937921    0.3384501902847669 T T T K
   0.6666666666666666    0.4583851898062078    0.3146110342050290 T T T K
   0.0000000000000000    0.3918635208286644    0.2859981777224224 T T T K
   0.0000000000000000    0.6081364791713354    0.3670630467673736 T T T K
   0.6666666666666666    0.8749481435271252    0.3384501902847669 T T T K
   0.0000000000000000    0.7917185231395412    0.3146110342050290 T T T K
   0.3333333333333333    0.7251968541619979    0.2859981777224224 T T T K
   0.3333333333333335    0.9414698125046688    0.3670630467673736 T T T K
   0.0000000000000000    0.0000000000000000    0.3979591836734694 F F F Cd
   0.3333333333333333    0.3333333333333333    0.3979591836734694 F F F Cd
   0.6666666666666666    0.6666666666666666    0.3979591836734694 F F F Cd
   0.3333333333333333    0.2438002161719600    0.4235400742910046 F F F As
   0.0000000000000000    0.0895331171613734    0.3723782930559341 T T T As
   0.6666666666666666    0.5771335495052932    0.4235400742910046 F F F As
   0.3333333333333333    0.4228664504947066    0.3723782930559341 T T T As
   0.0000000000000000    0.9104668828386266    0.4235400742910046 F F F As
   0.6666666666666666    0.7561997838280400    0.3723782930559342 T T T As
   0.0000000000000000    0.2082814768604588    0.4813073331419097 F F F K
   0.3333333333333333    0.1250518564728745    0.4574681770621719 F F F K
   0.6666666666666666    0.0585301874953312    0.4288553205795652 F F F K
   0.6666666666666667    0.2748031458380021    0.5099201896245164 F F F K
   0.3333333333333333    0.5416148101937921    0.4813073331419097 F F F K
   0.6666666666666666    0.4583851898062078    0.4574681770621719 F F F K
   0.0000000000000000    0.3918635208286644    0.4288553205795652 F F F K
   0.0000000000000000    0.6081364791713354    0.5099201896245164 F F F K
   0.6666666666666666    0.8749481435271252    0.4813073331419098 F F F K
   0.0000000000000000    0.7917185231395412    0.4574681770621719 F F F K
   0.3333333333333333    0.7251968541619979    0.4288553205795652 F F F K
   0.3333333333333335    0.9414698125046688    0.5099201896245164 F F F K
   0.0000000000000000    0.0000000000000000    0.5408163265306123 F F F Cd
   0.3333333333333333    0.3333333333333333    0.5408163265306123 F F F Cd
   0.6666666666666666    0.6666666666666666    0.5408163265306123 F F F Cd
   0.3333333333333333    0.2438002161719600    0.5663972171481475 F F F As
   0.0000000000000000    0.0895331171613734    0.5152354359130770 F F F As
   0.6666666666666666    0.5771335495052932    0.5663972171481475 F F F As
   0.3333333333333333    0.4228664504947066    0.5152354359130770 F F F As
   0.0000000000000000    0.9104668828386266    0.5663972171481475 F F F As
   0.6666666666666666    0.7561997838280400    0.5152354359130770 F F F As
   0.0000000000000000    0.2082814768604588    0.6241644759990526 T T T K
   0.3333333333333333    0.1250518564728745    0.6003253199193147 F F F K
   0.6666666666666666    0.0585301874953312    0.5717124634367081 F F F K
   0.6666666666666667    0.2748031458380021    0.6527773324816593 T T T K
   0.3333333333333333    0.5416148101937921    0.6241644759990526 T T T K
   0.6666666666666666    0.4583851898062078    0.6003253199193147 F F F K
   0.0000000000000000    0.3918635208286644    0.5717124634367081 F F F K
   0.0000000000000000    0.6081364791713354    0.6527773324816593 T T T K
   0.6666666666666666    0.8749481435271252    0.6241644759990526 T T T K
   0.0000000000000000    0.7917185231395412    0.6003253199193147 F F F K
   0.3333333333333333    0.7251968541619979    0.5717124634367081 F F F K
   0.3333333333333335    0.9414698125046688    0.6527773324816593 T T T K
   0.0000000000000000    0.0000000000000000    0.6836734693877551 T T T Cd
   0.3333333333333333    0.3333333333333333    0.6836734693877551 T T T Cd
   0.6666666666666666    0.6666666666666666    0.6836734693877551 T T T Cd
   0.3333333333333333    0.2438002161719600    0.7092543600052903 T T T As
   0.0000000000000000    0.0895331171613734    0.6580925787702199 T T T As
   0.6666666666666666    0.5771335495052932    0.7092543600052903 T T T As
   0.3333333333333333    0.4228664504947066    0.6580925787702199 T T T As
   0.0000000000000000    0.9104668828386266    0.7092543600052903 T T T As
   0.6666666666666666    0.7561997838280400    0.6580925787702199 T T T As
