Ca18 Ag18 As18
1.0
   4.3113135422009723    0.0000000000000000    0.0000000000000003
   0.0000000000000020   12.5629519367914693  -14.5064473650457728
   0.0000000000000000    0.0000000000000000   50.7725657776601977
Ca Ag As Ca Ag As Ca Ag As
6 6 6 6 6 6 6 6 6
Selective dynamics
direct
   0.5000000000000000    0.2066822416762939    0.4303196853188356 F F F Ca
   0.5000000000000000    0.7066822416762939    0.3588911138902642 T T T Ca
   0.5000000000000000    0.2933177583237061    0.3836441186466677 T T T Ca
   0.5000000000000000    0.7933177583237061    0.3122155472180962 T T T Ca
   0.5000000000000000    0.5000000000000000    0.3884171484154491 F F F Ca
   0.5000000000000000    0.0000000000000000    0.3169885769868776 T T T Ca
   0.0000000000000000    0.3749067602233964    0.3114946165398503 T T T Ag
   0.0000000000000000    0.8749067602233964    0.3829231879684217 T T T Ag
   0.0000000000000000    0.1250932397766036    0.3115478964121952 T T T Ag
   0.0000000000000000    0.6250932397766036    0.3829764678407666 T T T Ag
   0.0000000000000000    0.5000000000000000    0.2936241537146211 T T T Ag
   0.0000000000000000    0.0000000000000000    0.3650527251431926 T T T Ag
   0.5000000000000000    0.5000000000000000    0.3293650793650794 T T T As
   0.5000000000000000    0.0000000000000000    0.4007936507936508 F F F As
   0.0000000000000000    0.1666666666666667    0.3769841269841270 T T T As
   0.0000000000000000    0.6666666666666667    0.3055555555555555 T T T As
   0.0000000000000000    0.3333333333333333    0.3531746031746031 T T T As
   0.0000000000000000    0.8333333333333334    0.4246031746031745 F F F As
   0.5000000000000000    0.2066822416762939    0.5731768281759785 F F F Ca
   0.5000000000000000    0.7066822416762939    0.5017482567474070 F F F Ca
   0.5000000000000000    0.2933177583237061    0.5265012615038105 F F F Ca
   0.5000000000000000    0.7933177583237061    0.4550726900752391 F F F Ca
   0.5000000000000000    0.5000000000000000    0.5312742912725918 F F F Ca
   0.5000000000000000    0.0000000000000000    0.4598457198440205 F F F Ca
   0.0000000000000000    0.3749067602233964    0.4543517593969931 F F F Ag
   0.0000000000000000    0.8749067602233964    0.5257803308255645 F F F Ag
   0.0000000000000000    0.1250932397766036    0.4544050392693380 F F F Ag
   0.0000000000000000    0.6250932397766036    0.5258336106979093 F F F Ag
   0.0000000000000000    0.5000000000000000    0.4364812965717640 F F F Ag
   0.0000000000000000    0.0000000000000000    0.5079098680003354 F F F Ag
   0.5000000000000000    0.5000000000000000    0.4722222222222222 F F F As
   0.5000000000000000    0.0000000000000000    0.5436507936507936 F F F As
   0.0000000000000000    0.1666666666666667    0.5198412698412698 F F F As
   0.0000000000000000    0.6666666666666667    0.4484126984126984 F F F As
   0.0000000000000000    0.3333333333333333    0.4960317460317460 F F F As
   0.0000000000000000    0.8333333333333334    0.5674603174603174 F F F As
   0.5000000000000000    0.2066822416762939    0.7160339710331213 T T T Ca
   0.5000000000000000    0.7066822416762939    0.6446053996045499 T T T Ca
   0.5000000000000000    0.2933177583237061    0.6693584043609534 T T T Ca
   0.5000000000000000    0.7933177583237061    0.5979298329323819 F F F Ca
   0.5000000000000000    0.5000000000000000    0.6741314341297348 T T T Ca
   0.5000000000000000    0.0000000000000000    0.6027028627011632 F F F Ca
   0.0000000000000000    0.3749067602233964    0.5972089022541360 F F F Ag
   0.0000000000000000    0.8749067602233964    0.6686374736827074 T T T Ag
   0.0000000000000000    0.1250932397766036    0.5972621821264809 F F F Ag
   0.0000000000000000    0.6250932397766036    0.6686907535550523 T T T Ag
   0.0000000000000000    0.5000000000000000    0.5793384394289068 F F F Ag
   0.0000000000000000    0.0000000000000000    0.6507670108574783 T T T Ag
   0.5000000000000000    0.5000000000000000    0.6150793650793651 F F F As
   0.5000000000000000    0.0000000000000000    0.6865079365079365 T T T As
   0.0000000000000000    0.1666666666666667    0.6626984126984127 T T T As
   0.0000000000000000    0.6666666666666667    0.5912698412698412 F F F As
   0.0000000000000000    0.3333333333333333    0.6388888888888888 T T T As
   0.0000000000000000    0.8333333333333334    0.7103174603174602 T T T As
