Ca6 Ni6 Ge6
1.0
   4.2040901312151115    0.0000000000000000    0.0000000000000003
   0.0000000000000011    6.6421037066510671   -4.2040901312151142
   0.0000000000000000    0.0000000000000000   33.6327210497208924
Ca Ni Ge Ca Ni Ge Ca Ni Ge
2 2 2 2 2 2 2 2 2
Selective dynamics
direct
   0.5000000000000000    0.3210957256122101    0.3422202990348596 T T T Ca
   0.0000000000000000    0.6789042743877900    0.3244463676318071 T T T Ca
   0.0000000000000000    0.0000000000000000    0.4270833333333334 T T T Ni
   0.5000000000000000    0.0000000000000000    0.3645833333333334 T T T Ni
   0.5000000000000000    0.8151323168216607    0.4039748729360410 T T T Ge
   0.0000000000000000    0.1848676831783394    0.3876917937306258 T T T Ge
   0.5000000000000000    0.3210957256122101    0.4672202990348596 F F F Ca
   0.0000000000000000    0.6789042743877900    0.4494463676318071 F F F Ca
   0.0000000000000000    0.0000000000000000    0.5520833333333334 F F F Ni
   0.5000000000000000    0.0000000000000000    0.4895833333333334 F F F Ni
   0.5000000000000000    0.8151323168216607    0.5289748729360410 F F F Ge
   0.0000000000000000    0.1848676831783394    0.5126917937306258 F F F Ge
   0.5000000000000000    0.3210957256122101    0.5922202990348596 T T T Ca
   0.0000000000000000    0.6789042743877900    0.5744463676318071 T T T Ca
   0.0000000000000000    0.0000000000000000    0.6770833333333334 T T T Ni
   0.5000000000000000    0.0000000000000000    0.6145833333333334 T T T Ni
   0.5000000000000000    0.8151323168216607    0.6539748729360410 T T T Ge
   0.0000000000000000    0.1848676831783394    0.6376917937306258 T T T Ge
