Sr2 Ni4 Ge2
1.0
   4.1446120564912441    0.0000000000000000    0.0000000000000003
  -2.0723060282456216    3.5893393297526828    0.0000000000000003
   0.0000000000000000    0.0000000000000000   31.5883497296420188
Sr Ni Ge
2 4 2
Selective dynamics
direct
   0.3333333333333333    0.6666666666666666    0.3541666666666666 T T T Sr
   0.6666666666666669    0.3333333333333334    0.5208333333333333 T T T Sr
   0.3333333333333333    0.6666666666666666    0.4487374073792078 T T T Ni
   0.6666666666666666    0.3333333333333333    0.6154040740458744 T T T Ni
   0.6666666666666669    0.3333333333333334    0.4262625926207922 T T T Ni
   0.3333333333333332    0.6666666666666667    0.5929292592874589 T T T Ni
   0.0000000000000000    0.0000000000000000    0.6041666666666666 T T T Ge
   0.0000000000000000    0.0000000000000000    0.4375000000000000 T T T Ge
