Hf8 Sb32 Mo8
1.0
  10.3877416516328047    0.0000000000000000    0.0000000000000006
  -4.1869447785275522    7.3514202289403592   -3.6694851940281965
   0.0000000000000000    0.0000000000000000   33.0253667462537663
Hf Sb Mo Hf Sb Mo Hf Sb Mo Hf Sb Mo
2 8 2 2 8 2 2 8 2 2 8 2
Selective dynamics
direct
   0.3492587168046057    0.8103653714703685    0.3678183933115225 T T T Hf
   0.8492587168046059    0.8103653714703685    0.3122628377559670 T T T Hf
   0.1409470765393764    0.5229680584404834    0.2803298029748686 T T T Sb
   0.8431475008722131    0.4530996725596523    0.3836777600992207 F F F Sb
   0.1041528120186399    0.9038971490411500    0.3782108130416094 T T T Sb
   0.9094002038299038    0.1185499706625349    0.2909500154439854 T T T Sb
   0.6409470765393764    0.5229680584404834    0.3358853585304242 T T T Sb
   0.3431475008722130    0.4530996725596522    0.3281222045436651 T T T Sb
   0.6041528120186399    0.9038971490411500    0.3226552574860538 T T T Sb
   0.4094002038299038    0.1185499706625349    0.3465055709995410 T T T Sb
   0.6520489999352677    0.1911187678258058    0.2990132151287933 T T T Mo
   0.1520489999352677    0.1911187678258058    0.3545687706843489 T T T Mo
   0.3492587168046057    0.8103653714703685    0.4789295044226336 F F F Hf
   0.8492587168046059    0.8103653714703685    0.4233739488670780 F F F Hf
   0.1409470765393764    0.5229680584404834    0.3914409140859797 F F F Sb
   0.8431475008722131    0.4530996725596523    0.4947888712103318 F F F Sb
   0.1041528120186399    0.9038971490411500    0.4893219241527205 F F F Sb
   0.9094002038299038    0.1185499706625349    0.4020611265550965 F F F Sb
   0.6409470765393764    0.5229680584404834    0.4469964696415353 F F F Sb
   0.3431475008722130    0.4530996725596522    0.4392333156547762 F F F Sb
   0.6041528120186399    0.9038971490411500    0.4337663685971649 F F F Sb
   0.4094002038299038    0.1185499706625349    0.4576166821106521 F F F Sb
   0.6520489999352677    0.1911187678258058    0.4101243262399045 F F F Mo
   0.1520489999352677    0.1911187678258058    0.4656798817954600 F F F Mo
   0.3492587168046057    0.8103653714703685    0.5900406155337448 F F F Hf
   0.8492587168046059    0.8103653714703685    0.5344850599781892 F F F Hf
   0.1409470765393764    0.5229680584404834    0.5025520251970909 F F F Sb
   0.8431475008722131    0.4530996725596523    0.6058999823214429 F F F Sb
   0.1041528120186399    0.9038971490411500    0.6004330352638316 F F F Sb
   0.9094002038299038    0.1185499706625349    0.5131722376662077 F F F Sb
   0.6409470765393764    0.5229680584404834    0.5581075807526463 F F F Sb
   0.3431475008722130    0.4530996725596522    0.5503444267658874 F F F Sb
   0.6041528120186399    0.9038971490411500    0.5448774797082760 F F F Sb
   0.4094002038299038    0.1185499706625349    0.5687277932217631 F F F Sb
   0.6520489999352677    0.1911187678258058    0.5212354373510155 F F F Mo
   0.1520489999352677    0.1911187678258058    0.5767909929065711 F F F Mo
   0.3492587168046057    0.8103653714703685    0.7011517266448558 T T T Hf
   0.8492587168046059    0.8103653714703685    0.6455961710893002 T T T Hf
   0.1409470765393764    0.5229680584404834    0.6136631363082019 F F F Sb
   0.8431475008722131    0.4530996725596523    0.7170110934325540 T T T Sb
   0.1041528120186399    0.9038971490411500    0.7115441463749427 T T T Sb
   0.9094002038299038    0.1185499706625349    0.6242833487773187 T T T Sb
   0.6409470765393764    0.5229680584404834    0.6692186918637575 T T T Sb
   0.3431475008722130    0.4530996725596522    0.6614555378769984 T T T Sb
   0.6041528120186399    0.9038971490411500    0.6559885908193871 T T T Sb
   0.4094002038299038    0.1185499706625349    0.6798389043328743 T T T Sb
   0.6520489999352677    0.1911187678258058    0.6323465484621267 T T T Mo
   0.1520489999352677    0.1911187678258058    0.6879021040176823 T T T Mo
