Hf6 Sb24 Mo6
1.0
   3.6694851940281965    0.0000000000000000    0.0000000000000002
  -0.0000000000000006    9.0264107110764638   13.6010578116166396
   0.0000000000000000    0.0000000000000000   59.2209457209585537
Hf Sb Mo Hf Sb Mo Hf Sb Mo
2 8 2 2 8 2 2 8 2
Selective dynamics
direct
   0.5000000000000000    0.3492587168046057    0.3462192802464323 T T T Hf
   0.0000000000000000    0.8492587168046059    0.4176478516750037 F F F Hf
   0.0000000000000000    0.1409470765393764    0.4170348450028772 F F F Sb
   0.0000000000000000    0.8431475008722131    0.3267016966525907 T T T Sb
   0.5000000000000000    0.1041528120186399    0.3678727269914587 T T T Sb
   0.5000000000000000    0.9094002038299038    0.3650298393582231 T T T Sb
   0.5000000000000000    0.6409470765393764    0.3456062735743058 T T T Sb
   0.5000000000000000    0.3431475008722131    0.3981302680811621 F F F Sb
   0.0000000000000000    0.6041528120186399    0.2964441555628872 T T T Sb
   0.0000000000000000    0.4094002038299038    0.2936012679296517 T T T Sb
   0.5000000000000000    0.6520489999352677    0.3914273260341324 F F F Mo
   0.0000000000000000    0.1520489999352677    0.3199987546055610 T T T Mo
   0.5000000000000000    0.3492587168046057    0.4890764231035752 F F F Hf
   0.0000000000000000    0.8492587168046059    0.5605049945321465 F F F Hf
   0.0000000000000000    0.1409470765393764    0.5598919878600201 F F F Sb
   0.0000000000000000    0.8431475008722131    0.4695588395097335 F F F Sb
   0.5000000000000000    0.1041528120186399    0.5107298698486015 F F F Sb
   0.5000000000000000    0.9094002038299038    0.5078869822153660 F F F Sb
   0.5000000000000000    0.6409470765393764    0.4884634164314486 F F F Sb
   0.5000000000000000    0.3431475008722131    0.5409874109383050 F F F Sb
   0.0000000000000000    0.6041528120186399    0.4393012984200301 F F F Sb
   0.0000000000000000    0.4094002038299038    0.4364584107867945 F F F Sb
   0.5000000000000000    0.6520489999352677    0.5342844688912753 F F F Mo
   0.0000000000000000    0.1520489999352677    0.4628558974627038 F F F Mo
   0.5000000000000000    0.3492587168046057    0.6319335659607180 T T T Hf
   0.0000000000000000    0.8492587168046059    0.7033621373892894 T T T Hf
   0.0000000000000000    0.1409470765393764    0.7027491307171629 T T T Sb
   0.0000000000000000    0.8431475008722131    0.6124159823668764 T T T Sb
   0.5000000000000000    0.1041528120186399    0.6535870127057444 T T T Sb
   0.5000000000000000    0.9094002038299038    0.6507441250725088 T T T Sb
   0.5000000000000000    0.6409470765393764    0.6313205592885915 T T T Sb
   0.5000000000000000    0.3431475008722131    0.6838445537954478 T T T Sb
   0.0000000000000000    0.6041528120186399    0.5821584412771730 F F F Sb
   0.0000000000000000    0.4094002038299038    0.5793155536439374 F F F Sb
   0.5000000000000000    0.6520489999352677    0.6771416117484181 T T T Mo
   0.0000000000000000    0.1520489999352677    0.6057130403198467 F F F Mo
