Hf8 Sb32 Mo8
1.0
  10.3877416516328047    0.0000000000000000   -3.6694851940281956
   6.2007968731052516    7.3514202289403618    0.0000000000000006
   0.0000000000000000    0.0000000000000000   33.0253667462537663
Hf Sb Mo Hf Sb Mo Hf Sb Mo Hf Sb Mo
2 8 2 2 8 2 2 8 2 2 8 2
Selective dynamics
direct
   0.5388933453342373    0.8103653714703685    0.3561926620741743 T T T Hf
   0.0388933453342374    0.8103653714703685    0.3561926620741743 T T T Hf
   0.6179790180988930    0.5229680584404834    0.3094244034924694 T T T Sb
   0.3900478283125609    0.4530996725596523    0.2840987157384324 T T T Sb
   0.2002556629774899    0.9038971490411500    0.3185662529234246 T T T Sb
   0.7908502331673689    0.1185499706625349    0.3841878718334111 F F F Sb
   0.1179790180988930    0.5229680584404834    0.3094244034924694 T T T Sb
   0.8900478283125607    0.4530996725596523    0.2840987157384324 T T T Sb
   0.7002556629774899    0.9038971490411500    0.3185662529234246 T T T Sb
   0.2908502331673689    0.1185499706625349    0.3841878718334111 F F F Sb
   0.4609302321094617    0.1911187678258058    0.3475300939380881 T T T Mo
   0.9609302321094617    0.1911187678258058    0.3475300939380881 T T T Mo
   0.5388933453342373    0.8103653714703685    0.4673037731852854 F F F Hf
   0.0388933453342374    0.8103653714703685    0.4673037731852854 F F F Hf
   0.6179790180988930    0.5229680584404834    0.4205355146035804 F F F Sb
   0.3900478283125609    0.4530996725596523    0.3952098268495435 F F F Sb
   0.2002556629774899    0.9038971490411500    0.4296773640345357 F F F Sb
   0.7908502331673689    0.1185499706625349    0.4952989829445222 F F F Sb
   0.1179790180988930    0.5229680584404834    0.4205355146035804 F F F Sb
   0.8900478283125607    0.4530996725596523    0.3952098268495435 F F F Sb
   0.7002556629774899    0.9038971490411500    0.4296773640345357 F F F Sb
   0.2908502331673689    0.1185499706625349    0.4952989829445222 F F F Sb
   0.4609302321094617    0.1911187678258058    0.4586412050491992 F F F Mo
   0.9609302321094617    0.1911187678258058    0.4586412050491992 F F F Mo
   0.5388933453342373    0.8103653714703685    0.5784148842963965 F F F Hf
   0.0388933453342374    0.8103653714703685    0.5784148842963965 F F F Hf
   0.6179790180988930    0.5229680584404834    0.5316466257146916 F F F Sb
   0.3900478283125609    0.4530996725596523    0.5063209379606546 F F F Sb
   0.2002556629774899    0.9038971490411500    0.5407884751456468 F F F Sb
   0.7908502331673689    0.1185499706625349    0.6064100940556333 F F F Sb
   0.1179790180988930    0.5229680584404834    0.5316466257146916 F F F Sb
   0.8900478283125607    0.4530996725596523    0.5063209379606546 F F F Sb
   0.7002556629774899    0.9038971490411500    0.5407884751456468 F F F Sb
   0.2908502331673689    0.1185499706625349    0.6064100940556333 F F F Sb
   0.4609302321094617    0.1911187678258058    0.5697523161603103 F F F Mo
   0.9609302321094617    0.1911187678258058    0.5697523161603103 F F F Mo
   0.5388933453342373    0.8103653714703685    0.6895259954075076 T T T Hf
   0.0388933453342374    0.8103653714703685    0.6895259954075076 T T T Hf
   0.6179790180988930    0.5229680584404834    0.6427577368258026 T T T Sb
   0.3900478283125609    0.4530996725596523    0.6174320490717657 F F F Sb
   0.2002556629774899    0.9038971490411500    0.6518995862567578 T T T Sb
   0.7908502331673689    0.1185499706625349    0.7175212051667444 T T T Sb
   0.1179790180988930    0.5229680584404834    0.6427577368258026 T T T Sb
   0.8900478283125607    0.4530996725596523    0.6174320490717657 F F F Sb
   0.7002556629774899    0.9038971490411500    0.6518995862567578 T T T Sb
   0.2908502331673689    0.1185499706625349    0.7175212051667444 T T T Sb
   0.4609302321094617    0.1911187678258058    0.6808634272714214 T T T Mo
   0.9609302321094617    0.1911187678258058    0.6808634272714214 T T T Mo
