Na16 Ge16 Au16
1.0
   4.4790796499602301    0.0000000000000000    0.0000000000000003
  -0.0000000000000042   14.6760779113791049    7.6752009741100684
   0.0000000000000000    0.0000000000000000   38.3760048705503394
Na Ge Au Na Ge Au
8 8 8 8 8 8
Selective dynamics
direct
   0.0000000000000000    0.2500000000000000    0.4801874044395035 F F F Na
   0.0000000000000000    0.7500000000000001    0.3801874044395035 T T T Na
   0.5000000000000000    0.2500000000000000    0.4047991820575916 F F F Na
   0.5000000000000000    0.7500000000000001    0.3047991820575916 T T T Na
   0.5000000000000000    0.0000000000000000    0.4301874044395034 F F F Na
   0.4999999999999999    0.5000000000000000    0.3301874044395035 T T T Na
   0.0000000000000000    0.0000000000000000    0.3547991820575916 T T T Na
   0.0000000000000000    0.5000000000000000    0.4547991820575916 F F F Na
   0.0000000000000000    0.3381709787875203    0.3413416718874224 T T T Ge
   0.0000000000000000    0.8381709787875203    0.4413416718874224 F F F Ge
   0.0000000000000000    0.1618290212124798    0.3766100634024304 T T T Ge
   0.0000000000000000    0.6618290212124799    0.4766100634024305 F F F Ge
   0.5000000000000000    0.0881709787875202    0.4913416718874223 F F F Ge
   0.5000000000000000    0.5881709787875203    0.3913416718874224 F F F Ge
   0.5000000000000000    0.4118290212124798    0.4266100634024305 F F F Ge
   0.4999999999999999    0.9118290212124799    0.3266100634024304 T T T Ge
   0.0000000000000000    0.1022554123481374    0.4530797566368985 F F F Au
   0.0000000000000000    0.6022554123481373    0.3530797566368986 T T T Au
   0.0000000000000000    0.3977445876518627    0.3939819215761534 F F F Au
   0.0000000000000000    0.8977445876518627    0.4939819215761535 F F F Au
   0.5000000000000000    0.3522554123481373    0.3030797566368985 T T T Au
   0.4999999999999999    0.8522554123481374    0.4030797566368985 F F F Au
   0.5000000000000000    0.1477445876518626    0.3439819215761535 T T T Au
   0.4999999999999999    0.6477445876518626    0.4439819215761535 F F F Au
   0.0000000000000000    0.2500000000000000    0.6801874044395035 T T T Na
   0.0000000000000000    0.7500000000000001    0.5801874044395035 F F F Na
   0.5000000000000000    0.2500000000000000    0.6047991820575915 F F F Na
   0.5000000000000000    0.7500000000000001    0.5047991820575917 F F F Na
   0.5000000000000000    0.0000000000000000    0.6301874044395035 T T T Na
   0.4999999999999999    0.5000000000000000    0.5301874044395035 F F F Na
   0.0000000000000000    0.0000000000000000    0.5547991820575916 F F F Na
   0.0000000000000000    0.5000000000000000    0.6547991820575916 T T T Na
   0.0000000000000000    0.3381709787875203    0.5413416718874224 F F F Ge
   0.0000000000000000    0.8381709787875203    0.6413416718874224 T T T Ge
   0.0000000000000000    0.1618290212124798    0.5766100634024305 F F F Ge
   0.0000000000000000    0.6618290212124799    0.6766100634024305 T T T Ge
   0.5000000000000000    0.0881709787875202    0.6913416718874223 T T T Ge
   0.5000000000000000    0.5881709787875203    0.5913416718874224 F F F Ge
   0.5000000000000000    0.4118290212124798    0.6266100634024304 T T T Ge
   0.4999999999999999    0.9118290212124799    0.5266100634024304 F F F Ge
   0.0000000000000000    0.1022554123481374    0.6530797566368985 T T T Au
   0.0000000000000000    0.6022554123481373    0.5530797566368986 F F F Au
   0.0000000000000000    0.3977445876518627    0.5939819215761535 F F F Au
   0.0000000000000000    0.8977445876518627    0.6939819215761535 T T T Au
   0.5000000000000000    0.3522554123481373    0.5030797566368985 F F F Au
   0.4999999999999999    0.8522554123481374    0.6030797566368985 F F F Au
   0.5000000000000000    0.1477445876518626    0.5439819215761534 F F F Au
   0.4999999999999999    0.6477445876518626    0.6439819215761535 T T T Au
