Na12 Ge12 Au12
1.0
   7.3380389556895524    0.0000000000000000    0.0000000000000004
   0.0000000000000012    7.6752009741100657   -4.4790796499602310
   0.0000000000000000    0.0000000000000000   31.3535575497216108
Na Ge Au Na Ge Au Na Ge Au
4 4 4 4 4 4 4 4 4
Selective dynamics
direct
   0.5000000000000000    0.7170394761358166    0.3653423301622594 T T T Na
   0.5000000000000000    0.0939805880453761    0.3477624890064822 T T T Na
   0.0000000000000000    0.2170394761358168    0.3653423301622594 T T T Na
   0.0000000000000000    0.5939805880453761    0.3477624890064822 T T T Na
   0.6763419575750406    0.3230971601087020    0.3090648564441001 T T T Ge
   0.3236580424249596    0.3230971601087020    0.3090648564441001 T T T Ge
   0.1763419575750405    0.8230971601087022    0.3090648564441001 T T T Ge
   0.8236580424249597    0.8230971601087022    0.3090648564441001 T T T Ge
   0.2045108246962747    0.0003223028007041    0.4058113054001005 T T T Au
   0.7954891753037254    0.0003223028007041    0.4058113054001005 T T T Au
   0.7045108246962747    0.5003223028007042    0.4058113054001005 T T T Au
   0.2954891753037252    0.5003223028007041    0.4058113054001005 T T T Au
   0.5000000000000000    0.7170394761358166    0.5081994730194022 F F F Na
   0.5000000000000000    0.0939805880453761    0.4906196318636250 F F F Na
   0.0000000000000000    0.2170394761358168    0.5081994730194023 F F F Na
   0.0000000000000000    0.5939805880453761    0.4906196318636250 F F F Na
   0.6763419575750406    0.3230971601087020    0.4519219993012430 F F F Ge
   0.3236580424249596    0.3230971601087020    0.4519219993012430 F F F Ge
   0.1763419575750405    0.8230971601087022    0.4519219993012430 F F F Ge
   0.8236580424249597    0.8230971601087022    0.4519219993012430 F F F Ge
   0.2045108246962747    0.0003223028007041    0.5486684482572433 F F F Au
   0.7954891753037254    0.0003223028007041    0.5486684482572433 F F F Au
   0.7045108246962747    0.5003223028007042    0.5486684482572433 F F F Au
   0.2954891753037252    0.5003223028007041    0.5486684482572433 F F F Au
   0.5000000000000000    0.7170394761358166    0.6510566158765451 T T T Na
   0.5000000000000000    0.0939805880453761    0.6334767747207679 T T T Na
   0.0000000000000000    0.2170394761358168    0.6510566158765451 T T T Na
   0.0000000000000000    0.5939805880453761    0.6334767747207679 T T T Na
   0.6763419575750406    0.3230971601087020    0.5947791421583859 T T T Ge
   0.3236580424249596    0.3230971601087020    0.5947791421583859 T T T Ge
   0.1763419575750405    0.8230971601087022    0.5947791421583859 T T T Ge
   0.8236580424249597    0.8230971601087022    0.5947791421583859 T T T Ge
   0.2045108246962747    0.0003223028007041    0.6915255911143862 T T T Au
   0.7954891753037254    0.0003223028007041    0.6915255911143862 T T T Au
   0.7045108246962747    0.5003223028007042    0.6915255911143862 T T T Au
   0.2954891753037252    0.5003223028007041    0.6915255911143862 T T T Au
