Na24 Ge24 Au24
1.0
   7.3380389556895524    0.0000000000000000    0.0000000000000004
   0.0000000000000025   15.3504019482201333   -4.4790796499602292
   0.0000000000000000    0.0000000000000000   31.3535575497216108
Na Ge Au Na Ge Au Na Ge Au
8 8 8 8 8 8 8 8 8
Selective dynamics
direct
   0.5000000000000000    0.3585197380679083    0.3076711650811297 T T T Na
   0.5000000000000000    0.8585197380679084    0.3790997365097011 T T T Na
   0.5000000000000000    0.0469902940226881    0.3345955302175268 T T T Na
   0.5000000000000000    0.5469902940226881    0.4060241016460982 F F F Na
   0.0000000000000000    0.1085197380679084    0.3433854507954154 T T T Na
   0.0000000000000000    0.6085197380679084    0.4148140222239868 F F F Na
   0.0000000000000000    0.2969902940226881    0.2988812445032411 T T T Na
   0.0000000000000000    0.7969902940226881    0.3703098159318125 T T T Na
   0.6763419575750406    0.1615485800543510    0.4223895710791929 F F F Ge
   0.6763419575750406    0.6615485800543510    0.3509609996506215 T T T Ge
   0.3236580424249596    0.1615485800543510    0.4223895710791929 F F F Ge
   0.3236580424249596    0.6615485800543510    0.3509609996506215 T T T Ge
   0.1763419575750405    0.4115485800543511    0.3866752853649072 T T T Ge
   0.1763419575750405    0.9115485800543511    0.3152467139363358 T T T Ge
   0.8236580424249597    0.4115485800543511    0.3866752853649072 T T T Ge
   0.8236580424249597    0.9115485800543511    0.3152467139363358 T T T Ge
   0.2045108246962747    0.0001611514003521    0.3993342241286216 F F F Au
   0.2045108246962747    0.5001611514003521    0.3279056527000502 T T T Au
   0.7954891753037254    0.0001611514003521    0.3993342241286216 F F F Au
   0.7954891753037254    0.5001611514003520    0.3279056527000502 T T T Au
   0.7045108246962747    0.2501611514003521    0.3636199384143359 T T T Au
   0.7045108246962747    0.7501611514003521    0.2921913669857645 T T T Au
   0.2954891753037252    0.2501611514003521    0.3636199384143359 T T T Au
   0.2954891753037252    0.7501611514003521    0.2921913669857645 T T T Au
   0.5000000000000000    0.3585197380679083    0.4505283079382725 F F F Na
   0.5000000000000000    0.8585197380679084    0.5219568793668440 F F F Na
   0.5000000000000000    0.0469902940226881    0.4774526730746697 F F F Na
   0.5000000000000000    0.5469902940226881    0.5488812445032411 F F F Na
   0.0000000000000000    0.1085197380679084    0.4862425936525583 F F F Na
   0.0000000000000000    0.6085197380679084    0.5576711650811297 F F F Na
   0.0000000000000000    0.2969902940226881    0.4417383873603840 F F F Na
   0.0000000000000000    0.7969902940226881    0.5131669587889554 F F F Na
   0.6763419575750406    0.1615485800543510    0.5652467139363357 F F F Ge
   0.6763419575750406    0.6615485800543510    0.4938181425077643 F F F Ge
   0.3236580424249596    0.1615485800543510    0.5652467139363357 F F F Ge
   0.3236580424249596    0.6615485800543510    0.4938181425077643 F F F Ge
   0.1763419575750405    0.4115485800543511    0.5295324282220500 F F F Ge
   0.1763419575750405    0.9115485800543511    0.4581038567934786 F F F Ge
   0.8236580424249597    0.4115485800543511    0.5295324282220500 F F F Ge
   0.8236580424249597    0.9115485800543511    0.4581038567934786 F F F Ge
   0.2045108246962747    0.0001611514003521    0.5421913669857645 F F F Au
   0.2045108246962747    0.5001611514003521    0.4707627955571931 F F F Au
   0.7954891753037254    0.0001611514003521    0.5421913669857645 F F F Au
   0.7954891753037254    0.5001611514003520    0.4707627955571930 F F F Au
   0.7045108246962747    0.2501611514003521    0.5064770812714787 F F F Au
   0.7045108246962747    0.7501611514003521    0.4350485098429073 F F F Au
   0.2954891753037252    0.2501611514003521    0.5064770812714787 F F F Au
   0.2954891753037252    0.7501611514003521    0.4350485098429073 F F F Au
   0.5000000000000000    0.3585197380679083    0.5933854507954154 F F F Na
   0.5000000000000000    0.8585197380679084    0.6648140222239869 T T T Na
   0.5000000000000000    0.0469902940226881    0.6203098159318126 T T T Na
   0.5000000000000000    0.5469902940226881    0.6917383873603840 T T T Na
   0.0000000000000000    0.1085197380679084    0.6290997365097011 T T T Na
   0.0000000000000000    0.6085197380679084    0.7005283079382725 T T T Na
   0.0000000000000000    0.2969902940226881    0.5845955302175267 F F F Na
   0.0000000000000000    0.7969902940226881    0.6560241016460981 T T T Na
   0.6763419575750406    0.1615485800543510    0.7081038567934785 T T T Ge
   0.6763419575750406    0.6615485800543510    0.6366752853649071 T T T Ge
   0.3236580424249596    0.1615485800543510    0.7081038567934785 T T T Ge
   0.3236580424249596    0.6615485800543510    0.6366752853649071 T T T Ge
   0.1763419575750405    0.4115485800543511    0.6723895710791929 T T T Ge
   0.1763419575750405    0.9115485800543511    0.6009609996506216 F F F Ge
   0.8236580424249597    0.4115485800543511    0.6723895710791929 T T T Ge
   0.8236580424249597    0.9115485800543511    0.6009609996506216 F F F Ge
   0.2045108246962747    0.0001611514003521    0.6850485098429073 T T T Au
   0.2045108246962747    0.5001611514003521    0.6136199384143359 T T T Au
   0.7954891753037254    0.0001611514003521    0.6850485098429073 T T T Au
   0.7954891753037254    0.5001611514003520    0.6136199384143359 T T T Au
   0.7045108246962747    0.2501611514003521    0.6493342241286216 T T T Au
   0.7045108246962747    0.7501611514003521    0.5779056527000502 F F F Au
   0.2954891753037252    0.2501611514003521    0.6493342241286216 T T T Au
   0.2954891753037252    0.7501611514003521    0.5779056527000502 F F F Au
