Sc12 In12 Ni48
1.0
   6.9123876524557391    0.0000000000000000   -6.9123876524557382
  -0.0000000000000004    6.9123876524557391   -6.9123876524557382
   0.0000000000000000    0.0000000000000000   48.3867135671901707
Sc In Ni Sc In Ni Sc In Ni
4 4 16 4 4 16 4 4 16
Selective dynamics
direct
   0.2500000000000000    0.7500000000000001    0.3392857142857143 T T T Sc
   0.7500000000000001    0.2500000000000001    0.3392857142857143 T T T Sc
   0.2500000000000000    0.2500000000000001    0.3392857142857143 T T T Sc
   0.7500000000000001    0.7500000000000001    0.3392857142857144 T T T Sc
   0.0000000000000000    0.0000000000000000    0.3035714285714286 T T T In
   0.5000000000000000    0.5000000000000000    0.3035714285714286 T T T In
   0.0000000000000000    0.5000000000000000    0.3035714285714286 T T T In
   0.5000000000000000    0.0000000000000001    0.3035714285714286 T T T In
   0.8747045844062171    0.6252954155937830    0.3928993450848262 T T T Ni
   0.8747045844062171    0.8747045844062173    0.3213019647455216 T T T Ni
   0.1252954155937829    0.6252954155937830    0.3928993450848262 T T T Ni
   0.1252954155937829    0.8747045844062171    0.3928993450848262 T T T Ni
   0.3747045844062171    0.1252954155937829    0.3928993450848262 T T T Ni
   0.3747045844062171    0.3747045844062172    0.3213019647455216 T T T Ni
   0.6252954155937829    0.1252954155937830    0.3928993450848262 T T T Ni
   0.6252954155937829    0.3747045844062172    0.3928993450848262 T T T Ni
   0.8747045844062171    0.1252954155937830    0.3928993450848262 T T T Ni
   0.8747045844062171    0.3747045844062173    0.3213019647455216 T T T Ni
   0.1252954155937829    0.1252954155937829    0.3928993450848262 T T T Ni
   0.1252954155937829    0.3747045844062172    0.3928993450848262 T T T Ni
   0.3747045844062171    0.6252954155937830    0.3928993450848262 T T T Ni
   0.3747045844062171    0.8747045844062173    0.3213019647455216 T T T Ni
   0.6252954155937829    0.6252954155937830    0.3928993450848262 T T T Ni
   0.6252954155937829    0.8747045844062171    0.3928993450848262 T T T Ni
   0.2500000000000000    0.7500000000000001    0.4821428571428572 F F F Sc
   0.7500000000000001    0.2500000000000001    0.4821428571428572 F F F Sc
   0.2500000000000000    0.2500000000000001    0.4821428571428572 F F F Sc
   0.7500000000000001    0.7500000000000001    0.4821428571428572 F F F Sc
   0.0000000000000000    0.0000000000000000    0.4464285714285714 F F F In
   0.5000000000000000    0.5000000000000000    0.4464285714285714 F F F In
   0.0000000000000000    0.5000000000000000    0.4464285714285714 F F F In
   0.5000000000000000    0.0000000000000001    0.4464285714285714 F F F In
   0.8747045844062171    0.6252954155937830    0.5357564879419690 F F F Ni
   0.8747045844062171    0.8747045844062173    0.4641591076026645 F F F Ni
   0.1252954155937829    0.6252954155937830    0.5357564879419690 F F F Ni
   0.1252954155937829    0.8747045844062171    0.5357564879419690 F F F Ni
   0.3747045844062171    0.1252954155937829    0.5357564879419690 F F F Ni
   0.3747045844062171    0.3747045844062172    0.4641591076026645 F F F Ni
   0.6252954155937829    0.1252954155937830    0.5357564879419690 F F F Ni
   0.6252954155937829    0.3747045844062172    0.5357564879419690 F F F Ni
   0.8747045844062171    0.1252954155937830    0.5357564879419690 F F F Ni
   0.8747045844062171    0.3747045844062173    0.4641591076026645 F F F Ni
   0.1252954155937829    0.1252954155937829    0.5357564879419690 F F F Ni
   0.1252954155937829    0.3747045844062172    0.5357564879419690 F F F Ni
   0.3747045844062171    0.6252954155937830    0.5357564879419690 F F F Ni
   0.3747045844062171    0.8747045844062173    0.4641591076026645 F F F Ni
   0.6252954155937829    0.6252954155937830    0.5357564879419690 F F F Ni
   0.6252954155937829    0.8747045844062171    0.5357564879419690 F F F Ni
   0.2500000000000000    0.7500000000000001    0.6250000000000000 T T T Sc
   0.7500000000000001    0.2500000000000001    0.6250000000000000 T T T Sc
   0.2500000000000000    0.2500000000000001    0.6250000000000000 T T T Sc
   0.7500000000000001    0.7500000000000001    0.6250000000000000 T T T Sc
   0.0000000000000000    0.0000000000000000    0.5892857142857143 T T T In
   0.5000000000000000    0.5000000000000000    0.5892857142857143 T T T In
   0.0000000000000000    0.5000000000000000    0.5892857142857143 T T T In
   0.5000000000000000    0.0000000000000001    0.5892857142857143 T T T In
   0.8747045844062171    0.6252954155937830    0.6786136307991117 T T T Ni
   0.8747045844062171    0.8747045844062173    0.6070162504598073 T T T Ni
   0.1252954155937829    0.6252954155937830    0.6786136307991117 T T T Ni
   0.1252954155937829    0.8747045844062171    0.6786136307991117 T T T Ni
   0.3747045844062171    0.1252954155937829    0.6786136307991117 T T T Ni
   0.3747045844062171    0.3747045844062172    0.6070162504598073 T T T Ni
   0.6252954155937829    0.1252954155937830    0.6786136307991117 T T T Ni
   0.6252954155937829    0.3747045844062172    0.6786136307991117 T T T Ni
   0.8747045844062171    0.1252954155937830    0.6786136307991117 T T T Ni
   0.8747045844062171    0.3747045844062173    0.6070162504598073 T T T Ni
   0.1252954155937829    0.1252954155937829    0.6786136307991117 T T T Ni
   0.1252954155937829    0.3747045844062172    0.6786136307991119 T T T Ni
   0.3747045844062171    0.6252954155937830    0.6786136307991117 T T T Ni
   0.3747045844062171    0.8747045844062173    0.6070162504598073 T T T Ni
   0.6252954155937829    0.6252954155937830    0.6786136307991117 T T T Ni
   0.6252954155937829    0.8747045844062171    0.6786136307991117 T T T Ni
