Ta32 Nb32 Re64
1.0
  12.7940932000000025    0.0000000000000000   -6.3970466000000012
  -0.0000000000000036   12.7940932000000043   -6.3970466000000021
   0.0000000000000000    0.0000000000000000   31.9852330000000116
Ta Nb Re Ta Nb Re
16 16 32 16 16 32
Selective dynamics
direct
   0.5000000000000000    0.4999999999999999    0.4750000000000000 F F F Ta
   0.0000000000000000    0.0000000000000000    0.4750000000000000 F F F Ta
   0.0000000000000000    0.5000000000000000    0.3750000000000000 T T T Ta
   0.5000000000000000    0.0000000000000000    0.3750000000000000 T T T Ta
   0.7500000000000000    0.7500000000000000    0.3750000000000000 T T T Ta
   0.2500000000000000    0.2500000000000000    0.3750000000000000 T T T Ta
   0.2500000000000000    0.7500000000000000    0.4750000000000000 F F F Ta
   0.7500000000000000    0.2500000000000001    0.4750000000000000 F F F Ta
   0.5000000000000000    0.7500000000000000    0.4250000000000000 T T T Ta
   0.0000000000000000    0.2500000000000001    0.4250000000000000 T T T Ta
   0.0000000000000000    0.7500000000000000    0.3250000000000000 T T T Ta
   0.5000000000000000    0.2500000000000001    0.3250000000000000 T T T Ta
   0.7500000000000000    0.5000000000000000    0.4249999999999999 T T T Ta
   0.2500000000000000    0.0000000000000001    0.4250000000000000 T T T Ta
   0.2500000000000000    0.5000000000000000    0.3250000000000000 T T T Ta
   0.7500000000000000    0.0000000000000001    0.3250000000000000 T T T Ta
   0.5000000000000000    0.5000000000000000    0.3750000000000000 T T T Nb
   0.0000000000000000    0.0000000000000000    0.3750000000000000 T T T Nb
   0.0000000000000000    0.5000000000000000    0.4750000000000000 F F F Nb
   0.5000000000000000    0.0000000000000001    0.4750000000000000 F F F Nb
   0.7500000000000000    0.7500000000000001    0.4750000000000000 F F F Nb
   0.2500000000000000    0.2500000000000001    0.4750000000000000 F F F Nb
   0.2500000000000000    0.7500000000000002    0.3750000000000000 T T T Nb
   0.7500000000000000    0.2500000000000001    0.3750000000000000 T T T Nb
   0.5000000000000000    0.7500000000000000    0.3250000000000000 T T T Nb
   0.0000000000000000    0.2500000000000000    0.3250000000000000 T T T Nb
   0.0000000000000000    0.7500000000000000    0.4250000000000000 T T T Nb
   0.5000000000000000    0.2500000000000001    0.4250000000000000 T T T Nb
   0.7500000000000000    0.4999999999999999    0.3250000000000000 T T T Nb
   0.2500000000000000    0.0000000000000000    0.3250000000000000 T T T Nb
   0.2500000000000000    0.5000000000000000    0.4250000000000000 T T T Nb
   0.7500000000000000    0.0000000000000000    0.4250000000000000 T T T Nb
   0.8750000000000000    0.8750000000000000    0.4750000000000000 F F F Re
   0.3750000000000000    0.3750000000000001    0.4750000000000000 F F F Re
   0.3750000000000000    0.8750000000000000    0.3750000000000000 T T T Re
   0.8750000000000000    0.3750000000000001    0.3750000000000000 T T T Re
   0.6250000000000000    0.8750000000000000    0.4250000000000000 T T T Re
   0.1250000000000000    0.3750000000000000    0.4250000000000000 T T T Re
   0.1250000000000000    0.8750000000000000    0.3250000000000000 T T T Re
   0.6250000000000000    0.3750000000000000    0.3250000000000000 T T T Re
   0.6250000000000000    0.6250000000000000    0.3750000000000000 T T T Re
   0.1250000000000000    0.1250000000000000    0.3750000000000000 T T T Re
   0.1250000000000000    0.6250000000000001    0.4750000000000000 F F F Re
   0.6250000000000000    0.1250000000000001    0.4750000000000000 F F F Re
   0.8750000000000000    0.6250000000000000    0.4249999999999999 T T T Re
   0.3750000000000000    0.1250000000000001    0.4250000000000000 T T T Re
   0.3750000000000000    0.6250000000000001    0.3250000000000000 T T T Re
   0.8750000000000000    0.1250000000000001    0.3250000000000000 T T T Re
   0.8750000000000000    0.6250000000000001    0.3250000000000000 T T T Re
   0.3750000000000000    0.1250000000000001    0.3250000000000000 T T T Re
   0.3750000000000000    0.6250000000000001    0.4250000000000000 T T T Re
   0.8750000000000000    0.1250000000000001    0.4250000000000000 T T T Re
   0.6250000000000000    0.6250000000000000    0.4750000000000000 F F F Re
   0.1250000000000000    0.1250000000000001    0.4750000000000000 F F F Re
   0.1250000000000000    0.6250000000000001    0.3750000000000000 T T T Re
   0.6250000000000000    0.1250000000000001    0.3750000000000000 T T T Re
   0.6250000000000000    0.8750000000000000    0.3250000000000000 T T T Re
   0.1250000000000000    0.3750000000000001    0.3250000000000000 T T T Re
   0.1250000000000000    0.8750000000000001    0.4250000000000000 T T T Re
   0.6250000000000000    0.3750000000000001    0.4250000000000000 T T T Re
   0.8750000000000000    0.8750000000000000    0.3750000000000000 T T T Re
   0.3750000000000000    0.3750000000000001    0.3750000000000000 T T T Re
   0.3750000000000000    0.8750000000000001    0.4750000000000000 F F F Re
   0.8750000000000000    0.3750000000000001    0.4750000000000000 F F F Re
   0.5000000000000000    0.4999999999999999    0.6750000000000000 T T T Ta
   0.0000000000000000    0.0000000000000000    0.6750000000000000 T T T Ta
   0.0000000000000000    0.5000000000000000    0.5750000000000000 T T T Ta
   0.5000000000000000    0.0000000000000000    0.5750000000000000 T T T Ta
   0.7500000000000000    0.7500000000000000    0.5750000000000000 T T T Ta
   0.2500000000000000    0.2500000000000000    0.5750000000000000 T T T Ta
   0.2500000000000000    0.7500000000000000    0.6750000000000000 T T T Ta
   0.7500000000000000    0.2500000000000001    0.6750000000000000 T T T Ta
   0.5000000000000000    0.7500000000000000    0.6250000000000000 T T T Ta
   0.0000000000000000    0.2500000000000001    0.6250000000000000 T T T Ta
   0.0000000000000000    0.7500000000000000    0.5250000000000000 F F F Ta
   0.5000000000000000    0.2500000000000001    0.5250000000000000 F F F Ta
   0.7500000000000000    0.5000000000000000    0.6250000000000000 T T T Ta
   0.2500000000000000    0.0000000000000001    0.6250000000000000 T T T Ta
   0.2500000000000000    0.5000000000000000    0.5250000000000000 F F F Ta
   0.7500000000000000    0.0000000000000001    0.5250000000000000 F F F Ta
   0.5000000000000000    0.5000000000000000    0.5750000000000000 T T T Nb
   0.0000000000000000    0.0000000000000000    0.5750000000000000 T T T Nb
   0.0000000000000000    0.5000000000000000    0.6750000000000000 T T T Nb
   0.5000000000000000    0.0000000000000001    0.6750000000000000 T T T Nb
   0.7500000000000000    0.7500000000000001    0.6750000000000000 T T T Nb
   0.2500000000000000    0.2500000000000001    0.6750000000000000 T T T Nb
   0.2500000000000000    0.7500000000000002    0.5750000000000000 T T T Nb
   0.7500000000000000    0.2500000000000001    0.5750000000000000 T T T Nb
   0.5000000000000000    0.7500000000000000    0.5250000000000000 F F F Nb
   0.0000000000000000    0.2500000000000000    0.5250000000000000 F F F Nb
   0.0000000000000000    0.7500000000000000    0.6250000000000000 T T T Nb
   0.5000000000000000    0.2500000000000001    0.6250000000000000 T T T Nb
   0.7500000000000000    0.4999999999999999    0.5250000000000000 F F F Nb
   0.2500000000000000    0.0000000000000000    0.5250000000000000 F F F Nb
   0.2500000000000000    0.5000000000000000    0.6250000000000000 T T T Nb
   0.7500000000000000    0.0000000000000000    0.6250000000000000 T T T Nb
   0.8750000000000000    0.8750000000000000    0.6750000000000000 T T T Re
   0.3750000000000000    0.3750000000000001    0.6750000000000000 T T T Re
   0.3750000000000000    0.8750000000000000    0.5750000000000000 T T T Re
   0.8750000000000000    0.3750000000000001    0.5750000000000000 T T T Re
   0.6250000000000000    0.8750000000000000    0.6250000000000000 T T T Re
   0.1250000000000000    0.3750000000000000    0.6250000000000000 T T T Re
   0.1250000000000000    0.8750000000000000    0.5250000000000000 F F F Re
   0.6250000000000000    0.3750000000000000    0.5250000000000000 F F F Re
   0.6250000000000000    0.6250000000000000    0.5750000000000000 T T T Re
   0.1250000000000000    0.1250000000000000    0.5750000000000000 T T T Re
   0.1250000000000000    0.6250000000000001    0.6750000000000000 T T T Re
   0.6250000000000000    0.1250000000000001    0.6750000000000000 T T T Re
   0.8750000000000000    0.6250000000000000    0.6250000000000000 T T T Re
   0.3750000000000000    0.1250000000000001    0.6250000000000000 T T T Re
   0.3750000000000000    0.6250000000000001    0.5250000000000000 F F F Re
   0.8750000000000000    0.1250000000000001    0.5250000000000000 F F F Re
   0.8750000000000000    0.6250000000000001    0.5250000000000000 F F F Re
   0.3750000000000000    0.1250000000000001    0.5250000000000000 F F F Re
   0.3750000000000000    0.6250000000000001    0.6250000000000000 T T T Re
   0.8750000000000000    0.1250000000000001    0.6250000000000000 T T T Re
   0.6250000000000000    0.6250000000000000    0.6750000000000000 T T T Re
   0.1250000000000000    0.1250000000000001    0.6750000000000000 T T T Re
   0.1250000000000000    0.6250000000000001    0.5750000000000000 T T T Re
   0.6250000000000000    0.1250000000000001    0.5750000000000000 T T T Re
   0.6250000000000000    0.8750000000000000    0.5250000000000000 F F F Re
   0.1250000000000000    0.3750000000000001    0.5250000000000000 F F F Re
   0.1250000000000000    0.8750000000000001    0.6250000000000000 T T T Re
   0.6250000000000000    0.3750000000000001    0.6250000000000000 T T T Re
   0.8750000000000000    0.8750000000000000    0.5750000000000000 T T T Re
   0.3750000000000000    0.3750000000000001    0.5750000000000000 T T T Re
   0.3750000000000000    0.8750000000000001    0.6750000000000000 T T T Re
   0.8750000000000000    0.3750000000000001    0.6750000000000000 T T T Re
