Hf60 Co10 Bi20
1.0
  20.8114804332422594    0.0000000000000000    0.0000000000000013
   5.9461372666406458    5.1495059273001669    7.2305154737807440
   0.0000000000000000    0.0000000000000000   46.9983505795748400
Hf Co Bi Hf Co Bi Hf Co Bi Hf Co Bi Hf Co Bi
12 2 4 12 2 4 12 2 4 12 2 4 12 2 4
Selective dynamics
direct
   0.5000000000000000    0.8865351228486915    0.3678834853737055 T T T Hf
   0.0000000000000000    0.3865351228486914    0.3678834853737055 T T T Hf
   0.6932675614243458    0.9201973157269627    0.3627046864693561 T T T Hf
   0.1932675614243458    0.4201973157269626    0.3627046864693561 T T T Hf
   0.8067324385756541    0.1932675614243458    0.3206938794389895 T T T Hf
   0.3067324385756542    0.6932675614243458    0.3206938794389895 T T T Hf
   0.5000000000000000    0.2658003573691587    0.3479965262167106 T T T Hf
   0.0000000000000000    0.7658003573691586    0.3479965262167106 T T T Hf
   0.8829001786845794    0.3512994639462618    0.3348428175125409 T T T Hf
   0.3829001786845794    0.8512994639462617    0.3348428175125409 T T T Hf
   0.6170998213154206    0.3829001786845794    0.3299811690912612 T T T Hf
   0.1170998213154207    0.8829001786845794    0.3299811690912612 T T T Hf
   0.5000000000000000    0.5000000000000001    0.3504273504273503 T T T Co
   0.0000000000000000    0.0000000000000000    0.3504273504273503 T T T Co
   0.8333333333333333    0.8333333333333334    0.3376068376068375 T T T Bi
   0.3333333333333333    0.3333333333333333    0.3376068376068375 T T T Bi
   0.6666666666666666    0.6666666666666667    0.3632478632478632 T T T Bi
   0.1666666666666666    0.1666666666666665    0.3632478632478632 T T T Bi
   0.5000000000000000    0.8865351228486915    0.4448065622967824 F F F Hf
   0.0000000000000000    0.3865351228486914    0.4448065622967824 F F F Hf
   0.6932675614243458    0.9201973157269627    0.4396277633924330 F F F Hf
   0.1932675614243458    0.4201973157269626    0.4396277633924330 F F F Hf
   0.8067324385756541    0.1932675614243458    0.3976169563620664 T T T Hf
   0.3067324385756542    0.6932675614243458    0.3976169563620664 T T T Hf
   0.5000000000000000    0.2658003573691587    0.4249196031397875 T T T Hf
   0.0000000000000000    0.7658003573691586    0.4249196031397875 T T T Hf
   0.8829001786845794    0.3512994639462618    0.4117658944356178 T T T Hf
   0.3829001786845794    0.8512994639462617    0.4117658944356178 T T T Hf
   0.6170998213154206    0.3829001786845794    0.4069042460143382 T T T Hf
   0.1170998213154207    0.8829001786845794    0.4069042460143382 T T T Hf
   0.5000000000000000    0.5000000000000001    0.4273504273504273 T T T Co
   0.0000000000000000    0.0000000000000000    0.4273504273504273 T T T Co
   0.8333333333333333    0.8333333333333334    0.4145299145299144 T T T Bi
   0.3333333333333333    0.3333333333333333    0.4145299145299144 T T T Bi
   0.6666666666666666    0.6666666666666667    0.4401709401709401 F F F Bi
   0.1666666666666666    0.1666666666666665    0.4401709401709401 F F F Bi
   0.5000000000000000    0.8865351228486915    0.5217296392198594 F F F Hf
   0.0000000000000000    0.3865351228486914    0.5217296392198594 F F F Hf
   0.6932675614243458    0.9201973157269627    0.5165508403155099 F F F Hf
   0.1932675614243458    0.4201973157269626    0.5165508403155099 F F F Hf
   0.8067324385756541    0.1932675614243458    0.4745400332851433 F F F Hf
   0.3067324385756542    0.6932675614243458    0.4745400332851433 F F F Hf
   0.5000000000000000    0.2658003573691587    0.5018426800628644 F F F Hf
   0.0000000000000000    0.7658003573691586    0.5018426800628644 F F F Hf
   0.8829001786845794    0.3512994639462618    0.4886889713586947 F F F Hf
   0.3829001786845794    0.8512994639462617    0.4886889713586947 F F F Hf
   0.6170998213154206    0.3829001786845794    0.4838273229374151 F F F Hf
   0.1170998213154207    0.8829001786845794    0.4838273229374151 F F F Hf
   0.5000000000000000    0.5000000000000001    0.5042735042735043 F F F Co
   0.0000000000000000    0.0000000000000000    0.5042735042735043 F F F Co
   0.8333333333333333    0.8333333333333334    0.4914529914529914 F F F Bi
   0.3333333333333333    0.3333333333333333    0.4914529914529914 F F F Bi
   0.6666666666666666    0.6666666666666667    0.5170940170940170 F F F Bi
   0.1666666666666666    0.1666666666666665    0.5170940170940170 F F F Bi
   0.5000000000000000    0.8865351228486915    0.5986527161429362 T T T Hf
   0.0000000000000000    0.3865351228486914    0.5986527161429362 T T T Hf
   0.6932675614243458    0.9201973157269627    0.5934739172385869 T T T Hf
   0.1932675614243458    0.4201973157269626    0.5934739172385869 T T T Hf
   0.8067324385756541    0.1932675614243458    0.5514631102082203 F F F Hf
   0.3067324385756542    0.6932675614243458    0.5514631102082203 F F F Hf
   0.5000000000000000    0.2658003573691587    0.5787657569859413 T T T Hf
   0.0000000000000000    0.7658003573691586    0.5787657569859413 T T T Hf
   0.8829001786845794    0.3512994639462618    0.5656120482817717 T T T Hf
   0.3829001786845794    0.8512994639462617    0.5656120482817717 T T T Hf
   0.6170998213154206    0.3829001786845794    0.5607503998604920 F F F Hf
   0.1170998213154207    0.8829001786845794    0.5607503998604920 F F F Hf
   0.5000000000000000    0.5000000000000001    0.5811965811965811 T T T Co
   0.0000000000000000    0.0000000000000000    0.5811965811965811 T T T Co
   0.8333333333333333    0.8333333333333334    0.5683760683760684 T T T Bi
   0.3333333333333333    0.3333333333333333    0.5683760683760684 T T T Bi
   0.6666666666666666    0.6666666666666667    0.5940170940170939 T T T Bi
   0.1666666666666666    0.1666666666666665    0.5940170940170939 T T T Bi
   0.5000000000000000    0.8865351228486915    0.6755757930660132 T T T Hf
   0.0000000000000000    0.3865351228486914    0.6755757930660132 T T T Hf
   0.6932675614243458    0.9201973157269627    0.6703969941616639 T T T Hf
   0.1932675614243458    0.4201973157269626    0.6703969941616639 T T T Hf
   0.8067324385756541    0.1932675614243458    0.6283861871312972 T T T Hf
   0.3067324385756542    0.6932675614243458    0.6283861871312972 T T T Hf
   0.5000000000000000    0.2658003573691587    0.6556888339090183 T T T Hf
   0.0000000000000000    0.7658003573691586    0.6556888339090183 T T T Hf
   0.8829001786845794    0.3512994639462618    0.6425351252048486 T T T Hf
   0.3829001786845794    0.8512994639462617    0.6425351252048486 T T T Hf
   0.6170998213154206    0.3829001786845794    0.6376734767835690 T T T Hf
   0.1170998213154207    0.8829001786845794    0.6376734767835690 T T T Hf
   0.5000000000000000    0.5000000000000001    0.6581196581196580 T T T Co
   0.0000000000000000    0.0000000000000000    0.6581196581196580 T T T Co
   0.8333333333333333    0.8333333333333334    0.6452991452991452 T T T Bi
   0.3333333333333333    0.3333333333333333    0.6452991452991452 T T T Bi
   0.6666666666666666    0.6666666666666667    0.6709401709401709 T T T Bi
   0.1666666666666666    0.1666666666666665    0.6709401709401709 T T T Bi
