Mg32 Ni64 Sn32
1.0
  12.3570542889316926    0.0000000000000000   -6.1785271444658463
  -0.0000000000000035   12.3570542889316926   -6.1785271444658463
   0.0000000000000000    0.0000000000000000   30.8926357223292314
Mg Ni Sn Mg Ni Sn
16 32 16 16 32 16
Selective dynamics
direct
   0.5000000000000000    0.4999999999999999    0.3750000000000000 T T T Mg
   0.0000000000000000    0.0000000000000000    0.3750000000000000 T T T Mg
   0.0000000000000000    0.4999999999999999    0.4750000000000000 F F F Mg
   0.5000000000000000    0.0000000000000000    0.4750000000000000 F F F Mg
   0.7500000000000000    0.7499999999999999    0.4750000000000000 F F F Mg
   0.2500000000000000    0.2500000000000000    0.4750000000000000 F F F Mg
   0.2500000000000000    0.7499999999999999    0.3749999999999999 T T T Mg
   0.7500000000000000    0.2499999999999999    0.3750000000000000 T T T Mg
   0.5000000000000000    0.7499999999999999    0.3250000000000000 T T T Mg
   0.0000000000000000    0.2500000000000000    0.3250000000000000 T T T Mg
   0.0000000000000000    0.7500000000000000    0.4250000000000000 T T T Mg
   0.5000000000000000    0.2499999999999999    0.4250000000000000 T T T Mg
   0.7500000000000000    0.4999999999999999    0.3250000000000000 T T T Mg
   0.2500000000000000    0.0000000000000000    0.3250000000000000 T T T Mg
   0.2500000000000000    0.4999999999999999    0.4250000000000000 T T T Mg
   0.7500000000000000    0.9999999999999999    0.4249999999999999 T T T Mg
   0.6250000000000000    0.8749999999999999    0.4249999999999999 T T T Ni
   0.1250000000000000    0.3749999999999999    0.4249999999999999 T T T Ni
   0.1250000000000000    0.8749999999999999    0.3250000000000000 T T T Ni
   0.6250000000000000    0.3749999999999999    0.3250000000000000 T T T Ni
   0.8750000000000000    0.8749999999999999    0.4750000000000000 F F F Ni
   0.3750000000000000    0.3749999999999999    0.4750000000000000 F F F Ni
   0.3750000000000000    0.8749999999999999    0.3750000000000000 T T T Ni
   0.8750000000000000    0.3749999999999998    0.3749999999999999 T T T Ni
   0.8750000000000000    0.6249999999999999    0.4250000000000000 T T T Ni
   0.3750000000000000    0.1250000000000000    0.4250000000000000 T T T Ni
   0.3750000000000000    0.6249999999999999    0.3250000000000000 T T T Ni
   0.8750000000000000    0.1249999999999999    0.3250000000000000 T T T Ni
   0.6250000000000000    0.6249999999999999    0.3750000000000000 T T T Ni
   0.1250000000000000    0.1250000000000000    0.3750000000000000 T T T Ni
   0.1250000000000000    0.6249999999999999    0.4750000000000000 F F F Ni
   0.6250000000000000    0.1249999999999999    0.4750000000000000 F F F Ni
   0.6250000000000000    0.6249999999999999    0.4750000000000000 F F F Ni
   0.1250000000000000    0.1250000000000000    0.4750000000000000 F F F Ni
   0.1250000000000000    0.6249999999999999    0.3750000000000000 T T T Ni
   0.6250000000000000    0.1249999999999999    0.3749999999999999 T T T Ni
   0.8750000000000000    0.6249999999999999    0.3250000000000000 T T T Ni
   0.3750000000000000    0.1250000000000000    0.3250000000000000 T T T Ni
   0.3750000000000000    0.6250000000000000    0.4250000000000000 T T T Ni
   0.8750000000000000    0.1249999999999999    0.4249999999999999 T T T Ni
   0.8750000000000000    0.8749999999999999    0.3750000000000000 T T T Ni
   0.3750000000000000    0.3749999999999999    0.3750000000000000 T T T Ni
   0.3750000000000000    0.8749999999999999    0.4750000000000000 F F F Ni
   0.8750000000000000    0.3749999999999999    0.4750000000000000 F F F Ni
   0.6250000000000000    0.8749999999999999    0.3250000000000000 T T T Ni
   0.1250000000000000    0.3749999999999999    0.3250000000000000 T T T Ni
   0.1250000000000000    0.8749999999999999    0.4250000000000000 T T T Ni
   0.6250000000000000    0.3749999999999998    0.4249999999999999 T T T Ni
   0.5000000000000000    0.4999999999999999    0.4750000000000000 F F F Sn
   0.0000000000000000    0.0000000000000000    0.4750000000000000 F F F Sn
   0.0000000000000000    0.5000000000000000    0.3750000000000000 T T T Sn
   0.5000000000000000    0.0000000000000000    0.3750000000000000 T T T Sn
   0.7500000000000000    0.7499999999999999    0.3750000000000000 T T T Sn
   0.2500000000000000    0.2499999999999999    0.3750000000000000 T T T Sn
   0.2500000000000000    0.7499999999999999    0.4750000000000000 F F F Sn
   0.7500000000000000    0.2499999999999999    0.4750000000000000 F F F Sn
   0.5000000000000000    0.7499999999999999    0.4249999999999999 T T T Sn
   0.0000000000000000    0.2500000000000000    0.4250000000000000 T T T Sn
   0.0000000000000000    0.7499999999999999    0.3250000000000000 T T T Sn
   0.5000000000000000    0.2499999999999999    0.3250000000000000 T T T Sn
   0.7500000000000000    0.4999999999999999    0.4249999999999999 T T T Sn
   0.2500000000000000    0.0000000000000000    0.4249999999999999 T T T Sn
   0.2500000000000000    0.4999999999999999    0.3250000000000000 T T T Sn
   0.7500000000000000    0.9999999999999999    0.3250000000000000 T T T Sn
   0.5000000000000000    0.4999999999999999    0.5750000000000000 T T T Mg
   0.0000000000000000    0.0000000000000000    0.5750000000000000 T T T Mg
   0.0000000000000000    0.4999999999999999    0.6750000000000000 T T T Mg
   0.5000000000000000    0.0000000000000000    0.6750000000000000 T T T Mg
   0.7500000000000000    0.7499999999999999    0.6750000000000000 T T T Mg
   0.2500000000000000    0.2500000000000000    0.6750000000000000 T T T Mg
   0.2500000000000000    0.7499999999999999    0.5750000000000000 T T T Mg
   0.7500000000000000    0.2499999999999999    0.5750000000000000 T T T Mg
   0.5000000000000000    0.7499999999999999    0.5250000000000000 F F F Mg
   0.0000000000000000    0.2500000000000000    0.5250000000000000 F F F Mg
   0.0000000000000000    0.7500000000000000    0.6250000000000000 T T T Mg
   0.5000000000000000    0.2499999999999999    0.6250000000000000 T T T Mg
   0.7500000000000000    0.4999999999999999    0.5250000000000000 F F F Mg
   0.2500000000000000    0.0000000000000000    0.5250000000000000 F F F Mg
   0.2500000000000000    0.4999999999999999    0.6250000000000000 T T T Mg
   0.7500000000000000    0.9999999999999999    0.6250000000000000 T T T Mg
   0.6250000000000000    0.8749999999999999    0.6250000000000000 T T T Ni
   0.1250000000000000    0.3749999999999999    0.6250000000000000 T T T Ni
   0.1250000000000000    0.8749999999999999    0.5250000000000000 F F F Ni
   0.6250000000000000    0.3749999999999999    0.5249999999999999 F F F Ni
   0.8750000000000000    0.8749999999999999    0.6750000000000000 T T T Ni
   0.3750000000000000    0.3749999999999999    0.6750000000000000 T T T Ni
   0.3750000000000000    0.8749999999999999    0.5750000000000000 T T T Ni
   0.8750000000000000    0.3749999999999998    0.5750000000000000 T T T Ni
   0.8750000000000000    0.6249999999999999    0.6250000000000000 T T T Ni
   0.3750000000000000    0.1250000000000000    0.6250000000000000 T T T Ni
   0.3750000000000000    0.6249999999999999    0.5250000000000000 F F F Ni
   0.8750000000000000    0.1249999999999999    0.5249999999999999 F F F Ni
   0.6250000000000000    0.6249999999999999    0.5750000000000000 T T T Ni
   0.1250000000000000    0.1250000000000000    0.5750000000000000 T T T Ni
   0.1250000000000000    0.6249999999999999    0.6750000000000000 T T T Ni
   0.6250000000000000    0.1249999999999999    0.6750000000000000 T T T Ni
   0.6250000000000000    0.6249999999999999    0.6750000000000000 T T T Ni
   0.1250000000000000    0.1250000000000000    0.6750000000000000 T T T Ni
   0.1250000000000000    0.6249999999999999    0.5750000000000000 T T T Ni
   0.6250000000000000    0.1249999999999999    0.5750000000000000 T T T Ni
   0.8750000000000000    0.6249999999999999    0.5250000000000000 F F F Ni
   0.3750000000000000    0.1250000000000000    0.5250000000000000 F F F Ni
   0.3750000000000000    0.6250000000000000    0.6250000000000000 T T T Ni
   0.8750000000000000    0.1249999999999999    0.6250000000000000 T T T Ni
   0.8750000000000000    0.8749999999999999    0.5750000000000000 T T T Ni
   0.3750000000000000    0.3749999999999999    0.5750000000000000 T T T Ni
   0.3750000000000000    0.8749999999999999    0.6750000000000000 T T T Ni
   0.8750000000000000    0.3749999999999999    0.6750000000000000 T T T Ni
   0.6250000000000000    0.8749999999999999    0.5250000000000000 F F F Ni
   0.1250000000000000    0.3749999999999999    0.5250000000000000 F F F Ni
   0.1250000000000000    0.8749999999999999    0.6250000000000000 T T T Ni
   0.6250000000000000    0.3749999999999998    0.6250000000000000 T T T Ni
   0.5000000000000000    0.4999999999999999    0.6750000000000000 T T T Sn
   0.0000000000000000    0.0000000000000000    0.6750000000000000 T T T Sn
   0.0000000000000000    0.5000000000000000    0.5750000000000000 T T T Sn
   0.5000000000000000    0.0000000000000000    0.5750000000000000 T T T Sn
   0.7500000000000000    0.7499999999999999    0.5750000000000000 T T T Sn
   0.2500000000000000    0.2499999999999999    0.5750000000000000 T T T Sn
   0.2500000000000000    0.7499999999999999    0.6750000000000000 T T T Sn
   0.7500000000000000    0.2499999999999999    0.6750000000000000 T T T Sn
   0.5000000000000000    0.7499999999999999    0.6250000000000000 T T T Sn
   0.0000000000000000    0.2500000000000000    0.6250000000000000 T T T Sn
   0.0000000000000000    0.7499999999999999    0.5250000000000000 F F F Sn
   0.5000000000000000    0.2499999999999999    0.5250000000000000 F F F Sn
   0.7500000000000000    0.4999999999999999    0.6250000000000000 T T T Sn
   0.2500000000000000    0.0000000000000000    0.6250000000000000 T T T Sn
   0.2500000000000000    0.4999999999999999    0.5249999999999999 F F F Sn
   0.7500000000000000    0.9999999999999999    0.5250000000000000 F F F Sn
