Hf12 Al12 Zn12
1.0
   5.2813175961382361    0.0000000000000000    0.0000000000000003
   0.0000000000000012    7.3753843191311690   -5.1932447800890253
   0.0000000000000000    0.0000000000000000   36.3527134606231712
Hf Al Zn Hf Al Zn Hf Al Zn
4 4 4 4 4 4 4 4 4
Selective dynamics
direct
   0.2500000000000000    0.8735529104763592    0.3747932729251943 T T T Hf
   0.7500000000000000    0.1264470895236408    0.4109210127890916 T T T Hf
   0.7500000000000000    0.3735529104763594    0.3747932729251943 T T T Hf
   0.2500000000000000    0.6264470895236408    0.4109210127890917 T T T Hf
   0.5000000000000000    0.0000000000000000    0.3214285714285715 T T T Al
   0.0000000000000000    0.0000000000000000    0.3214285714285715 T T T Al
   0.0000000000000000    0.5000000000000000    0.3214285714285715 T T T Al
   0.5000000000000000    0.5000000000000000    0.3214285714285715 T T T Al
   0.7500000000000000    0.7500000000000000    0.3214285714285715 T T T Zn
   0.7500000000000000    0.7500000000000000    0.3928571428571429 T T T Zn
   0.2500000000000000    0.2500000000000000    0.3214285714285715 T T T Zn
   0.2500000000000000    0.2500000000000000    0.3928571428571429 T T T Zn
   0.2500000000000000    0.8735529104763592    0.5176504157823371 F F F Hf
   0.7500000000000000    0.1264470895236408    0.5537781556462344 F F F Hf
   0.7500000000000000    0.3735529104763594    0.5176504157823372 F F F Hf
   0.2500000000000000    0.6264470895236408    0.5537781556462344 F F F Hf
   0.5000000000000000    0.0000000000000000    0.4642857142857143 F F F Al
   0.0000000000000000    0.0000000000000000    0.4642857142857143 F F F Al
   0.0000000000000000    0.5000000000000000    0.4642857142857143 F F F Al
   0.5000000000000000    0.5000000000000000    0.4642857142857143 F F F Al
   0.7500000000000000    0.7500000000000000    0.4642857142857143 F F F Zn
   0.7500000000000000    0.7500000000000000    0.5357142857142858 F F F Zn
   0.2500000000000000    0.2500000000000000    0.4642857142857143 F F F Zn
   0.2500000000000000    0.2500000000000000    0.5357142857142858 F F F Zn
   0.2500000000000000    0.8735529104763592    0.6605075586394800 T T T Hf
   0.7500000000000000    0.1264470895236408    0.6966352985033772 T T T Hf
   0.7500000000000000    0.3735529104763594    0.6605075586394800 T T T Hf
   0.2500000000000000    0.6264470895236408    0.6966352985033774 T T T Hf
   0.5000000000000000    0.0000000000000000    0.6071428571428572 T T T Al
   0.0000000000000000    0.0000000000000000    0.6071428571428572 T T T Al
   0.0000000000000000    0.5000000000000000    0.6071428571428572 T T T Al
   0.5000000000000000    0.5000000000000000    0.6071428571428572 T T T Al
   0.7500000000000000    0.7500000000000000    0.6071428571428572 T T T Zn
   0.7500000000000000    0.7500000000000000    0.6785714285714286 T T T Zn
   0.2500000000000000    0.2500000000000000    0.6071428571428572 T T T Zn
   0.2500000000000000    0.2500000000000000    0.6785714285714286 T T T Zn
