Sr48 In96 Ir48
1.0
  22.3652384640561266    0.0000000000000000   -4.3400485556471500
  -0.0000000000000010   16.3463705238646817   -4.3400485556471500
   0.0000000000000000    0.0000000000000000   30.3803398895300560
Sr In Ir Sr In Ir Sr In Ir
16 32 16 16 32 16 16 32 16
Selective dynamics
direct
   0.5303489938728259    0.6249999999999999    0.2900498562675465 T T T Sr
   0.0303489938728259    0.1250000000000000    0.2900498562675465 T T T Sr
   0.0303489938728259    0.6249999999999999    0.3614784276961180 T T T Sr
   0.5303489938728259    0.1250000000000000    0.3614784276961179 T T T Sr
   0.7196510061271741    0.8749999999999999    0.4242358580181677 F F F Sr
   0.2196510061271741    0.3749999999999999    0.4242358580181678 F F F Sr
   0.2196510061271741    0.8749999999999999    0.3528072865895963 T T T Sr
   0.7196510061271741    0.3749999999999999    0.3528072865895963 T T T Sr
   0.7803489938728260    0.6249999999999999    0.3971927134104037 F F F Sr
   0.2803489938728259    0.1250000000000000    0.3971927134104037 F F F Sr
   0.2803489938728259    0.6249999999999999    0.3257641419818323 T T T Sr
   0.7803489938728260    0.1250000000000000    0.3257641419818323 T T T Sr
   0.9696510061271741    0.8749999999999999    0.3885215723038820 T T T Sr
   0.4696510061271742    0.3749999999999999    0.3885215723038820 T T T Sr
   0.4696510061271742    0.8749999999999999    0.3170930008753106 T T T Sr
   0.9696510061271741    0.3749999999999999    0.3170930008753106 T T T Sr
   0.6724763597666925    0.7237041716372232    0.3244543616291308 T T T In
   0.1724763597666925    0.2237041716372232    0.3244543616291308 T T T In
   0.1724763597666925    0.7237041716372232    0.3958829330577023 F F F In
   0.6724763597666925    0.2237041716372232    0.3958829330577023 F F F In
   0.6724763597666925    0.5262958283627767    0.2962531697327813 T T T In
   0.1724763597666925    0.0262958283627767    0.2962531697327813 T T T In
   0.1724763597666925    0.5262958283627767    0.3676817411613528 T T T In
   0.6724763597666925    0.0262958283627767    0.3676817411613528 T T T In
   0.5775236402333075    0.7762958283627767    0.3898313526565834 T T T In
   0.0775236402333075    0.2762958283627767    0.3898313526565835 T T T In
   0.0775236402333075    0.7762958283627768    0.3184027812280120 T T T In
   0.5775236402333075    0.2762958283627767    0.3184027812280120 T T T In
   0.5775236402333075    0.9737041716372232    0.4180325445529329 F F F In
   0.0775236402333075    0.4737041716372232    0.4180325445529329 F F F In
   0.0775236402333075    0.9737041716372232    0.3466039731243615 T T T In
   0.5775236402333075    0.4737041716372232    0.3466039731243615 T T T In
   0.9224763597666925    0.7237041716372232    0.2887400759148451 T T T In
   0.4224763597666926    0.2237041716372232    0.2887400759148451 T T T In
   0.4224763597666926    0.7237041716372232    0.3601686473434165 T T T In
   0.9224763597666925    0.2237041716372232    0.3601686473434165 T T T In
   0.9224763597666925    0.5262958283627767    0.4033960268756385 F F F In
   0.4224763597666926    0.0262958283627767    0.4033960268756385 F F F In
   0.4224763597666926    0.5262958283627768    0.3319674554470670 T T T In
   0.9224763597666925    0.0262958283627767    0.3319674554470670 T T T In
   0.8275236402333074    0.7762958283627767    0.3541170669422977 T T T In
   0.3275236402333075    0.2762958283627767    0.3541170669422977 T T T In
   0.3275236402333075    0.7762958283627767    0.4255456383708692 F F F In
   0.8275236402333074    0.2762958283627767    0.4255456383708691 F F F In
   0.8275236402333074    0.9737041716372231    0.3823182588386472 T T T In
   0.3275236402333075    0.4737041716372232    0.3823182588386472 T T T In
   0.3275236402333075    0.9737041716372232    0.3108896874100758 T T T In
   0.8275236402333074    0.4737041716372232    0.3108896874100758 T T T In
   0.6401851792942175    0.6249999999999999    0.3771693113277453 T T T Ir
   0.1401851792942175    0.1250000000000000    0.3771693113277453 T T T Ir
   0.1401851792942175    0.6249999999999999    0.3057407398991739 T T T Ir
   0.6401851792942175    0.1250000000000000    0.3057407398991739 T T T Ir
   0.6098148207057825    0.8750000000000000    0.3371164029579689 T T T Ir
   0.1098148207057825    0.3750000000000000    0.3371164029579689 T T T Ir
   0.1098148207057825    0.8750000000000000    0.4085449743865404 F F F Ir
   0.6098148207057825    0.3750000000000000    0.4085449743865404 F F F Ir
   0.8901851792942175    0.6249999999999999    0.3414550256134596 T T T Ir
   0.3901851792942175    0.1250000000000000    0.3414550256134596 T T T Ir
   0.3901851792942175    0.6249999999999999    0.4128835970420310 F F F Ir
   0.8901851792942175    0.1250000000000000    0.4128835970420310 F F F Ir
   0.8598148207057826    0.8749999999999999    0.3014021172436832 T T T Ir
   0.3598148207057826    0.3749999999999999    0.3014021172436832 T T T Ir
   0.3598148207057826    0.8749999999999999    0.3728306886722547 T T T Ir
   0.8598148207057826    0.3749999999999999    0.3728306886722547 T T T Ir
   0.5303489938728259    0.6249999999999999    0.4329069991246894 F F F Sr
   0.0303489938728259    0.1250000000000000    0.4329069991246894 F F F Sr
   0.0303489938728259    0.6249999999999999    0.5043355705532608 F F F Sr
   0.5303489938728259    0.1250000000000000    0.5043355705532608 F F F Sr
   0.7196510061271741    0.8749999999999999    0.5670930008753106 F F F Sr
   0.2196510061271741    0.3749999999999999    0.5670930008753106 F F F Sr
   0.2196510061271741    0.8749999999999999    0.4956644294467392 F F F Sr
   0.7196510061271741    0.3749999999999999    0.4956644294467392 F F F Sr
   0.7803489938728260    0.6249999999999999    0.5400498562675465 F F F Sr
   0.2803489938728259    0.1250000000000000    0.5400498562675465 F F F Sr
   0.2803489938728259    0.6249999999999999    0.4686212848389751 F F F Sr
   0.7803489938728260    0.1250000000000000    0.4686212848389751 F F F Sr
   0.9696510061271741    0.8749999999999999    0.5313787151610249 F F F Sr
   0.4696510061271742    0.3749999999999999    0.5313787151610249 F F F Sr
   0.4696510061271742    0.8749999999999999    0.4599501437324535 F F F Sr
   0.9696510061271741    0.3749999999999999    0.4599501437324535 F F F Sr
   0.6724763597666925    0.7237041716372232    0.4673115044862737 F F F In
   0.1724763597666925    0.2237041716372232    0.4673115044862737 F F F In
   0.1724763597666925    0.7237041716372232    0.5387400759148451 F F F In
   0.6724763597666925    0.2237041716372232    0.5387400759148451 F F F In
   0.6724763597666925    0.5262958283627767    0.4391103125899242 F F F In
   0.1724763597666925    0.0262958283627767    0.4391103125899242 F F F In
   0.1724763597666925    0.5262958283627767    0.5105388840184956 F F F In
   0.6724763597666925    0.0262958283627767    0.5105388840184957 F F F In
   0.5775236402333075    0.7762958283627767    0.5326884955137263 F F F In
   0.0775236402333075    0.2762958283627767    0.5326884955137263 F F F In
   0.0775236402333075    0.7762958283627768    0.4612599240851549 F F F In
   0.5775236402333075    0.2762958283627767    0.4612599240851549 F F F In
   0.5775236402333075    0.9737041716372232    0.5608896874100758 F F F In
   0.0775236402333075    0.4737041716372232    0.5608896874100758 F F F In
   0.0775236402333075    0.9737041716372232    0.4894611159815044 F F F In
   0.5775236402333075    0.4737041716372232    0.4894611159815044 F F F In
   0.9224763597666925    0.7237041716372232    0.4315972187719880 F F F In
   0.4224763597666926    0.2237041716372232    0.4315972187719880 F F F In
   0.4224763597666926    0.7237041716372232    0.5030257902005594 F F F In
   0.9224763597666925    0.2237041716372232    0.5030257902005594 F F F In
   0.9224763597666925    0.5262958283627767    0.5462531697327813 F F F In
   0.4224763597666926    0.0262958283627767    0.5462531697327813 F F F In
   0.4224763597666926    0.5262958283627768    0.4748245983042099 F F F In
   0.9224763597666925    0.0262958283627767    0.4748245983042099 F F F In
   0.8275236402333074    0.7762958283627767    0.4969742097994406 F F F In
   0.3275236402333075    0.2762958283627767    0.4969742097994406 F F F In
   0.3275236402333075    0.7762958283627767    0.5684027812280120 F F F In
   0.8275236402333074    0.2762958283627767    0.5684027812280120 F F F In
   0.8275236402333074    0.9737041716372231    0.5251754016957901 F F F In
   0.3275236402333075    0.4737041716372232    0.5251754016957901 F F F In
   0.3275236402333075    0.9737041716372232    0.4537468302672186 F F F In
   0.8275236402333074    0.4737041716372232    0.4537468302672186 F F F In
   0.6401851792942175    0.6249999999999999    0.5200264541848882 F F F Ir
   0.1401851792942175    0.1250000000000000    0.5200264541848882 F F F Ir
   0.1401851792942175    0.6249999999999999    0.4485978827563167 F F F Ir
   0.6401851792942175    0.1250000000000000    0.4485978827563167 F F F Ir
   0.6098148207057825    0.8750000000000000    0.4799735458151118 F F F Ir
   0.1098148207057825    0.3750000000000000    0.4799735458151118 F F F Ir
   0.1098148207057825    0.8750000000000000    0.5514021172436832 F F F Ir
   0.6098148207057825    0.3750000000000000    0.5514021172436832 F F F Ir
   0.8901851792942175    0.6249999999999999    0.4843121684706025 F F F Ir
   0.3901851792942175    0.1250000000000000    0.4843121684706025 F F F Ir
   0.3901851792942175    0.6249999999999999    0.5557407398991739 F F F Ir
   0.8901851792942175    0.1250000000000000    0.5557407398991739 F F F Ir
   0.8598148207057826    0.8749999999999999    0.4442592601008261 F F F Ir
   0.3598148207057826    0.3749999999999999    0.4442592601008261 F F F Ir
   0.3598148207057826    0.8749999999999999    0.5156878315293976 F F F Ir
   0.8598148207057826    0.3749999999999999    0.5156878315293976 F F F Ir
   0.5303489938728259    0.6249999999999999    0.5757641419818322 F F F Sr
   0.0303489938728259    0.1250000000000000    0.5757641419818322 F F F Sr
   0.0303489938728259    0.6249999999999999    0.6471927134104036 T T T Sr
   0.5303489938728259    0.1250000000000000    0.6471927134104036 T T T Sr
   0.7196510061271741    0.8749999999999999    0.7099501437324534 T T T Sr
   0.2196510061271741    0.3749999999999999    0.7099501437324535 T T T Sr
   0.2196510061271741    0.8749999999999999    0.6385215723038820 T T T Sr
   0.7196510061271741    0.3749999999999999    0.6385215723038820 T T T Sr
   0.7803489938728260    0.6249999999999999    0.6829069991246894 T T T Sr
   0.2803489938728259    0.1250000000000000    0.6829069991246894 T T T Sr
   0.2803489938728259    0.6249999999999999    0.6114784276961180 T T T Sr
   0.7803489938728260    0.1250000000000000    0.6114784276961180 T T T Sr
   0.9696510061271741    0.8749999999999999    0.6742358580181678 T T T Sr
   0.4696510061271742    0.3749999999999999    0.6742358580181678 T T T Sr
   0.4696510061271742    0.8749999999999999    0.6028072865895964 F F F Sr
   0.9696510061271741    0.3749999999999999    0.6028072865895964 F F F Sr
   0.6724763597666925    0.7237041716372232    0.6101686473434165 T T T In
   0.1724763597666925    0.2237041716372232    0.6101686473434165 T T T In
   0.1724763597666925    0.7237041716372232    0.6815972187719880 T T T In
   0.6724763597666925    0.2237041716372232    0.6815972187719880 T T T In
   0.6724763597666925    0.5262958283627767    0.5819674554470671 F F F In
   0.1724763597666925    0.0262958283627767    0.5819674554470671 F F F In
   0.1724763597666925    0.5262958283627767    0.6533960268756385 T T T In
   0.6724763597666925    0.0262958283627767    0.6533960268756385 T T T In
   0.5775236402333075    0.7762958283627767    0.6755456383708691 T T T In
   0.0775236402333075    0.2762958283627767    0.6755456383708691 T T T In
   0.0775236402333075    0.7762958283627768    0.6041170669422977 F F F In
   0.5775236402333075    0.2762958283627767    0.6041170669422977 F F F In
   0.5775236402333075    0.9737041716372232    0.7037468302672186 T T T In
   0.0775236402333075    0.4737041716372232    0.7037468302672186 T T T In
   0.0775236402333075    0.9737041716372232    0.6323182588386472 T T T In
   0.5775236402333075    0.4737041716372232    0.6323182588386472 T T T In
   0.9224763597666925    0.7237041716372232    0.5744543616291309 F F F In
   0.4224763597666926    0.2237041716372232    0.5744543616291309 F F F In
   0.4224763597666926    0.7237041716372232    0.6458829330577023 T T T In
   0.9224763597666925    0.2237041716372232    0.6458829330577023 T T T In
   0.9224763597666925    0.5262958283627767    0.6891103125899242 T T T In
   0.4224763597666926    0.0262958283627767    0.6891103125899242 T T T In
   0.4224763597666926    0.5262958283627768    0.6176817411613527 T T T In
   0.9224763597666925    0.0262958283627767    0.6176817411613527 T T T In
   0.8275236402333074    0.7762958283627767    0.6398313526565834 T T T In
   0.3275236402333075    0.2762958283627767    0.6398313526565834 T T T In
   0.3275236402333075    0.7762958283627767    0.7112599240851549 T T T In
   0.8275236402333074    0.2762958283627767    0.7112599240851548 T T T In
   0.8275236402333074    0.9737041716372231    0.6680325445529329 T T T In
   0.3275236402333075    0.4737041716372232    0.6680325445529329 T T T In
   0.3275236402333075    0.9737041716372232    0.5966039731243615 F F F In
   0.8275236402333074    0.4737041716372232    0.5966039731243615 F F F In
   0.6401851792942175    0.6249999999999999    0.6628835970420310 T T T Ir
   0.1401851792942175    0.1250000000000000    0.6628835970420310 T T T Ir
   0.1401851792942175    0.6249999999999999    0.5914550256134596 F F F Ir
   0.6401851792942175    0.1250000000000000    0.5914550256134596 F F F Ir
   0.6098148207057825    0.8750000000000000    0.6228306886722546 T T T Ir
   0.1098148207057825    0.3750000000000000    0.6228306886722546 T T T Ir
   0.1098148207057825    0.8750000000000000    0.6942592601008261 T T T Ir
   0.6098148207057825    0.3750000000000000    0.6942592601008261 T T T Ir
   0.8901851792942175    0.6249999999999999    0.6271693113277453 T T T Ir
   0.3901851792942175    0.1250000000000000    0.6271693113277453 T T T Ir
   0.3901851792942175    0.6249999999999999    0.6985978827563167 T T T Ir
   0.8901851792942175    0.1250000000000000    0.6985978827563167 T T T Ir
   0.8598148207057826    0.8749999999999999    0.5871164029579690 F F F Ir
   0.3598148207057826    0.3749999999999999    0.5871164029579690 F F F Ir
   0.3598148207057826    0.8749999999999999    0.6585449743865404 T T T Ir
   0.8598148207057826    0.3749999999999999    0.6585449743865404 T T T Ir
