Sc36 Fe6 Te12
1.0
  13.3804791798515037    0.0000000000000000    0.0000000000000008
   6.6902395899257519    3.8626116281867278    7.6054583911174571
   0.0000000000000000    0.0000000000000000   57.0409379333809312
Sc Fe Te Sc Fe Te Sc Fe Te Sc Fe Te Sc Fe Te Sc Fe Te
6 1 2 6 1 2 6 1 2 6 1 2 6 1 2 6 1 2
Selective dynamics
direct
   0.0000000000000000    0.7669798230187013    0.3125508384123213 T T T Sc
   0.7669798230187013    0.4660403539625975    0.3526761009531352 T T T Sc
   0.2330201769812987    0.7669798230187013    0.3125508384123213 T T T Sc
   0.0000000000000000    0.3849800317591274    0.3301508105802645 T T T Sc
   0.3849800317591274    0.2300399364817453    0.3508094899505821 T T T Sc
   0.6150199682408726    0.3849800317591274    0.3301508105802645 T T T Sc
   0.0000000000000000    0.0000000000000000    0.3148148148148148 T T T Fe
   0.6666666666666666    0.0000000000000000    0.3481481481481482 T T T Te
   0.3333333333333334    0.0000000000000000    0.3481481481481482 T T T Te
   0.0000000000000000    0.7669798230187013    0.3792175050789880 T T T Sc
   0.7669798230187013    0.4660403539625975    0.4193427676198018 T T T Sc
   0.2330201769812987    0.7669798230187013    0.3792175050789880 T T T Sc
   0.0000000000000000    0.3849800317591274    0.3968174772469312 T T T Sc
   0.3849800317591274    0.2300399364817453    0.4174761566172488 T T T Sc
   0.6150199682408726    0.3849800317591274    0.3968174772469312 T T T Sc
   0.0000000000000000    0.0000000000000000    0.3814814814814815 T T T Fe
   0.6666666666666666    0.0000000000000000    0.4148148148148149 T T T Te
   0.3333333333333334    0.0000000000000000    0.4148148148148149 T T T Te
   0.0000000000000000    0.7669798230187013    0.4458841717456546 F F F Sc
   0.7669798230187013    0.4660403539625975    0.4860094342864685 F F F Sc
   0.2330201769812987    0.7669798230187013    0.4458841717456546 F F F Sc
   0.0000000000000000    0.3849800317591274    0.4634841439135978 F F F Sc
   0.3849800317591274    0.2300399364817453    0.4841428232839154 F F F Sc
   0.6150199682408726    0.3849800317591274    0.4634841439135978 F F F Sc
   0.0000000000000000    0.0000000000000000    0.4481481481481482 F F F Fe
   0.6666666666666666    0.0000000000000000    0.4814814814814815 F F F Te
   0.3333333333333334    0.0000000000000000    0.4814814814814815 F F F Te
   0.0000000000000000    0.7669798230187013    0.5125508384123213 F F F Sc
   0.7669798230187013    0.4660403539625975    0.5526761009531351 F F F Sc
   0.2330201769812987    0.7669798230187013    0.5125508384123213 F F F Sc
   0.0000000000000000    0.3849800317591274    0.5301508105802646 F F F Sc
   0.3849800317591274    0.2300399364817453    0.5508094899505822 F F F Sc
   0.6150199682408726    0.3849800317591274    0.5301508105802646 F F F Sc
   0.0000000000000000    0.0000000000000000    0.5148148148148148 F F F Fe
   0.6666666666666666    0.0000000000000000    0.5481481481481482 F F F Te
   0.3333333333333334    0.0000000000000000    0.5481481481481482 F F F Te
   0.0000000000000000    0.7669798230187013    0.5792175050789881 T T T Sc
   0.7669798230187013    0.4660403539625975    0.6193427676198018 T T T Sc
   0.2330201769812987    0.7669798230187013    0.5792175050789881 T T T Sc
   0.0000000000000000    0.3849800317591274    0.5968174772469312 T T T Sc
   0.3849800317591274    0.2300399364817453    0.6174761566172489 T T T Sc
   0.6150199682408726    0.3849800317591274    0.5968174772469312 T T T Sc
   0.0000000000000000    0.0000000000000000    0.5814814814814815 T T T Fe
   0.6666666666666666    0.0000000000000000    0.6148148148148148 T T T Te
   0.3333333333333334    0.0000000000000000    0.6148148148148148 T T T Te
   0.0000000000000000    0.7669798230187013    0.6458841717456547 T T T Sc
   0.7669798230187013    0.4660403539625975    0.6860094342864684 T T T Sc
   0.2330201769812987    0.7669798230187013    0.6458841717456547 T T T Sc
   0.0000000000000000    0.3849800317591274    0.6634841439135979 T T T Sc
   0.3849800317591274    0.2300399364817453    0.6841428232839155 T T T Sc
   0.6150199682408726    0.3849800317591274    0.6634841439135979 T T T Sc
   0.0000000000000000    0.0000000000000000    0.6481481481481481 T T T Fe
   0.6666666666666666    0.0000000000000000    0.6814814814814815 T T T Te
   0.3333333333333334    0.0000000000000000    0.6814814814814815 T T T Te
