Hf12 Si6 As18
1.0
   3.6614690195131132    0.0000000000000000    0.0000000000000002
   0.0000000000000026   16.4013359074652278   -3.6614690195131137
   0.0000000000000000    0.0000000000000000   29.2917521561049057
Hf Si As Hf Si As Hf Si As
4 2 6 4 2 6 4 2 6
Selective dynamics
direct
   0.0000000000000000    0.3678496743445799    0.3793145426264058 T T T Hf
   0.0000000000000000    0.8678496743445799    0.3168145426264058 T T T Hf
   0.5000000000000000    0.1321503256554202    0.4123521240402609 T T T Hf
   0.5000000000000000    0.6321503256554202    0.3498521240402609 T T T Hf
   0.5000000000000000    0.0000000000000000    0.3333333333333334 T T T Si
   0.5000000000000000    0.5000000000000000    0.3958333333333334 T T T Si
   0.0000000000000000    0.1926534135716942    0.3574150100297951 T T T As
   0.0000000000000000    0.6926534135716943    0.4199150100297951 T T T As
   0.5000000000000000    0.3073465864283058    0.4342516566368716 F F F As
   0.5000000000000000    0.8073465864283058    0.3717516566368716 T T T As
   0.0000000000000000    0.0000000000000000    0.3958333333333334 T T T As
   0.0000000000000000    0.5000000000000000    0.3333333333333334 T T T As
   0.0000000000000000    0.3678496743445799    0.5043145426264058 F F F Hf
   0.0000000000000000    0.8678496743445799    0.4418145426264058 F F F Hf
   0.5000000000000000    0.1321503256554202    0.5373521240402609 F F F Hf
   0.5000000000000000    0.6321503256554202    0.4748521240402609 F F F Hf
   0.5000000000000000    0.0000000000000000    0.4583333333333334 F F F Si
   0.5000000000000000    0.5000000000000000    0.5208333333333334 F F F Si
   0.0000000000000000    0.1926534135716942    0.4824150100297951 F F F As
   0.0000000000000000    0.6926534135716943    0.5449150100297951 F F F As
   0.5000000000000000    0.3073465864283058    0.5592516566368716 F F F As
   0.5000000000000000    0.8073465864283058    0.4967516566368716 F F F As
   0.0000000000000000    0.0000000000000000    0.5208333333333334 F F F As
   0.0000000000000000    0.5000000000000000    0.4583333333333334 F F F As
   0.0000000000000000    0.3678496743445799    0.6293145426264058 T T T Hf
   0.0000000000000000    0.8678496743445799    0.5668145426264058 F F F Hf
   0.5000000000000000    0.1321503256554202    0.6623521240402609 T T T Hf
   0.5000000000000000    0.6321503256554202    0.5998521240402609 T T T Hf
   0.5000000000000000    0.0000000000000000    0.5833333333333334 T T T Si
   0.5000000000000000    0.5000000000000000    0.6458333333333334 T T T Si
   0.0000000000000000    0.1926534135716942    0.6074150100297951 T T T As
   0.0000000000000000    0.6926534135716943    0.6699150100297951 T T T As
   0.5000000000000000    0.3073465864283058    0.6842516566368716 T T T As
   0.5000000000000000    0.8073465864283058    0.6217516566368716 T T T As
   0.0000000000000000    0.0000000000000000    0.6458333333333334 T T T As
   0.0000000000000000    0.5000000000000000    0.5833333333333334 T T T As
