Mg24 Pd12 Rh12
1.0
   6.2916760079400298    0.0000000000000000    0.0000000000000004
   0.0000000000000010    6.2916760079400298   -6.2916760079400289
   0.0000000000000000    0.0000000000000000   44.0417320555802121
Mg Pd Rh Mg Pd Rh Mg Pd Rh
8 4 4 8 4 4 8 4 4
Selective dynamics
direct
   0.2500000000000001    0.2500000000000000    0.3928571428571428 T T T Mg
   0.2500000000000001    0.7500000000000000    0.3214285714285714 T T T Mg
   0.7500000000000000    0.7500000000000000    0.3214285714285714 T T T Mg
   0.7500000000000000    0.2500000000000000    0.3928571428571428 T T T Mg
   0.7500000000000000    0.2500000000000000    0.3214285714285714 T T T Mg
   0.7500000000000000    0.7500000000000000    0.3928571428571428 T T T Mg
   0.2500000000000001    0.7500000000000000    0.3928571428571428 T T T Mg
   0.2500000000000000    0.2500000000000000    0.3214285714285714 T T T Mg
   0.0000000000000000    0.0000000000000000    0.3928571428571428 T T T Pd
   0.5000000000000000    0.5000000000000000    0.3214285714285714 T T T Pd
   0.5000000000000000    0.0000000000000000    0.3214285714285714 T T T Pd
   0.0000000000000000    0.5000000000000000    0.3928571428571428 T T T Pd
   0.0000000000000000    0.0000000000000000    0.3214285714285714 T T T Rh
   0.5000000000000000    0.5000000000000000    0.3928571428571428 T T T Rh
   0.5000000000000000    0.0000000000000000    0.3928571428571428 T T T Rh
   0.0000000000000000    0.5000000000000000    0.3214285714285714 T T T Rh
   0.2500000000000001    0.2500000000000000    0.5357142857142857 F F F Mg
   0.2500000000000001    0.7500000000000000    0.4642857142857142 F F F Mg
   0.7500000000000000    0.7500000000000000    0.4642857142857142 F F F Mg
   0.7500000000000000    0.2500000000000000    0.5357142857142857 F F F Mg
   0.7500000000000000    0.2500000000000000    0.4642857142857142 F F F Mg
   0.7500000000000000    0.7500000000000000    0.5357142857142857 F F F Mg
   0.2500000000000001    0.7500000000000000    0.5357142857142857 F F F Mg
   0.2500000000000000    0.2500000000000000    0.4642857142857142 F F F Mg
   0.0000000000000000    0.0000000000000000    0.5357142857142857 F F F Pd
   0.5000000000000000    0.5000000000000000    0.4642857142857142 F F F Pd
   0.5000000000000000    0.0000000000000000    0.4642857142857142 F F F Pd
   0.0000000000000000    0.5000000000000000    0.5357142857142857 F F F Pd
   0.0000000000000000    0.0000000000000000    0.4642857142857142 F F F Rh
   0.5000000000000000    0.5000000000000000    0.5357142857142857 F F F Rh
   0.5000000000000000    0.0000000000000000    0.5357142857142857 F F F Rh
   0.0000000000000000    0.5000000000000000    0.4642857142857142 F F F Rh
   0.2500000000000001    0.2500000000000000    0.6785714285714286 T T T Mg
   0.2500000000000001    0.7500000000000000    0.6071428571428571 T T T Mg
   0.7500000000000000    0.7500000000000000    0.6071428571428571 T T T Mg
   0.7500000000000000    0.2500000000000000    0.6785714285714286 T T T Mg
   0.7500000000000000    0.2500000000000000    0.6071428571428571 T T T Mg
   0.7500000000000000    0.7500000000000000    0.6785714285714286 T T T Mg
   0.2500000000000001    0.7500000000000000    0.6785714285714286 T T T Mg
   0.2500000000000000    0.2500000000000000    0.6071428571428571 T T T Mg
   0.0000000000000000    0.0000000000000000    0.6785714285714286 T T T Pd
   0.5000000000000000    0.5000000000000000    0.6071428571428571 T T T Pd
   0.5000000000000000    0.0000000000000000    0.6071428571428571 T T T Pd
   0.0000000000000000    0.5000000000000000    0.6785714285714286 T T T Pd
   0.0000000000000000    0.0000000000000000    0.6071428571428571 T T T Rh
   0.5000000000000000    0.5000000000000000    0.6785714285714286 T T T Rh
   0.5000000000000000    0.0000000000000000    0.6785714285714286 T T T Rh
   0.0000000000000000    0.5000000000000000    0.6071428571428571 T T T Rh
