Zr6 Re6 Si6
1.0
   6.0575955224179818    0.0000000000000000   -3.4973544055098951
   0.0000000000000006    3.4358479722775694    0.0000000000000002
   0.0000000000000000    0.0000000000000000   34.9735440550989409
Zr Re Si Zr Re Si
3 3 3 3 3 3
Selective dynamics
direct
   0.0000000000000000    0.5000000000000000    0.3030682766108804 T T T Zr
   0.4042302719432910    0.5000000000000000    0.4222222222222222 F F F Zr
   0.5957697280567088    0.5000000000000000    0.3413761678335639 T T T Zr
   0.0000000000000000    0.0000000000000000    0.3713030845548879 T T T Re
   0.7454043116633287    0.0000000000000000    0.4222222222222222 F F F Re
   0.2545956883366713    0.0000000000000000    0.4731413598895565 F F F Re
   0.6666666666666666    0.0000000000000000    0.4888888888888889 F F F Si
   0.3333333333333333    0.0000000000000000    0.3555555555555555 T T T Si
   0.0000000000000000    0.5000000000000000    0.4222222222222222 F F F Si
   0.0000000000000000    0.5000000000000000    0.5030682766108805 F F F Zr
   0.4042302719432910    0.5000000000000000    0.6222222222222222 T T T Zr
   0.5957697280567088    0.5000000000000000    0.5413761678335640 F F F Zr
   0.0000000000000000    0.0000000000000000    0.5713030845548880 F F F Re
   0.7454043116633287    0.0000000000000000    0.6222222222222222 T T T Re
   0.2545956883366713    0.0000000000000000    0.6731413598895565 T T T Re
   0.6666666666666666    0.0000000000000000    0.6888888888888889 T T T Si
   0.3333333333333333    0.0000000000000000    0.5555555555555556 F F F Si
   0.0000000000000000    0.5000000000000000    0.6222222222222222 T T T Si
