Zr15 Re15 Si15
1.0
  12.1151910448359637    0.0000000000000000    0.0000000000000007
   6.0575955224179818    3.4973544055098928    3.4358479722775694
   0.0000000000000000    0.0000000000000000   41.2301756673308333
Zr Re Si Zr Re Si Zr Re Si Zr Re Si Zr Re Si
3 3 3 3 3 3 3 3 3 3 3 3 3 3 3
Selective dynamics
direct
   0.0000000000000000    0.5957697280567089    0.3160932634026816 T T T Zr
   0.4042302719432910    0.5957697280567089    0.3160932634026816 T T T Zr
   0.5957697280567088    0.8084605438865824    0.3817023620835255 T T T Zr
   0.0000000000000000    0.2545956883366713    0.3028577667126848 T T T Re
   0.7454043116633287    0.2545956883366713    0.3028577667126848 T T T Re
   0.2545956883366713    0.4908086233266573    0.3665066887968526 T T T Re
   0.6666666666666666    0.0000000000000000    0.3240740740740741 T T T Si
   0.3333333333333333    0.0000000000000000    0.3240740740740741 T T T Si
   0.0000000000000000    0.0000000000000000    0.3657407407407407 T T T Si
   0.0000000000000000    0.5957697280567089    0.3994265967360150 T T T Zr
   0.4042302719432910    0.5957697280567089    0.3994265967360150 T T T Zr
   0.5957697280567088    0.8084605438865824    0.4650356954168589 F F F Zr
   0.0000000000000000    0.2545956883366713    0.3861911000460181 T T T Re
   0.7454043116633287    0.2545956883366713    0.3861911000460181 T T T Re
   0.2545956883366713    0.4908086233266573    0.4498400221301859 F F F Re
   0.6666666666666666    0.0000000000000000    0.4074074074074074 F F F Si
   0.3333333333333333    0.0000000000000000    0.4074074074074074 F F F Si
   0.0000000000000000    0.0000000000000000    0.4490740740740741 F F F Si
   0.0000000000000000    0.5957697280567089    0.4827599300693483 F F F Zr
   0.4042302719432910    0.5957697280567089    0.4827599300693483 F F F Zr
   0.5957697280567088    0.8084605438865824    0.5483690287501921 F F F Zr
   0.0000000000000000    0.2545956883366713    0.4695244333793515 F F F Re
   0.7454043116633287    0.2545956883366713    0.4695244333793515 F F F Re
   0.2545956883366713    0.4908086233266573    0.5331733554635192 F F F Re
   0.6666666666666666    0.0000000000000000    0.4907407407407407 F F F Si
   0.3333333333333333    0.0000000000000000    0.4907407407407407 F F F Si
   0.0000000000000000    0.0000000000000000    0.5324074074074074 F F F Si
   0.0000000000000000    0.5957697280567089    0.5660932634026816 F F F Zr
   0.4042302719432910    0.5957697280567089    0.5660932634026816 F F F Zr
   0.5957697280567088    0.8084605438865824    0.6317023620835255 T T T Zr
   0.0000000000000000    0.2545956883366713    0.5528577667126848 F F F Re
   0.7454043116633287    0.2545956883366713    0.5528577667126848 F F F Re
   0.2545956883366713    0.4908086233266573    0.6165066887968527 T T T Re
   0.6666666666666666    0.0000000000000000    0.5740740740740741 F F F Si
   0.3333333333333333    0.0000000000000000    0.5740740740740741 F F F Si
   0.0000000000000000    0.0000000000000000    0.6157407407407407 T T T Si
   0.0000000000000000    0.5957697280567089    0.6494265967360149 T T T Zr
   0.4042302719432910    0.5957697280567089    0.6494265967360149 T T T Zr
   0.5957697280567088    0.8084605438865824    0.7150356954168589 T T T Zr
   0.0000000000000000    0.2545956883366713    0.6361911000460181 T T T Re
   0.7454043116633287    0.2545956883366713    0.6361911000460181 T T T Re
   0.2545956883366713    0.4908086233266573    0.6998400221301859 T T T Re
   0.6666666666666666    0.0000000000000000    0.6574074074074073 T T T Si
   0.3333333333333333    0.0000000000000000    0.6574074074074073 T T T Si
   0.0000000000000000    0.0000000000000000    0.6990740740740740 T T T Si
