Mg12 Zn6 As12
1.0
   3.6236119425927904    0.0000000000000000   -6.2762799914840786
  -0.0000000000000049    6.7847351263665461   -4.1841866609893854
   0.0000000000000000    0.0000000000000000   58.5786132538513797
Mg Zn As Mg Zn As Mg Zn As Mg Zn As Mg Zn As Mg Zn As
2 1 2 2 1 2 2 1 2 2 1 2 2 1 2 2 1 2
Selective dynamics
direct
   0.0000000000000000    0.9942039756366158    0.2924431124026153 T T T Mg
   0.3333333333333333    0.6305055257195706    0.3378932231228263 T T T Mg
   0.6666666666666666    0.3681384114719323    0.3191527149622807 T T T Zn
   0.3333333333333333    0.2364628732138670    0.3097473193724189 T T T As
   0.6666666666666666    0.7706912239580249    0.3479064872827159 T T T As
   0.0000000000000000    0.9942039756366158    0.3638716838311867 T T T Mg
   0.3333333333333333    0.6305055257195706    0.4093217945513977 F F F Mg
   0.6666666666666666    0.3681384114719323    0.3905812863908521 T T T Zn
   0.3333333333333333    0.2364628732138670    0.3811758908009903 T T T As
   0.6666666666666666    0.7706912239580249    0.4193350587112873 F F F As
   0.0000000000000000    0.9942039756366158    0.4353002552597581 F F F Mg
   0.3333333333333333    0.6305055257195706    0.4807503659799691 F F F Mg
   0.6666666666666666    0.3681384114719323    0.4620098578194236 F F F Zn
   0.3333333333333333    0.2364628732138670    0.4526044622295617 F F F As
   0.6666666666666666    0.7706912239580249    0.4907636301398587 F F F As
   0.0000000000000000    0.9942039756366158    0.5067288266883295 F F F Mg
   0.3333333333333333    0.6305055257195706    0.5521789374085406 F F F Mg
   0.6666666666666666    0.3681384114719323    0.5334384292479950 F F F Zn
   0.3333333333333333    0.2364628732138670    0.5240330336581331 F F F As
   0.6666666666666666    0.7706912239580249    0.5621922015684302 F F F As
   0.0000000000000000    0.9942039756366158    0.5781573981169010 F F F Mg
   0.3333333333333333    0.6305055257195706    0.6236075088371120 T T T Mg
   0.6666666666666666    0.3681384114719323    0.6048670006765664 T T T Zn
   0.3333333333333333    0.2364628732138670    0.5954616050867045 F F F As
   0.6666666666666666    0.7706912239580249    0.6336207729970016 T T T As
   0.0000000000000000    0.9942039756366158    0.6495859695454724 T T T Mg
   0.3333333333333333    0.6305055257195706    0.6950360802656834 T T T Mg
   0.6666666666666666    0.3681384114719323    0.6762955721051378 T T T Zn
   0.3333333333333333    0.2364628732138670    0.6668901765152760 T T T As
   0.6666666666666666    0.7706912239580249    0.7050493444255730 T T T As
