Sc32 Ga32 Ni32
1.0
  11.0297565405032465    0.0000000000000000    5.8225857025346981
   4.8937445973577649    5.4797878878740320   12.2252509066164041
   0.0000000000000000    0.0000000000000000   57.6239868367353480
Sc Ga Ni Sc Ga Ni Sc Ga Ni Sc Ga Ni
8 8 8 8 8 8 8 8 8 8 8 8
Selective dynamics
direct
   0.7500000000000000    0.3063591188803232    0.3480344821825163 T T T Sc
   0.2500000000000000    0.8063591188803227    0.2924789266269607 T T T Sc
   0.7500000000000000    0.1936408811196773    0.3186321844841504 T T T Sc
   0.2500000000000000    0.6936408811196770    0.3741877400397060 T T T Sc
   0.5000000000000000    0.0563591188803233    0.3758122599602940 T T T Sc
   0.0000000000000000    0.5563591188803230    0.3202567044047385 T T T Sc
   0.5000000000000000    0.9436408811196774    0.3464099622619281 T T T Sc
   0.0000000000000000    0.4436408811196770    0.2908544067063726 T T T Sc
   0.5000000000000000    0.6739278568391749    0.3304256201020810 T T T Ga
   0.0000000000000000    0.1739278568391746    0.3859811756576366 T T T Ga
   0.5000000000000000    0.3260721431608256    0.2806854910090301 T T T Ga
   0.0000000000000000    0.8260721431608253    0.3362410465645856 T T T Ga
   0.7500000000000000    0.9239278568391750    0.3026478423243033 T T T Ga
   0.2500000000000000    0.4239278568391747    0.3582033978798588 T T T Ga
   0.7500000000000000    0.5760721431608257    0.3640188243423634 T T T Ga
   0.2500000000000000    0.0760721431608252    0.3084632687868079 T T T Ga
   0.7500000000000000    0.5929723148930288    0.3166549976594686 T T T Ni
   0.2500000000000000    0.0929723148930286    0.3722105532150242 T T T Ni
   0.7500000000000000    0.9070276851069718    0.3500116690071979 T T T Ni
   0.2500000000000000    0.4070276851069715    0.2944561134516424 T T T Ni
   0.5000000000000000    0.3429723148930288    0.3444327754372465 T T T Ni
   0.0000000000000000    0.8429723148930286    0.2888772198816909 T T T Ni
   0.5000000000000000    0.6570276851069716    0.3777894467849757 T T T Ni
   0.0000000000000000    0.1570276851069713    0.3222338912294202 T T T Ni
   0.7500000000000000    0.3063591188803232    0.4591455932936274 F F F Sc
   0.2500000000000000    0.8063591188803227    0.4035900377380718 F F F Sc
   0.7500000000000000    0.1936408811196773    0.4297432955952615 F F F Sc
   0.2500000000000000    0.6936408811196770    0.4852988511508171 F F F Sc
   0.5000000000000000    0.0563591188803233    0.4869233710714052 F F F Sc
   0.0000000000000000    0.5563591188803230    0.4313678155158496 F F F Sc
   0.5000000000000000    0.9436408811196774    0.4575210733730393 F F F Sc
   0.0000000000000000    0.4436408811196770    0.4019655178174837 F F F Sc
   0.5000000000000000    0.6739278568391749    0.4415367312131921 F F F Ga
   0.0000000000000000    0.1739278568391746    0.4970922867687477 F F F Ga
   0.5000000000000000    0.3260721431608256    0.3917966021201412 F F F Ga
   0.0000000000000000    0.8260721431608253    0.4473521576756967 F F F Ga
   0.7500000000000000    0.9239278568391750    0.4137589534354144 F F F Ga
   0.2500000000000000    0.4239278568391747    0.4693145089909699 F F F Ga
   0.7500000000000000    0.5760721431608257    0.4751299354534745 F F F Ga
   0.2500000000000000    0.0760721431608252    0.4195743798979189 F F F Ga
   0.7500000000000000    0.5929723148930288    0.4277661087705797 F F F Ni
   0.2500000000000000    0.0929723148930286    0.4833216643261353 F F F Ni
   0.7500000000000000    0.9070276851069718    0.4611227801183090 F F F Ni
   0.2500000000000000    0.4070276851069715    0.4055672245627535 F F F Ni
   0.5000000000000000    0.3429723148930288    0.4555438865483576 F F F Ni
   0.0000000000000000    0.8429723148930286    0.3999883309928020 F F F Ni
   0.5000000000000000    0.6570276851069716    0.4889005578960868 F F F Ni
   0.0000000000000000    0.1570276851069713    0.4333450023405313 F F F Ni
   0.7500000000000000    0.3063591188803232    0.5702567044047384 F F F Sc
   0.2500000000000000    0.8063591188803227    0.5147011488491829 F F F Sc
   0.7500000000000000    0.1936408811196773    0.5408544067063725 F F F Sc
   0.2500000000000000    0.6936408811196770    0.5964099622619281 F F F Sc
   0.5000000000000000    0.0563591188803233    0.5980344821825163 F F F Sc
   0.0000000000000000    0.5563591188803230    0.5424789266269607 F F F Sc
   0.5000000000000000    0.9436408811196774    0.5686321844841503 F F F Sc
   0.0000000000000000    0.4436408811196770    0.5130766289285948 F F F Sc
   0.5000000000000000    0.6739278568391749    0.5526478423243033 F F F Ga
   0.0000000000000000    0.1739278568391746    0.6082033978798589 F F F Ga
   0.5000000000000000    0.3260721431608256    0.5029077132312523 F F F Ga
   0.0000000000000000    0.8260721431608253    0.5584632687868079 F F F Ga
   0.7500000000000000    0.9239278568391750    0.5248700645465254 F F F Ga
   0.2500000000000000    0.4239278568391747    0.5804256201020810 F F F Ga
   0.7500000000000000    0.5760721431608257    0.5862410465645855 F F F Ga
   0.2500000000000000    0.0760721431608252    0.5306854910090301 F F F Ga
   0.7500000000000000    0.5929723148930288    0.5388772198816909 F F F Ni
   0.2500000000000000    0.0929723148930286    0.5944327754372465 F F F Ni
   0.7500000000000000    0.9070276851069718    0.5722338912294201 F F F Ni
   0.2500000000000000    0.4070276851069715    0.5166783356738647 F F F Ni
   0.5000000000000000    0.3429723148930288    0.5666549976594687 F F F Ni
   0.0000000000000000    0.8429723148930286    0.5110994421039131 F F F Ni
   0.5000000000000000    0.6570276851069716    0.6000116690071979 F F F Ni
   0.0000000000000000    0.1570276851069713    0.5444561134516424 F F F Ni
   0.7500000000000000    0.3063591188803232    0.6813678155158496 T T T Sc
   0.2500000000000000    0.8063591188803227    0.6258122599602940 T T T Sc
   0.7500000000000000    0.1936408811196773    0.6519655178174837 T T T Sc
   0.2500000000000000    0.6936408811196770    0.7075210733730393 T T T Sc
   0.5000000000000000    0.0563591188803233    0.7091455932936274 T T T Sc
   0.0000000000000000    0.5563591188803230    0.6535900377380719 T T T Sc
   0.5000000000000000    0.9436408811196774    0.6797432955952615 T T T Sc
   0.0000000000000000    0.4436408811196770    0.6241877400397059 T T T Sc
   0.5000000000000000    0.6739278568391749    0.6637589534354144 T T T Ga
   0.0000000000000000    0.1739278568391746    0.7193145089909699 T T T Ga
   0.5000000000000000    0.3260721431608256    0.6140188243423634 T T T Ga
   0.0000000000000000    0.8260721431608253    0.6695743798979190 T T T Ga
   0.7500000000000000    0.9239278568391750    0.6359811756576366 T T T Ga
   0.2500000000000000    0.4239278568391747    0.6915367312131921 T T T Ga
   0.7500000000000000    0.5760721431608257    0.6973521576756967 T T T Ga
   0.2500000000000000    0.0760721431608252    0.6417966021201411 T T T Ga
   0.7500000000000000    0.5929723148930288    0.6499883309928020 T T T Ni
   0.2500000000000000    0.0929723148930286    0.7055438865483575 T T T Ni
   0.7500000000000000    0.9070276851069718    0.6833450023405312 T T T Ni
   0.2500000000000000    0.4070276851069715    0.6277894467849757 T T T Ni
   0.5000000000000000    0.3429723148930288    0.6777661087705797 T T T Ni
   0.0000000000000000    0.8429723148930286    0.6222105532150242 T T T Ni
   0.5000000000000000    0.6570276851069716    0.7111227801183091 T T T Ni
   0.0000000000000000    0.1570276851069713    0.6555672245627535 T T T Ni
