Mn8 In16 Te32
1.0
   6.3062763589463806    0.0000000000000000    0.0000000000000004
   0.0000000000000041   25.2704333022264009   -6.3062763589463851
   0.0000000000000000    0.0000000000000000   31.5313817947319031
Mn In Te Mn In Te
4 8 16 4 8 16
Selective dynamics
direct
   0.0000000000000000    0.0000000000000000    0.4785714285714286 F F F Mn
   0.0000000000000000    0.5000000000000000    0.3785714285714286 T T T Mn
   0.5000000000000000    0.2500000000000000    0.4285714285714285 F F F Mn
   0.5000000000000000    0.7500000000000000    0.3285714285714286 T T T Mn
   0.0000000000000000    0.1250000000000000    0.4035714285714286 F F F In
   0.0000000000000000    0.6249999999999999    0.3035714285714286 T T T In
   0.5000000000000000    0.0000000000000000    0.3785714285714286 T T T In
   0.5000000000000000    0.4999999999999999    0.4785714285714285 F F F In
   0.5000000000000000    0.3750000000000000    0.3535714285714286 T T T In
   0.5000000000000000    0.8750000000000000    0.4535714285714286 F F F In
   0.0000000000000000    0.2500000000000000    0.3285714285714286 T T T In
   0.0000000000000000    0.7500000000000000    0.4285714285714286 F F F In
   0.2650559188944079    0.0661133335859798    0.3357163558303950 T T T Te
   0.2650559188944079    0.5661133335859798    0.4357163558303950 F F F Te
   0.7349440811055921    0.0661133335859798    0.4478718347468541 F F F Te
   0.7349440811055921    0.5661133335859798    0.3478718347468541 T T T Te
   0.2803886972911478    0.1838866664140202    0.4683599456331142 F F F Te
   0.2803886972911478    0.6838866664140202    0.3683599456331141 T T T Te
   0.7196113027088521    0.1838866664140202    0.3623375780753511 T T T Te
   0.7196113027088521    0.6838866664140202    0.4623375780753510 F F F Te
   0.7650559188944078    0.3161133335859798    0.4857163558303950 F F F Te
   0.7650559188944078    0.8161133335859798    0.3857163558303950 T T T Te
   0.2349440811055921    0.3161133335859798    0.3978718347468541 T T T Te
   0.2349440811055921    0.8161133335859798    0.4978718347468541 F F F Te
   0.7803886972911478    0.4338866664140201    0.4183599456331142 F F F Te
   0.7803886972911478    0.9338866664140202    0.3183599456331142 T T T Te
   0.2196113027088522    0.4338866664140201    0.3123375780753510 T T T Te
   0.2196113027088522    0.9338866664140202    0.4123375780753510 F F F Te
   0.0000000000000000    0.0000000000000000    0.6785714285714286 T T T Mn
   0.0000000000000000    0.5000000000000000    0.5785714285714286 F F F Mn
   0.5000000000000000    0.2500000000000000    0.6285714285714286 T T T Mn
   0.5000000000000000    0.7500000000000000    0.5285714285714286 F F F Mn
   0.0000000000000000    0.1250000000000000    0.6035714285714286 T T T In
   0.0000000000000000    0.6249999999999999    0.5035714285714286 F F F In
   0.5000000000000000    0.0000000000000000    0.5785714285714285 F F F In
   0.5000000000000000    0.4999999999999999    0.6785714285714286 T T T In
   0.5000000000000000    0.3750000000000000    0.5535714285714286 F F F In
   0.5000000000000000    0.8750000000000000    0.6535714285714286 T T T In
   0.0000000000000000    0.2500000000000000    0.5285714285714286 F F F In
   0.0000000000000000    0.7500000000000000    0.6285714285714286 T T T In
   0.2650559188944079    0.0661133335859798    0.5357163558303950 F F F Te
   0.2650559188944079    0.5661133335859798    0.6357163558303950 T T T Te
   0.7349440811055921    0.0661133335859798    0.6478718347468542 T T T Te
   0.7349440811055921    0.5661133335859798    0.5478718347468541 F F F Te
   0.2803886972911478    0.1838866664140202    0.6683599456331142 T T T Te
   0.2803886972911478    0.6838866664140202    0.5683599456331142 F F F Te
   0.7196113027088521    0.1838866664140202    0.5623375780753510 F F F Te
   0.7196113027088521    0.6838866664140202    0.6623375780753510 T T T Te
   0.7650559188944078    0.3161133335859798    0.6857163558303950 T T T Te
   0.7650559188944078    0.8161133335859798    0.5857163558303951 F F F Te
   0.2349440811055921    0.3161133335859798    0.5978718347468541 F F F Te
   0.2349440811055921    0.8161133335859798    0.6978718347468541 T T T Te
   0.7803886972911478    0.4338866664140201    0.6183599456331142 T T T Te
   0.7803886972911478    0.9338866664140202    0.5183599456331143 F F F Te
   0.2196113027088522    0.4338866664140201    0.5123375780753511 F F F Te
   0.2196113027088522    0.9338866664140202    0.6123375780753511 T T T Te
