Li32 Bi32 Pd64
1.0
  13.1244135008749492    0.0000000000000000   -6.5622067504374746
  -0.0000000000000037   13.1244135008749492   -6.5622067504374746
   0.0000000000000000    0.0000000000000000   32.8110337521873703
Li Bi Pd Li Bi Pd
16 16 32 16 16 32
Selective dynamics
direct
   0.5000000000000000    0.4999999999999999    0.4750000000000000 F F F Li
   0.0000000000000000    0.0000000000000000    0.4750000000000000 F F F Li
   0.0000000000000000    0.5000000000000000    0.3750000000000000 T T T Li
   0.5000000000000000    0.0000000000000000    0.3750000000000000 T T T Li
   0.7500000000000000    0.7499999999999999    0.3750000000000000 T T T Li
   0.2500000000000000    0.2500000000000000    0.3750000000000000 T T T Li
   0.2500000000000000    0.7499999999999999    0.4750000000000000 F F F Li
   0.7500000000000000    0.2499999999999999    0.4750000000000000 F F F Li
   0.5000000000000000    0.7499999999999999    0.4249999999999999 T T T Li
   0.0000000000000000    0.2500000000000000    0.4250000000000000 T T T Li
   0.0000000000000000    0.7499999999999999    0.3250000000000000 T T T Li
   0.5000000000000000    0.2500000000000000    0.3250000000000000 T T T Li
   0.7500000000000000    0.4999999999999999    0.4249999999999999 T T T Li
   0.2500000000000000    0.0000000000000000    0.4249999999999999 T T T Li
   0.2500000000000000    0.4999999999999999    0.3250000000000000 T T T Li
   0.7500000000000000    0.0000000000000000    0.3250000000000000 T T T Li
   0.5000000000000000    0.4999999999999999    0.3750000000000000 T T T Bi
   0.0000000000000000    0.0000000000000000    0.3750000000000000 T T T Bi
   0.0000000000000000    0.4999999999999999    0.4750000000000000 F F F Bi
   0.5000000000000000    0.0000000000000000    0.4750000000000000 F F F Bi
   0.7500000000000000    0.7500000000000000    0.4750000000000000 F F F Bi
   0.2500000000000000    0.2500000000000000    0.4750000000000000 F F F Bi
   0.2500000000000000    0.7500000000000000    0.3750000000000000 T T T Bi
   0.7500000000000000    0.2500000000000000    0.3750000000000000 T T T Bi
   0.5000000000000000    0.7499999999999999    0.3250000000000000 T T T Bi
   0.0000000000000000    0.2500000000000000    0.3250000000000000 T T T Bi
   0.0000000000000000    0.7500000000000000    0.4250000000000000 T T T Bi
   0.5000000000000000    0.2500000000000000    0.4250000000000000 T T T Bi
   0.7500000000000000    0.4999999999999999    0.3250000000000000 T T T Bi
   0.2500000000000000    0.0000000000000000    0.3250000000000000 T T T Bi
   0.2500000000000000    0.4999999999999999    0.4250000000000000 T T T Bi
   0.7500000000000000    0.0000000000000000    0.4249999999999999 T T T Bi
   0.8750000000000000    0.8749999999999999    0.4750000000000000 F F F Pd
   0.3750000000000000    0.3750000000000000    0.4750000000000000 F F F Pd
   0.3750000000000000    0.8749999999999999    0.3750000000000000 T T T Pd
   0.8750000000000000    0.3749999999999999    0.3750000000000000 T T T Pd
   0.6249999999999999    0.8749999999999999    0.4249999999999999 T T T Pd
   0.1250000000000000    0.3749999999999999    0.4249999999999999 T T T Pd
   0.1250000000000000    0.8749999999999999    0.3250000000000000 T T T Pd
   0.6249999999999999    0.3749999999999999    0.3250000000000000 T T T Pd
   0.6249999999999999    0.6249999999999999    0.3749999999999999 T T T Pd
   0.1250000000000000    0.1250000000000000    0.3750000000000000 T T T Pd
   0.1250000000000000    0.6249999999999999    0.4750000000000000 F F F Pd
   0.6249999999999999    0.1250000000000000    0.4750000000000000 F F F Pd
   0.8750000000000000    0.6250000000000000    0.4250000000000000 T T T Pd
   0.3750000000000000    0.1250000000000000    0.4250000000000000 T T T Pd
   0.3750000000000000    0.6250000000000000    0.3250000000000000 T T T Pd
   0.8750000000000000    0.1250000000000000    0.3250000000000000 T T T Pd
   0.8750000000000000    0.6250000000000000    0.3250000000000000 T T T Pd
   0.3750000000000000    0.1250000000000000    0.3250000000000000 T T T Pd
   0.3750000000000000    0.6250000000000000    0.4250000000000000 T T T Pd
   0.8750000000000000    0.1250000000000000    0.4249999999999999 T T T Pd
   0.6249999999999999    0.6250000000000000    0.4750000000000000 F F F Pd
   0.1250000000000000    0.1250000000000000    0.4750000000000000 F F F Pd
   0.1250000000000000    0.6250000000000000    0.3750000000000000 T T T Pd
   0.6249999999999999    0.1250000000000000    0.3749999999999999 T T T Pd
   0.6249999999999999    0.8749999999999999    0.3250000000000000 T T T Pd
   0.1250000000000000    0.3750000000000000    0.3250000000000000 T T T Pd
   0.1250000000000000    0.8749999999999999    0.4250000000000000 T T T Pd
   0.6249999999999999    0.3749999999999999    0.4249999999999999 T T T Pd
   0.8750000000000000    0.8749999999999999    0.3749999999999999 T T T Pd
   0.3750000000000000    0.3750000000000000    0.3750000000000000 T T T Pd
   0.3750000000000000    0.8749999999999999    0.4750000000000000 F F F Pd
   0.8750000000000000    0.3749999999999999    0.4750000000000000 F F F Pd
   0.5000000000000000    0.4999999999999999    0.6750000000000000 T T T Li
   0.0000000000000000    0.0000000000000000    0.6750000000000000 T T T Li
   0.0000000000000000    0.5000000000000000    0.5750000000000000 T T T Li
   0.5000000000000000    0.0000000000000000    0.5750000000000000 T T T Li
   0.7500000000000000    0.7499999999999999    0.5750000000000000 T T T Li
   0.2500000000000000    0.2500000000000000    0.5750000000000000 T T T Li
   0.2500000000000000    0.7499999999999999    0.6750000000000000 T T T Li
   0.7500000000000000    0.2499999999999999    0.6750000000000000 T T T Li
   0.5000000000000000    0.7499999999999999    0.6250000000000000 T T T Li
   0.0000000000000000    0.2500000000000000    0.6250000000000000 T T T Li
   0.0000000000000000    0.7499999999999999    0.5250000000000000 F F F Li
   0.5000000000000000    0.2500000000000000    0.5250000000000000 F F F Li
   0.7500000000000000    0.4999999999999999    0.6250000000000000 T T T Li
   0.2500000000000000    0.0000000000000000    0.6250000000000000 T T T Li
   0.2500000000000000    0.4999999999999999    0.5249999999999999 F F F Li
   0.7500000000000000    0.0000000000000000    0.5250000000000000 F F F Li
   0.5000000000000000    0.4999999999999999    0.5750000000000000 T T T Bi
   0.0000000000000000    0.0000000000000000    0.5750000000000000 T T T Bi
   0.0000000000000000    0.4999999999999999    0.6750000000000000 T T T Bi
   0.5000000000000000    0.0000000000000000    0.6750000000000000 T T T Bi
   0.7500000000000000    0.7500000000000000    0.6750000000000000 T T T Bi
   0.2500000000000000    0.2500000000000000    0.6750000000000000 T T T Bi
   0.2500000000000000    0.7500000000000000    0.5750000000000000 T T T Bi
   0.7500000000000000    0.2500000000000000    0.5750000000000000 T T T Bi
   0.5000000000000000    0.7499999999999999    0.5249999999999999 F F F Bi
   0.0000000000000000    0.2500000000000000    0.5250000000000000 F F F Bi
   0.0000000000000000    0.7500000000000000    0.6250000000000000 T T T Bi
   0.5000000000000000    0.2500000000000000    0.6250000000000000 T T T Bi
   0.7500000000000000    0.4999999999999999    0.5250000000000000 F F F Bi
   0.2500000000000000    0.0000000000000000    0.5250000000000000 F F F Bi
   0.2500000000000000    0.4999999999999999    0.6250000000000000 T T T Bi
   0.7500000000000000    0.0000000000000000    0.6250000000000000 T T T Bi
   0.8750000000000000    0.8749999999999999    0.6750000000000000 T T T Pd
   0.3750000000000000    0.3750000000000000    0.6750000000000000 T T T Pd
   0.3750000000000000    0.8749999999999999    0.5750000000000000 T T T Pd
   0.8750000000000000    0.3749999999999999    0.5750000000000000 T T T Pd
   0.6249999999999999    0.8749999999999999    0.6250000000000000 T T T Pd
   0.1250000000000000    0.3749999999999999    0.6250000000000000 T T T Pd
   0.1250000000000000    0.8749999999999999    0.5250000000000000 F F F Pd
   0.6249999999999999    0.3749999999999999    0.5249999999999999 F F F Pd
   0.6249999999999999    0.6249999999999999    0.5750000000000000 T T T Pd
   0.1250000000000000    0.1250000000000000    0.5750000000000000 T T T Pd
   0.1250000000000000    0.6249999999999999    0.6750000000000000 T T T Pd
   0.6249999999999999    0.1250000000000000    0.6750000000000000 T T T Pd
   0.8750000000000000    0.6250000000000000    0.6250000000000000 T T T Pd
   0.3750000000000000    0.1250000000000000    0.6250000000000000 T T T Pd
   0.3750000000000000    0.6250000000000000    0.5250000000000000 F F F Pd
   0.8750000000000000    0.1250000000000000    0.5250000000000000 F F F Pd
   0.8750000000000000    0.6250000000000000    0.5250000000000000 F F F Pd
   0.3750000000000000    0.1250000000000000    0.5250000000000000 F F F Pd
   0.3750000000000000    0.6250000000000000    0.6250000000000000 T T T Pd
   0.8750000000000000    0.1250000000000000    0.6250000000000000 T T T Pd
   0.6249999999999999    0.6250000000000000    0.6750000000000000 T T T Pd
   0.1250000000000000    0.1250000000000000    0.6750000000000000 T T T Pd
   0.1250000000000000    0.6250000000000000    0.5750000000000000 T T T Pd
   0.6249999999999999    0.1250000000000000    0.5750000000000000 T T T Pd
   0.6249999999999999    0.8749999999999999    0.5249999999999999 F F F Pd
   0.1250000000000000    0.3750000000000000    0.5250000000000000 F F F Pd
   0.1250000000000000    0.8749999999999999    0.6250000000000000 T T T Pd
   0.6249999999999999    0.3749999999999999    0.6250000000000000 T T T Pd
   0.8750000000000000    0.8749999999999999    0.5750000000000000 T T T Pd
   0.3750000000000000    0.3750000000000000    0.5750000000000000 T T T Pd
   0.3750000000000000    0.8749999999999999    0.6750000000000000 T T T Pd
   0.8750000000000000    0.3749999999999999    0.6750000000000000 T T T Pd
