Ca16 Al8 Pt16
1.0
   5.7663405094324434    0.0000000000000000    0.0000000000000004
   0.0000000000000012    7.6025800356687343   -1.6040567996244781
   0.0000000000000000    0.0000000000000000   39.6906380211359959
Ca Al Pt Ca Al Pt
8 4 8 8 4 8
Selective dynamics
direct
   0.1322935500017621    0.1484444385189931    0.3999155710020947 F F F Ca
   0.1322935500017621    0.3515555614810069    0.3250844289979052 T T T Ca
   0.8677064499982379    0.8515555614810069    0.3250844289979053 T T T Ca
   0.8677064499982379    0.6484444385189931    0.3999155710020947 F F F Ca
   0.6322935500017621    0.1484444385189931    0.2749155710020947 T T T Ca
   0.6322935500017621    0.3515555614810069    0.4500844289979054 F F F Ca
   0.3677064499982379    0.8515555614810069    0.4500844289979054 F F F Ca
   0.3677064499982379    0.6484444385189931    0.2749155710020947 T T T Ca
   0.6102338868691283    0.2500000000000000    0.3625000000000000 F F F Al
   0.3897661131308717    0.7500000000000000    0.3625000000000000 F F F Al
   0.1102338868691283    0.2500000000000000    0.4875000000000000 F F F Al
   0.8897661131308716    0.7500000000000000    0.4875000000000000 F F F Al
   0.6341775740595139    0.4962849529007158    0.3300766860468489 T T T Pt
   0.6341775740595139    0.0037150470992842    0.3949233139531511 F F F Pt
   0.3658224259404860    0.5037150470992842    0.3949233139531511 F F F Pt
   0.3658224259404860    0.9962849529007158    0.3300766860468489 T T T Pt
   0.1341775740595139    0.4962849529007158    0.4550766860468489 F F F Pt
   0.1341775740595139    0.0037150470992842    0.2699233139531511 T T T Pt
   0.8658224259404861    0.5037150470992842    0.2699233139531511 T T T Pt
   0.8658224259404861    0.9962849529007158    0.4550766860468489 F F F Pt
   0.1322935500017621    0.1484444385189931    0.6499155710020947 F F F Ca
   0.1322935500017621    0.3515555614810069    0.5750844289979054 F F F Ca
   0.8677064499982379    0.8515555614810069    0.5750844289979054 F F F Ca
   0.8677064499982379    0.6484444385189931    0.6499155710020947 F F F Ca
   0.6322935500017621    0.1484444385189931    0.5249155710020947 F F F Ca
   0.6322935500017621    0.3515555614810069    0.7000844289979054 T T T Ca
   0.3677064499982379    0.8515555614810069    0.7000844289979054 T T T Ca
   0.3677064499982379    0.6484444385189931    0.5249155710020947 F F F Ca
   0.6102338868691283    0.2500000000000000    0.6125000000000000 F F F Al
   0.3897661131308717    0.7500000000000000    0.6125000000000000 F F F Al
   0.1102338868691283    0.2500000000000000    0.7375000000000000 T T T Al
   0.8897661131308716    0.7500000000000000    0.7375000000000000 T T T Al
   0.6341775740595139    0.4962849529007158    0.5800766860468489 F F F Pt
   0.6341775740595139    0.0037150470992842    0.6449233139531512 F F F Pt
   0.3658224259404860    0.5037150470992842    0.6449233139531512 F F F Pt
   0.3658224259404860    0.9962849529007158    0.5800766860468489 F F F Pt
   0.1341775740595139    0.4962849529007158    0.7050766860468489 T T T Pt
   0.1341775740595139    0.0037150470992842    0.5199233139531512 F F F Pt
   0.8658224259404861    0.5037150470992842    0.5199233139531512 F F F Pt
   0.8658224259404861    0.9962849529007158    0.7050766860468489 T T T Pt
