Ca24 Al12 Pt24
1.0
   9.9226595052840025    0.0000000000000000   -5.7663405094324398
   8.3186027056595186    7.6025800356687387    0.0000000000000007
   0.0000000000000000    0.0000000000000000   40.3643835660271009
Ca Al Pt Ca Al Pt Ca Al Pt
8 4 8 8 4 8 8 4 8
Selective dynamics
direct
   0.4987821545106143    0.8515555614810069    0.3094983720726932 T T T Ca
   0.0012178454893858    0.6484444385189931    0.3812748993553748 T T T Ca
   0.5012178454893857    0.1484444385189931    0.3476444850701640 T T T Ca
   0.9987821545106143    0.3515555614810069    0.4187251006446252 F F F Ca
   0.9987821545106143    0.8515555614810069    0.3094983720726932 T T T Ca
   0.5012178454893856    0.6484444385189931    0.3812748993553748 T T T Ca
   0.0012178454893855    0.1484444385189931    0.3476444850701639 T T T Ca
   0.4987821545106143    0.3515555614810069    0.4187251006446252 F F F Ca
   0.7500000000000000    0.7500000000000000    0.4199665875901245 F F F Al
   0.2500000000000001    0.2500000000000000    0.3800334124098755 T T T Al
   0.2500000000000001    0.7500000000000000    0.4199665875901245 F F F Al
   0.7500000000000001    0.2500000000000000    0.3800334124098755 T T T Al
   0.1259782087133204    0.5037150470992842    0.3274000906648295 T T T Pt
   0.3740217912866797    0.9962849529007158    0.3628348881753094 T T T Pt
   0.8740217912866798    0.4962849529007158    0.3297427664780277 T T T Pt
   0.6259782087133204    0.0037150470992842    0.2943079689675477 T T T Pt
   0.6259782087133203    0.5037150470992842    0.3274000906648295 T T T Pt
   0.8740217912866797    0.9962849529007158    0.3628348881753094 T T T Pt
   0.3740217912866797    0.4962849529007158    0.3297427664780276 T T T Pt
   0.1259782087133205    0.0037150470992842    0.2943079689675478 T T T Pt
   0.4987821545106143    0.8515555614810069    0.4523555149298360 F F F Ca
   0.0012178454893858    0.6484444385189931    0.5241320422125176 F F F Ca
   0.5012178454893857    0.1484444385189931    0.4905016279273068 F F F Ca
   0.9987821545106143    0.3515555614810069    0.5615822435017680 F F F Ca
   0.9987821545106143    0.8515555614810069    0.4523555149298360 F F F Ca
   0.5012178454893856    0.6484444385189931    0.5241320422125176 F F F Ca
   0.0012178454893855    0.1484444385189931    0.4905016279273068 F F F Ca
   0.4987821545106143    0.3515555614810069    0.5615822435017681 F F F Ca
   0.7500000000000000    0.7500000000000000    0.5628237304472674 F F F Al
   0.2500000000000001    0.2500000000000000    0.5228905552670183 F F F Al
   0.2500000000000001    0.7500000000000000    0.5628237304472674 F F F Al
   0.7500000000000001    0.2500000000000000    0.5228905552670183 F F F Al
   0.1259782087133204    0.5037150470992842    0.4702572335219724 F F F Pt
   0.3740217912866797    0.9962849529007158    0.5056920310324522 F F F Pt
   0.8740217912866798    0.4962849529007158    0.4725999093351705 F F F Pt
   0.6259782087133204    0.0037150470992842    0.4371651118246906 F F F Pt
   0.6259782087133203    0.5037150470992842    0.4702572335219724 F F F Pt
   0.8740217912866797    0.9962849529007158    0.5056920310324522 F F F Pt
   0.3740217912866797    0.4962849529007158    0.4725999093351705 F F F Pt
   0.1259782087133205    0.0037150470992842    0.4371651118246906 F F F Pt
   0.4987821545106143    0.8515555614810069    0.5952126577869788 F F F Ca
   0.0012178454893858    0.6484444385189931    0.6669891850696605 T T T Ca
   0.5012178454893857    0.1484444385189931    0.6333587707844497 T T T Ca
   0.9987821545106143    0.3515555614810069    0.7044393863589109 T T T Ca
   0.9987821545106143    0.8515555614810069    0.5952126577869788 F F F Ca
   0.5012178454893856    0.6484444385189931    0.6669891850696605 T T T Ca
   0.0012178454893855    0.1484444385189931    0.6333587707844497 T T T Ca
   0.4987821545106143    0.3515555614810069    0.7044393863589109 T T T Ca
   0.7500000000000000    0.7500000000000000    0.7056808733044102 T T T Al
   0.2500000000000001    0.2500000000000000    0.6657476981241612 T T T Al
   0.2500000000000001    0.7500000000000000    0.7056808733044102 T T T Al
   0.7500000000000001    0.2500000000000000    0.6657476981241612 T T T Al
   0.1259782087133204    0.5037150470992842    0.6131143763791151 T T T Pt
   0.3740217912866797    0.9962849529007158    0.6485491738895951 T T T Pt
   0.8740217912866798    0.4962849529007158    0.6154570521923134 T T T Pt
   0.6259782087133204    0.0037150470992842    0.5800222546818334 F F F Pt
   0.6259782087133203    0.5037150470992842    0.6131143763791151 T T T Pt
   0.8740217912866797    0.9962849529007158    0.6485491738895951 T T T Pt
   0.3740217912866797    0.4962849529007158    0.6154570521923133 T T T Pt
   0.1259782087133205    0.0037150470992842    0.5800222546818334 F F F Pt
