Hf32 V32 Si32
1.0
   7.3277214469445289    0.0000000000000000   -3.6638607234722644
  -0.0000000000000041   14.3358482337751312   -3.6638607234722667
   0.0000000000000000    0.0000000000000000   32.9747465112503804
Hf V Si Hf V Si Hf V Si Hf V Si
8 8 8 8 8 8 8 8 8 8 8 8
Selective dynamics
direct
   0.7500000000000000    0.6802282505283230    0.3209512870957396 T T T Hf
   0.2500000000000000    0.1802282505283231    0.3209512870957396 T T T Hf
   0.2500000000000000    0.6802282505283230    0.3765068426512952 T T T Hf
   0.7500000000000000    0.1802282505283231    0.3765068426512952 T T T Hf
   0.5000000000000000    0.8197717494716770    0.3642338980894456 T T T Hf
   0.0000000000000000    0.3197717494716770    0.3642338980894456 T T T Hf
   0.0000000000000000    0.8197717494716770    0.3086783425338901 T T T Hf
   0.5000000000000000    0.3197717494716770    0.3086783425338901 T T T Hf
   0.5000000000000000    0.5000000000000000    0.3842592592592593 T T T V
   0.0000000000000000    0.0000000000000000    0.3842592592592593 T T T V
   0.0000000000000000    0.5000000000000000    0.3287037037037037 T T T V
   0.5000000000000000    0.0000000000000000    0.3287037037037037 T T T V
   0.7500000000000000    0.5000000000000000    0.3564814814814815 T T T V
   0.2500000000000000    0.0000000000000000    0.3564814814814815 T T T V
   0.2500000000000000    0.5000000000000000    0.3009259259259260 T T T V
   0.7500000000000000    0.0000000000000000    0.3009259259259260 T T T V
   0.7500000000000000    0.8763357120564699    0.3427410050433115 T T T Si
   0.2500000000000000    0.3763357120564699    0.3427410050433115 T T T Si
   0.2500000000000000    0.8763357120564699    0.2871854494877559 T T T Si
   0.7500000000000000    0.3763357120564699    0.2871854494877559 T T T Si
   0.5000000000000000    0.6236642879435301    0.3424441801418737 T T T Si
   0.0000000000000000    0.1236642879435302    0.3424441801418738 T T T Si
   0.0000000000000000    0.6236642879435301    0.2868886245863182 T T T Si
   0.5000000000000000    0.1236642879435302    0.2868886245863182 T T T Si
   0.7500000000000000    0.6802282505283230    0.4320623982068507 F F F Hf
   0.2500000000000000    0.1802282505283231    0.4320623982068508 F F F Hf
   0.2500000000000000    0.6802282505283230    0.4876179537624063 F F F Hf
   0.7500000000000000    0.1802282505283231    0.4876179537624063 F F F Hf
   0.5000000000000000    0.8197717494716770    0.4753450092005567 F F F Hf
   0.0000000000000000    0.3197717494716770    0.4753450092005567 F F F Hf
   0.0000000000000000    0.8197717494716770    0.4197894536450012 F F F Hf
   0.5000000000000000    0.3197717494716770    0.4197894536450012 F F F Hf
   0.5000000000000000    0.5000000000000000    0.4953703703703704 F F F V
   0.0000000000000000    0.0000000000000000    0.4953703703703704 F F F V
   0.0000000000000000    0.5000000000000000    0.4398148148148149 F F F V
   0.5000000000000000    0.0000000000000000    0.4398148148148149 F F F V
   0.7500000000000000    0.5000000000000000    0.4675925925925926 F F F V
   0.2500000000000000    0.0000000000000000    0.4675925925925926 F F F V
   0.2500000000000000    0.5000000000000000    0.4120370370370371 F F F V
   0.7500000000000000    0.0000000000000000    0.4120370370370371 F F F V
   0.7500000000000000    0.8763357120564699    0.4538521161544226 F F F Si
   0.2500000000000000    0.3763357120564699    0.4538521161544226 F F F Si
   0.2500000000000000    0.8763357120564699    0.3982965605988671 F F F Si
   0.7500000000000000    0.3763357120564699    0.3982965605988671 F F F Si
   0.5000000000000000    0.6236642879435301    0.4535552912529849 F F F Si
   0.0000000000000000    0.1236642879435302    0.4535552912529849 F F F Si
   0.0000000000000000    0.6236642879435301    0.3979997356974293 F F F Si
   0.5000000000000000    0.1236642879435302    0.3979997356974293 F F F Si
   0.7500000000000000    0.6802282505283230    0.5431735093179618 F F F Hf
   0.2500000000000000    0.1802282505283231    0.5431735093179618 F F F Hf
   0.2500000000000000    0.6802282505283230    0.5987290648735174 F F F Hf
   0.7500000000000000    0.1802282505283231    0.5987290648735174 F F F Hf
   0.5000000000000000    0.8197717494716770    0.5864561203116678 F F F Hf
   0.0000000000000000    0.3197717494716770    0.5864561203116678 F F F Hf
   0.0000000000000000    0.8197717494716770    0.5309005647561122 F F F Hf
   0.5000000000000000    0.3197717494716770    0.5309005647561122 F F F Hf
   0.5000000000000000    0.5000000000000000    0.6064814814814815 F F F V
   0.0000000000000000    0.0000000000000000    0.6064814814814815 F F F V
   0.0000000000000000    0.5000000000000000    0.5509259259259259 F F F V
   0.5000000000000000    0.0000000000000000    0.5509259259259259 F F F V
   0.7500000000000000    0.5000000000000000    0.5787037037037037 F F F V
   0.2500000000000000    0.0000000000000000    0.5787037037037037 F F F V
   0.2500000000000000    0.5000000000000000    0.5231481481481481 F F F V
   0.7500000000000000    0.0000000000000000    0.5231481481481481 F F F V
   0.7500000000000000    0.8763357120564699    0.5649632272655337 F F F Si
   0.2500000000000000    0.3763357120564699    0.5649632272655337 F F F Si
   0.2500000000000000    0.8763357120564699    0.5094076717099781 F F F Si
   0.7500000000000000    0.3763357120564699    0.5094076717099781 F F F Si
   0.5000000000000000    0.6236642879435301    0.5646664023640959 F F F Si
   0.0000000000000000    0.1236642879435302    0.5646664023640959 F F F Si
   0.0000000000000000    0.6236642879435301    0.5091108468085404 F F F Si
   0.5000000000000000    0.1236642879435302    0.5091108468085404 F F F Si
   0.7500000000000000    0.6802282505283230    0.6542846204290729 T T T Hf
   0.2500000000000000    0.1802282505283231    0.6542846204290730 T T T Hf
   0.2500000000000000    0.6802282505283230    0.7098401759846285 T T T Hf
   0.7500000000000000    0.1802282505283231    0.7098401759846285 T T T Hf
   0.5000000000000000    0.8197717494716770    0.6975672314227790 T T T Hf
   0.0000000000000000    0.3197717494716770    0.6975672314227790 T T T Hf
   0.0000000000000000    0.8197717494716770    0.6420116758672234 T T T Hf
   0.5000000000000000    0.3197717494716770    0.6420116758672234 T T T Hf
   0.5000000000000000    0.5000000000000000    0.7175925925925926 T T T V
   0.0000000000000000    0.0000000000000000    0.7175925925925926 T T T V
   0.0000000000000000    0.5000000000000000    0.6620370370370371 T T T V
   0.5000000000000000    0.0000000000000000    0.6620370370370371 T T T V
   0.7500000000000000    0.5000000000000000    0.6898148148148149 T T T V
   0.2500000000000000    0.0000000000000000    0.6898148148148149 T T T V
   0.2500000000000000    0.5000000000000000    0.6342592592592593 T T T V
   0.7500000000000000    0.0000000000000000    0.6342592592592593 T T T V
   0.7500000000000000    0.8763357120564699    0.6760743383766448 T T T Si
   0.2500000000000000    0.3763357120564699    0.6760743383766448 T T T Si
   0.2500000000000000    0.8763357120564699    0.6205187828210892 T T T Si
   0.7500000000000000    0.3763357120564699    0.6205187828210892 T T T Si
   0.5000000000000000    0.6236642879435301    0.6757775134752071 T T T Si
   0.0000000000000000    0.1236642879435302    0.6757775134752071 T T T Si
   0.0000000000000000    0.6236642879435301    0.6202219579196515 T T T Si
   0.5000000000000000    0.1236642879435302    0.6202219579196515 T T T Si
