Hf12 Fe12 Ge12
1.0
   3.6049137627677630    0.0000000000000000    0.0000000000000002
   0.0000000000000009    5.7629747103484581   -9.9817650010580756
   0.0000000000000000    0.0000000000000000   59.8905900063484395
Hf Fe Ge Hf Fe Ge Hf Fe Ge Hf Fe Ge
3 3 3 3 3 3 3 3 3 3 3 3
Selective dynamics
direct
   0.5000000000000000    0.0000000000000000    0.3789604920475406 F F F Hf
   0.5000000000000000    0.5893555715721348    0.3531901270160300 T T T Hf
   0.5000000000000000    0.4106444284278652    0.3789604920475406 F F F Hf
   0.0000000000000000    0.0000000000000000    0.3057593563345272 T T T Fe
   0.0000000000000000    0.2481657929892549    0.2773701762198345 T T T Fe
   0.0000000000000000    0.7518342070107451    0.3057593563345272 T T T Fe
   0.5000000000000000    0.0000000000000000    0.3333333333333334 T T T Ge
   0.0000000000000000    0.3333333333333334    0.3333333333333334 T T T Ge
   0.0000000000000000    0.6666666666666667    0.3333333333333334 T T T Ge
   0.5000000000000000    0.0000000000000000    0.4900716031586517 F F F Hf
   0.5000000000000000    0.5893555715721348    0.4643012381271411 F F F Hf
   0.5000000000000000    0.4106444284278652    0.4900716031586517 F F F Hf
   0.0000000000000000    0.0000000000000000    0.4168704674456384 F F F Fe
   0.0000000000000000    0.2481657929892549    0.3884812873309456 F F F Fe
   0.0000000000000000    0.7518342070107451    0.4168704674456384 F F F Fe
   0.5000000000000000    0.0000000000000000    0.4444444444444444 F F F Ge
   0.0000000000000000    0.3333333333333334    0.4444444444444445 F F F Ge
   0.0000000000000000    0.6666666666666667    0.4444444444444445 F F F Ge
   0.5000000000000000    0.0000000000000000    0.6011827142697628 F F F Hf
   0.5000000000000000    0.5893555715721348    0.5754123492382521 F F F Hf
   0.5000000000000000    0.4106444284278652    0.6011827142697628 F F F Hf
   0.0000000000000000    0.0000000000000000    0.5279815785567494 F F F Fe
   0.0000000000000000    0.2481657929892549    0.4995923984420566 F F F Fe
   0.0000000000000000    0.7518342070107451    0.5279815785567494 F F F Fe
   0.5000000000000000    0.0000000000000000    0.5555555555555556 F F F Ge
   0.0000000000000000    0.3333333333333334    0.5555555555555556 F F F Ge
   0.0000000000000000    0.6666666666666667    0.5555555555555556 F F F Ge
   0.5000000000000000    0.0000000000000000    0.7122938253808739 T T T Hf
   0.5000000000000000    0.5893555715721348    0.6865234603493633 T T T Hf
   0.5000000000000000    0.4106444284278652    0.7122938253808739 T T T Hf
   0.0000000000000000    0.0000000000000000    0.6390926896678606 T T T Fe
   0.0000000000000000    0.2481657929892549    0.6107035095531678 F F F Fe
   0.0000000000000000    0.7518342070107451    0.6390926896678606 T T T Fe
   0.5000000000000000    0.0000000000000000    0.6666666666666666 T T T Ge
   0.0000000000000000    0.3333333333333334    0.6666666666666667 T T T Ge
   0.0000000000000000    0.6666666666666667    0.6666666666666667 T T T Ge
