Y16 Si16 Rh8
1.0
   4.2156096344661780    0.0000000000000000    0.0000000000000003
   0.0000000000000030   18.5930926991005769   -0.1048168692948964
   0.0000000000000000    0.0000000000000000   30.2067189448183910
Y Si Rh
16 16 8
Selective dynamics
direct
   0.0000000000000000    0.0011877146231711    0.5247908130895411 F F F Y
   0.0000000000000000    0.5011877146231711    0.3581241464228744 T T T Y
   0.5000000000000000    0.3423195169631157    0.5553609657354699 F F F Y
   0.5000000000000000    0.8423195169631157    0.3886942990688032 T T T Y
   0.0000000000000000    0.4988122853768289    0.5752091869104590 T T T Y
   0.0000000000000000    0.9988122853768289    0.4085425202437922 T T T Y
   0.5000000000000000    0.1576804830368843    0.5446390342645302 F F F Y
   0.5000000000000000    0.6576804830368843    0.3779723675978635 T T T Y
   0.5000000000000000    0.2511877146231712    0.4414574797562077 F F F Y
   0.5000000000000000    0.7511877146231711    0.6081241464228744 T T T Y
   0.0000000000000000    0.0923195169631157    0.6386942990688032 T T T Y
   0.0000000000000000    0.5923195169631157    0.4720276324021365 F F F Y
   0.5000000000000000    0.2488122853768289    0.6585425202437922 T T T Y
   0.5000000000000000    0.7488122853768289    0.4918758535771256 F F F Y
   0.0000000000000000    0.4076804830368844    0.4613057009311968 F F F Y
   0.0000000000000000    0.9076804830368843    0.6279723675978635 T T T Y
   0.5000000000000000    0.4294164418608553    0.6349813776876769 T T T Si
   0.5000000000000000    0.9294164418608553    0.4683147110210103 F F F Si
   0.5000000000000000    0.4946609364626653    0.5089175748915438 F F F Si
   0.5000000000000000    0.9946609364626653    0.3422509082248770 T T T Si
   0.5000000000000000    0.0705835581391448    0.4650186223123230 F F F Si
   0.5000000000000000    0.5705835581391447    0.6316852889789897 T T T Si
   0.5000000000000000    0.0053390635373347    0.5910824251084563 T T T Si
   0.5000000000000000    0.5053390635373347    0.4244157584417896 T T T Si
   0.0000000000000000    0.1794164418608553    0.3849813776876769 T T T Si
   0.0000000000000000    0.6794164418608553    0.5516480443543437 F F F Si
   0.0000000000000000    0.2446609364626653    0.5922509082248770 T T T Si
   0.0000000000000000    0.7446609364626653    0.4255842415582103 T T T Si
   0.0000000000000000    0.3205835581391447    0.3816852889789897 T T T Si
   0.0000000000000000    0.8205835581391447    0.5483519556456564 F F F Si
   0.0000000000000000    0.2553390635373348    0.5077490917751230 F F F Si
   0.0000000000000000    0.7553390635373347    0.3410824251084563 T T T Si
   0.0000000000000000    0.3632257387870546    0.6370205769240695 T T T Rh
   0.0000000000000000    0.8632257387870546    0.4703539102574029 F F F Rh
   0.0000000000000000    0.1367742612129455    0.4629794230759304 F F F Rh
   0.0000000000000000    0.6367742612129454    0.6296460897425971 T T T Rh
   0.5000000000000000    0.1132257387870546    0.3870205769240695 T T T Rh
   0.5000000000000000    0.6132257387870546    0.5536872435907363 F F F Rh
   0.5000000000000000    0.3867742612129455    0.3796460897425971 T T T Rh
   0.5000000000000000    0.8867742612129454    0.5463127564092638 F F F Rh
