Co32 Cu16 Ge32
1.0
   5.0194927426916029    0.0000000000000000   -3.8747830518708342
  -0.0000000000000068   13.3722245833434883   -3.8747830518708368
   0.0000000000000000    0.0000000000000000   38.7478305187083549
Co Cu Ge Co Cu Ge Co Cu Ge Co Cu Ge
8 4 8 8 4 8 8 4 8 8 4 8
Selective dynamics
direct
   0.2500000000000000    0.0799777966684125    0.3779977796668412 T T T Co
   0.2500000000000000    0.5799777966684125    0.3279977796668412 T T T Co
   0.7500000000000000    0.4200222033315874    0.3620022203331588 T T T Co
   0.7500000000000000    0.9200222033315874    0.3120022203331587 T T T Co
   0.5000000000000000    0.2499999999999999    0.3200000000000000 T T T Co
   0.5000000000000000    0.7499999999999999    0.3700000000000000 T T T Co
   0.0000000000000000    0.2500000000000000    0.3700000000000000 T T T Co
   0.0000000000000000    0.7500000000000000    0.3200000000000000 T T T Co
   0.0000000000000000    0.0000000000000000    0.3950000000000000 T T T Cu
   0.0000000000000000    0.5000000000000000    0.3450000000000000 T T T Cu
   0.5000000000000000    0.0000000000000000    0.3450000000000000 T T T Cu
   0.5000000000000000    0.4999999999999999    0.3950000000000000 T T T Cu
   0.2500000000000000    0.1890869621301547    0.3389086962130154 T T T Ge
   0.2500000000000000    0.6890869621301547    0.3889086962130155 T T T Ge
   0.7500000000000000    0.3109130378698452    0.3010913037869845 T T T Ge
   0.7500000000000000    0.8109130378698451    0.3510913037869846 T T T Ge
   0.2500000000000000    0.4018239240392204    0.3101823924039220 T T T Ge
   0.2500000000000000    0.9018239240392205    0.3601823924039221 T T T Ge
   0.7500000000000000    0.0981760759607794    0.3298176075960779 T T T Ge
   0.7500000000000000    0.5981760759607794    0.3798176075960780 T T T Ge
   0.2500000000000000    0.0799777966684125    0.4779977796668413 F F F Co
   0.2500000000000000    0.5799777966684125    0.4279977796668413 F F F Co
   0.7500000000000000    0.4200222033315874    0.4620022203331587 F F F Co
   0.7500000000000000    0.9200222033315874    0.4120022203331588 F F F Co
   0.5000000000000000    0.2499999999999999    0.4200000000000000 F F F Co
   0.5000000000000000    0.7499999999999999    0.4700000000000000 F F F Co
   0.0000000000000000    0.2500000000000000    0.4700000000000000 F F F Co
   0.0000000000000000    0.7500000000000000    0.4200000000000000 F F F Co
   0.0000000000000000    0.0000000000000000    0.4950000000000000 F F F Cu
   0.0000000000000000    0.5000000000000000    0.4450000000000000 F F F Cu
   0.5000000000000000    0.0000000000000000    0.4450000000000000 F F F Cu
   0.5000000000000000    0.4999999999999999    0.4950000000000000 F F F Cu
   0.2500000000000000    0.1890869621301547    0.4389086962130155 F F F Ge
   0.2500000000000000    0.6890869621301547    0.4889086962130155 F F F Ge
   0.7500000000000000    0.3109130378698452    0.4010913037869845 T T T Ge
   0.7500000000000000    0.8109130378698451    0.4510913037869845 F F F Ge
   0.2500000000000000    0.4018239240392204    0.4101823924039221 F F F Ge
   0.2500000000000000    0.9018239240392205    0.4601823924039221 F F F Ge
   0.7500000000000000    0.0981760759607794    0.4298176075960780 F F F Ge
   0.7500000000000000    0.5981760759607794    0.4798176075960779 F F F Ge
   0.2500000000000000    0.0799777966684125    0.5779977796668412 F F F Co
   0.2500000000000000    0.5799777966684125    0.5279977796668412 F F F Co
   0.7500000000000000    0.4200222033315874    0.5620022203331587 F F F Co
   0.7500000000000000    0.9200222033315874    0.5120022203331587 F F F Co
   0.5000000000000000    0.2499999999999999    0.5200000000000000 F F F Co
   0.5000000000000000    0.7499999999999999    0.5700000000000001 F F F Co
   0.0000000000000000    0.2500000000000000    0.5700000000000001 F F F Co
   0.0000000000000000    0.7500000000000000    0.5200000000000000 F F F Co
   0.0000000000000000    0.0000000000000000    0.5950000000000000 T T T Cu
   0.0000000000000000    0.5000000000000000    0.5450000000000000 F F F Cu
   0.5000000000000000    0.0000000000000000    0.5449999999999999 F F F Cu
   0.5000000000000000    0.4999999999999999    0.5950000000000000 T T T Cu
   0.2500000000000000    0.1890869621301547    0.5389086962130154 F F F Ge
   0.2500000000000000    0.6890869621301547    0.5889086962130154 F F F Ge
   0.7500000000000000    0.3109130378698452    0.5010913037869845 F F F Ge
   0.7500000000000000    0.8109130378698451    0.5510913037869846 F F F Ge
   0.2500000000000000    0.4018239240392204    0.5101823924039220 F F F Ge
   0.2500000000000000    0.9018239240392205    0.5601823924039221 F F F Ge
   0.7500000000000000    0.0981760759607794    0.5298176075960779 F F F Ge
   0.7500000000000000    0.5981760759607794    0.5798176075960779 F F F Ge
   0.2500000000000000    0.0799777966684125    0.6779977796668413 T T T Co
   0.2500000000000000    0.5799777966684125    0.6279977796668412 T T T Co
   0.7500000000000000    0.4200222033315874    0.6620022203331588 T T T Co
   0.7500000000000000    0.9200222033315874    0.6120022203331588 T T T Co
   0.5000000000000000    0.2499999999999999    0.6200000000000000 T T T Co
   0.5000000000000000    0.7499999999999999    0.6699999999999999 T T T Co
   0.0000000000000000    0.2500000000000000    0.6699999999999999 T T T Co
   0.0000000000000000    0.7500000000000000    0.6200000000000000 T T T Co
   0.0000000000000000    0.0000000000000000    0.6950000000000001 T T T Cu
   0.0000000000000000    0.5000000000000000    0.6450000000000000 T T T Cu
   0.5000000000000000    0.0000000000000000    0.6450000000000000 T T T Cu
   0.5000000000000000    0.4999999999999999    0.6950000000000001 T T T Cu
   0.2500000000000000    0.1890869621301547    0.6389086962130155 T T T Ge
   0.2500000000000000    0.6890869621301547    0.6889086962130155 T T T Ge
   0.7500000000000000    0.3109130378698452    0.6010913037869845 T T T Ge
   0.7500000000000000    0.8109130378698451    0.6510913037869845 T T T Ge
   0.2500000000000000    0.4018239240392204    0.6101823924039220 T T T Ge
   0.2500000000000000    0.9018239240392205    0.6601823924039221 T T T Ge
   0.7500000000000000    0.0981760759607794    0.6298176075960780 T T T Ge
   0.7500000000000000    0.5981760759607794    0.6798176075960780 T T T Ge
