Zr24 Ni12 As24
1.0
   6.8309073583040743    0.0000000000000000   -0.0000000000000011
   0.0000000000000021   13.1724726115543245    3.9438262021262527
   0.0000000000000000    0.0000000000000000   27.6067834148837683
Zr Ni As Zr Ni As Zr Ni As
8 4 8 8 4 8 8 4 8
Selective dynamics
direct
   0.1666666666666667    0.8882354171573953    0.3516806546918007 T T T Zr
   0.6666666666666666    0.8882354171573953    0.4231092261203721 F F F Zr
   0.3333333333333334    0.3882354171573954    0.3516806546918007 T T T Zr
   0.8333333333333333    0.3882354171573954    0.4231092261203721 F F F Zr
   0.3333333333333333    0.1117645828426046    0.3911764881653422 T T T Zr
   0.8333333333333333    0.1117645828426046    0.3197479167367707 T T T Zr
   0.1666666666666666    0.6117645828426046    0.3911764881653422 T T T Zr
   0.6666666666666665    0.6117645828426046    0.3197479167367708 T T T Zr
   0.5000000000000000    0.2500000000000000    0.3000000000000000 T T T Ni
   0.0000000000000000    0.2500000000000000    0.3714285714285714 T T T Ni
   0.5000000000000000    0.7499999999999999    0.3714285714285714 T T T Ni
   0.0000000000000000    0.7499999999999999    0.3000000000000000 T T T Ni
   0.3333333333333334    0.7499999999999999    0.3000000000000000 T T T As
   0.8333333333333334    0.7499999999999999    0.3714285714285714 T T T As
   0.5000000000000000    0.5000000000000000    0.4071428571428571 T T T As
   0.0000000000000000    0.5000000000000000    0.3357142857142857 T T T As
   0.5000000000000000    0.0000000000000000    0.3357142857142857 T T T As
   0.0000000000000000    0.0000000000000000    0.4071428571428571 T T T As
   0.1666666666666666    0.2500000000000000    0.3000000000000000 T T T As
   0.6666666666666665    0.2500000000000000    0.3714285714285714 T T T As
   0.1666666666666667    0.8882354171573953    0.4945377975489435 F F F Zr
   0.6666666666666666    0.8882354171573953    0.5659663689775150 F F F Zr
   0.3333333333333334    0.3882354171573954    0.4945377975489434 F F F Zr
   0.8333333333333333    0.3882354171573954    0.5659663689775150 F F F Zr
   0.3333333333333333    0.1117645828426046    0.5340336310224850 F F F Zr
   0.8333333333333333    0.1117645828426046    0.4626050595939136 F F F Zr
   0.1666666666666666    0.6117645828426046    0.5340336310224850 F F F Zr
   0.6666666666666665    0.6117645828426046    0.4626050595939136 F F F Zr
   0.5000000000000000    0.2500000000000000    0.4428571428571428 F F F Ni
   0.0000000000000000    0.2500000000000000    0.5142857142857142 F F F Ni
   0.5000000000000000    0.7499999999999999    0.5142857142857142 F F F Ni
   0.0000000000000000    0.7499999999999999    0.4428571428571428 F F F Ni
   0.3333333333333334    0.7499999999999999    0.4428571428571428 F F F As
   0.8333333333333334    0.7499999999999999    0.5142857142857142 F F F As
   0.5000000000000000    0.5000000000000000    0.5500000000000000 F F F As
   0.0000000000000000    0.5000000000000000    0.4785714285714285 F F F As
   0.5000000000000000    0.0000000000000000    0.4785714285714285 F F F As
   0.0000000000000000    0.0000000000000000    0.5500000000000000 F F F As
   0.1666666666666666    0.2500000000000000    0.4428571428571428 F F F As
   0.6666666666666665    0.2500000000000000    0.5142857142857142 F F F As
   0.1666666666666667    0.8882354171573953    0.6373949404060864 T T T Zr
   0.6666666666666666    0.8882354171573953    0.7088235118346577 T T T Zr
   0.3333333333333334    0.3882354171573954    0.6373949404060864 T T T Zr
   0.8333333333333333    0.3882354171573954    0.7088235118346577 T T T Zr
   0.3333333333333333    0.1117645828426046    0.6768907738796279 T T T Zr
   0.8333333333333333    0.1117645828426046    0.6054622024510564 T T T Zr
   0.1666666666666666    0.6117645828426046    0.6768907738796279 T T T Zr
   0.6666666666666665    0.6117645828426046    0.6054622024510565 T T T Zr
   0.5000000000000000    0.2500000000000000    0.5857142857142856 F F F Ni
   0.0000000000000000    0.2500000000000000    0.6571428571428571 T T T Ni
   0.5000000000000000    0.7499999999999999    0.6571428571428571 T T T Ni
   0.0000000000000000    0.7499999999999999    0.5857142857142856 F F F Ni
   0.3333333333333334    0.7499999999999999    0.5857142857142856 F F F As
   0.8333333333333334    0.7499999999999999    0.6571428571428571 T T T As
   0.5000000000000000    0.5000000000000000    0.6928571428571428 T T T As
   0.0000000000000000    0.5000000000000000    0.6214285714285714 T T T As
   0.5000000000000000    0.0000000000000000    0.6214285714285714 T T T As
   0.0000000000000000    0.0000000000000000    0.6928571428571428 T T T As
   0.1666666666666666    0.2500000000000000    0.5857142857142856 F F F As
   0.6666666666666665    0.2500000000000000    0.6571428571428571 T T T As
