Sc20 In10 Ni20
1.0
   7.1915085166796358    0.0000000000000000    0.0000000000000004
  -0.0000000000000020    7.1915085166796349    6.6883113093355107
   0.0000000000000000    0.0000000000000000   40.1298678560130639
Sc In Ni Sc In Ni Sc In Ni Sc In Ni Sc In Ni
4 2 4 4 2 4 4 2 4 4 2 4 4 2 4
Selective dynamics
direct
   0.6708187648824364    0.8291812351175637    0.3201364608137394 T T T Sc
   0.1708187648824363    0.6708187648824363    0.3465302058529273 T T T Sc
   0.8291812351175638    0.3291812351175636    0.3201364608137395 T T T Sc
   0.3291812351175637    0.1708187648824362    0.3465302058529274 T T T Sc
   0.0000000000000000    0.0000000000000000    0.3333333333333334 T T T In
   0.5000000000000000    0.5000000000000000    0.3333333333333334 T T T In
   0.8772847088395467    0.6227152911604534    0.3128807848065912 T T T Ni
   0.3772847088395466    0.8772847088395466    0.3537858818600756 T T T Ni
   0.6227152911604535    0.1227152911604533    0.3128807848065912 T T T Ni
   0.1227152911604534    0.3772847088395465    0.3537858818600756 T T T Ni
   0.6708187648824364    0.8291812351175637    0.4034697941470727 T T T Sc
   0.1708187648824363    0.6708187648824363    0.4298635391862606 F F F Sc
   0.8291812351175638    0.3291812351175636    0.4034697941470728 T T T Sc
   0.3291812351175637    0.1708187648824362    0.4298635391862607 F F F Sc
   0.0000000000000000    0.0000000000000000    0.4166666666666667 F F F In
   0.5000000000000000    0.5000000000000000    0.4166666666666667 F F F In
   0.8772847088395467    0.6227152911604534    0.3962141181399245 T T T Ni
   0.3772847088395466    0.8772847088395466    0.4371192151934090 F F F Ni
   0.6227152911604535    0.1227152911604533    0.3962141181399245 T T T Ni
   0.1227152911604534    0.3772847088395465    0.4371192151934090 F F F Ni
   0.6708187648824364    0.8291812351175637    0.4868031274804061 F F F Sc
   0.1708187648824363    0.6708187648824363    0.5131968725195940 F F F Sc
   0.8291812351175638    0.3291812351175636    0.4868031274804061 F F F Sc
   0.3291812351175637    0.1708187648824362    0.5131968725195940 F F F Sc
   0.0000000000000000    0.0000000000000000    0.5000000000000000 F F F In
   0.5000000000000000    0.5000000000000000    0.5000000000000000 F F F In
   0.8772847088395467    0.6227152911604534    0.4795474514732578 F F F Ni
   0.3772847088395466    0.8772847088395466    0.5204525485267423 F F F Ni
   0.6227152911604535    0.1227152911604533    0.4795474514732578 F F F Ni
   0.1227152911604534    0.3772847088395465    0.5204525485267423 F F F Ni
   0.6708187648824364    0.8291812351175637    0.5701364608137394 F F F Sc
   0.1708187648824363    0.6708187648824363    0.5965302058529274 T T T Sc
   0.8291812351175638    0.3291812351175636    0.5701364608137395 F F F Sc
   0.3291812351175637    0.1708187648824362    0.5965302058529274 T T T Sc
   0.0000000000000000    0.0000000000000000    0.5833333333333334 F F F In
   0.5000000000000000    0.5000000000000000    0.5833333333333334 F F F In
   0.8772847088395467    0.6227152911604534    0.5628807848065911 F F F Ni
   0.3772847088395466    0.8772847088395466    0.6037858818600756 T T T Ni
   0.6227152911604535    0.1227152911604533    0.5628807848065912 F F F Ni
   0.1227152911604534    0.3772847088395465    0.6037858818600756 T T T Ni
   0.6708187648824364    0.8291812351175637    0.6534697941470727 T T T Sc
   0.1708187648824363    0.6708187648824363    0.6798635391862606 T T T Sc
   0.8291812351175638    0.3291812351175636    0.6534697941470727 T T T Sc
   0.3291812351175637    0.1708187648824362    0.6798635391862606 T T T Sc
   0.0000000000000000    0.0000000000000000    0.6666666666666667 T T T In
   0.5000000000000000    0.5000000000000000    0.6666666666666667 T T T In
   0.8772847088395467    0.6227152911604534    0.6462141181399245 T T T Ni
   0.3772847088395466    0.8772847088395466    0.6871192151934089 T T T Ni
   0.6227152911604535    0.1227152911604533    0.6462141181399245 T T T Ni
   0.1227152911604534    0.3772847088395465    0.6871192151934089 T T T Ni
