Y12 Bi12 Pd12
1.0
   6.7289520405654271    0.0000000000000000    0.0000000000000004
   0.0000000000000011    6.7289520405654280   -6.7289520405654262
   0.0000000000000000    0.0000000000000000   47.1026642839579921
Y Bi Pd Y Bi Pd Y Bi Pd
4 4 4 4 4 4 4 4 4
Selective dynamics
direct
   0.0000000000000000    0.0000000000000000    0.3214285714285715 T T T Y
   0.5000000000000000    0.5000000000000000    0.3928571428571429 T T T Y
   0.5000000000000000    0.0000000000000000    0.3928571428571428 T T T Y
   0.0000000000000000    0.5000000000000000    0.3214285714285715 T T T Y
   0.0000000000000000    0.0000000000000000    0.3928571428571428 T T T Bi
   0.5000000000000000    0.5000000000000000    0.3214285714285715 T T T Bi
   0.5000000000000000    0.0000000000000000    0.3214285714285715 T T T Bi
   0.0000000000000000    0.5000000000000000    0.3928571428571429 T T T Bi
   0.2500000000000000    0.2500000000000001    0.3928571428571429 T T T Pd
   0.7500000000000000    0.7500000000000000    0.3214285714285715 T T T Pd
   0.7500000000000000    0.2500000000000001    0.3214285714285715 T T T Pd
   0.2500000000000000    0.7500000000000000    0.3928571428571429 T T T Pd
   0.0000000000000000    0.0000000000000000    0.4642857142857143 F F F Y
   0.5000000000000000    0.5000000000000000    0.5357142857142857 F F F Y
   0.5000000000000000    0.0000000000000000    0.5357142857142857 F F F Y
   0.0000000000000000    0.5000000000000000    0.4642857142857143 F F F Y
   0.0000000000000000    0.0000000000000000    0.5357142857142857 F F F Bi
   0.5000000000000000    0.5000000000000000    0.4642857142857143 F F F Bi
   0.5000000000000000    0.0000000000000000    0.4642857142857143 F F F Bi
   0.0000000000000000    0.5000000000000000    0.5357142857142857 F F F Bi
   0.2500000000000000    0.2500000000000001    0.5357142857142857 F F F Pd
   0.7500000000000000    0.7500000000000000    0.4642857142857143 F F F Pd
   0.7500000000000000    0.2500000000000001    0.4642857142857143 F F F Pd
   0.2500000000000000    0.7500000000000000    0.5357142857142858 F F F Pd
   0.0000000000000000    0.0000000000000000    0.6071428571428572 T T T Y
   0.5000000000000000    0.5000000000000000    0.6785714285714286 T T T Y
   0.5000000000000000    0.0000000000000000    0.6785714285714286 T T T Y
   0.0000000000000000    0.5000000000000000    0.6071428571428572 T T T Y
   0.0000000000000000    0.0000000000000000    0.6785714285714286 T T T Bi
   0.5000000000000000    0.5000000000000000    0.6071428571428572 T T T Bi
   0.5000000000000000    0.0000000000000000    0.6071428571428572 T T T Bi
   0.0000000000000000    0.5000000000000000    0.6785714285714286 T T T Bi
   0.2500000000000000    0.2500000000000001    0.6785714285714286 T T T Pd
   0.7500000000000000    0.7500000000000000    0.6071428571428572 T T T Pd
   0.7500000000000000    0.2500000000000001    0.6071428571428572 T T T Pd
   0.2500000000000000    0.7500000000000000    0.6785714285714286 T T T Pd
