Cr12 Ge12 Te36
1.0
   5.9903207459405134    0.0000000000000000   -3.4585132952009539
   0.0000000000000035   21.8983675869061294  -13.8340531808038278
   0.0000000000000000    0.0000000000000000   34.5851329520095589
Cr Ge Te Cr Ge Te
6 6 18 6 6 18
Selective dynamics
direct
   0.6666666666666666    0.3328811205369437    0.4931524482147774 F F F Cr
   0.6666666666666669    0.0004522127963896    0.3601808851185558 T T T Cr
   0.0000000000000000    0.6662144538702770    0.3598191148814441 T T T Cr
   0.0000000000000000    0.3337855461297229    0.4268475517852225 T T T Cr
   0.3333333333333333    0.9995477872036105    0.4264857815481108 T T T Cr
   0.3333333333333335    0.6671188794630563    0.4935142184518892 F F F Cr
   0.3333333333333333    0.2781845677556210    0.3379404937689150 T T T Ge
   0.0000000000000000    0.0551487655777124    0.3153928395644182 T T T Ge
   0.6666666666666666    0.6115179010889543    0.4046071604355816 T T T Ge
   0.3333333333333333    0.3884820989110457    0.3820595062310849 T T T Ge
   0.0000000000000000    0.9448512344222877    0.4712738271022484 F F F Ge
   0.6666666666666666    0.7218154322443792    0.4487261728977516 F F F Ge
   0.0016853632881132    0.0785667287292307    0.3994819798948162 T T T Te
   0.3719244120608398    0.0785667287292308    0.3244229521674029 T T T Te
   0.6263902246510469    0.0785667287292307    0.4503751424128576 F F F Te
   0.3316479700452201    0.2547666046041027    0.4538513534385170 F F F Te
   0.9614089212724934    0.2547666046041027    0.3289103811659303 T T T Te
   0.7069431086822864    0.2547666046041026    0.4029581909204756 T T T Te
   0.3350186966214466    0.4119000620625641    0.4661486465614829 F F F Te
   0.7052577453941732    0.4119000620625641    0.3910896188340696 T T T Te
   0.9597235579843801    0.4119000620625641    0.3170418090795243 T T T Te
   0.6649813033785534    0.5880999379374360    0.3205180201051837 T T T Te
   0.2947422546058267    0.5880999379374359    0.3955770478325970 T T T Te
   0.0402764420156196    0.5880999379374359    0.4696248575871423 F F F Te
   0.6683520299547800    0.7452333953958975    0.3328153132281496 T T T Te
   0.0385910787275065    0.7452333953958975    0.4577562855007363 F F F Te
   0.2930568913177133    0.7452333953958975    0.3837084757461909 T T T Te
   0.9983146367118867    0.9214332712707693    0.3871846867718504 T T T Te
   0.6280755879391600    0.9214332712707693    0.4622437144992637 F F F Te
   0.3736097753489531    0.9214332712707693    0.3362915242538090 T T T Te
   0.6666666666666666    0.3328811205369437    0.6931524482147775 T T T Cr
   0.6666666666666669    0.0004522127963896    0.5601808851185558 F F F Cr
   0.0000000000000000    0.6662144538702770    0.5598191148814441 F F F Cr
   0.0000000000000000    0.3337855461297229    0.6268475517852224 T T T Cr
   0.3333333333333333    0.9995477872036105    0.6264857815481109 T T T Cr
   0.3333333333333335    0.6671188794630563    0.6935142184518892 T T T Cr
   0.3333333333333333    0.2781845677556210    0.5379404937689151 F F F Ge
   0.0000000000000000    0.0551487655777124    0.5153928395644183 F F F Ge
   0.6666666666666666    0.6115179010889543    0.6046071604355816 T T T Ge
   0.3333333333333333    0.3884820989110457    0.5820595062310849 T T T Ge
   0.0000000000000000    0.9448512344222877    0.6712738271022484 T T T Ge
   0.6666666666666666    0.7218154322443792    0.6487261728977516 T T T Ge
   0.0016853632881132    0.0785667287292307    0.5994819798948162 T T T Te
   0.3719244120608398    0.0785667287292308    0.5244229521674030 F F F Te
   0.6263902246510469    0.0785667287292307    0.6503751424128577 T T T Te
   0.3316479700452201    0.2547666046041027    0.6538513534385171 T T T Te
   0.9614089212724934    0.2547666046041027    0.5289103811659304 F F F Te
   0.7069431086822864    0.2547666046041026    0.6029581909204756 T T T Te
   0.3350186966214466    0.4119000620625641    0.6661486465614829 T T T Te
   0.7052577453941732    0.4119000620625641    0.5910896188340696 T T T Te
   0.9597235579843801    0.4119000620625641    0.5170418090795244 F F F Te
   0.6649813033785534    0.5880999379374360    0.5205180201051838 F F F Te
   0.2947422546058267    0.5880999379374359    0.5955770478325970 T T T Te
   0.0402764420156196    0.5880999379374359    0.6696248575871423 T T T Te
   0.6683520299547800    0.7452333953958975    0.5328153132281496 F F F Te
   0.0385910787275065    0.7452333953958975    0.6577562855007363 T T T Te
   0.2930568913177133    0.7452333953958975    0.5837084757461910 T T T Te
   0.9983146367118867    0.9214332712707693    0.5871846867718504 T T T Te
   0.6280755879391600    0.9214332712707693    0.6622437144992637 T T T Te
   0.3736097753489531    0.9214332712707693    0.5362915242538091 F F F Te
