Ti16 Al16 Au16
1.0
   7.7087789097375481    0.0000000000000000   -8.9013311573205680
   0.0000000000000022    5.7627028969112732   -4.4506655786602831
   0.0000000000000000    0.0000000000000000   44.5066557866028418
Ti Al Au Ti Al Au Ti Al Au Ti Al Au
4 4 4 4 4 4 4 4 4 4 4 4
Selective dynamics
direct
   0.0000000000000000    0.5000000000000000    0.3250000000000000 T T T Ti
   0.4999999999999999    0.5000000000000000    0.3750000000000001 T T T Ti
   0.0000000000000000    0.0000000000000000    0.3750000000000000 T T T Ti
   0.4999999999999999    0.0000000000000000    0.3250000000000001 T T T Ti
   0.1666666666666666    0.7500000000000001    0.3333333333333334 T T T Al
   0.6666666666666666    0.7500000000000001    0.3833333333333334 T T T Al
   0.3333333333333333    0.2500000000000000    0.3666666666666667 T T T Al
   0.8333333333333333    0.2500000000000001    0.3166666666666667 T T T Al
   0.1666666666666666    0.2500000000000000    0.3833333333333334 T T T Au
   0.6666666666666666    0.2500000000000001    0.3333333333333334 T T T Au
   0.3333333333333333    0.7500000000000001    0.3166666666666667 T T T Au
   0.8333333333333333    0.7500000000000001    0.3666666666666667 T T T Au
   0.0000000000000000    0.5000000000000000    0.4250000000000000 T T T Ti
   0.4999999999999999    0.5000000000000000    0.4750000000000001 F F F Ti
   0.0000000000000000    0.0000000000000000    0.4750000000000000 F F F Ti
   0.4999999999999999    0.0000000000000000    0.4250000000000000 T T T Ti
   0.1666666666666666    0.7500000000000001    0.4333333333333334 F F F Al
   0.6666666666666666    0.7500000000000001    0.4833333333333334 F F F Al
   0.3333333333333333    0.2500000000000000    0.4666666666666667 F F F Al
   0.8333333333333333    0.2500000000000001    0.4166666666666667 T T T Al
   0.1666666666666666    0.2500000000000000    0.4833333333333334 F F F Au
   0.6666666666666666    0.2500000000000001    0.4333333333333334 F F F Au
   0.3333333333333333    0.7500000000000001    0.4166666666666667 T T T Au
   0.8333333333333333    0.7500000000000001    0.4666666666666667 F F F Au
   0.0000000000000000    0.5000000000000000    0.5250000000000000 F F F Ti
   0.4999999999999999    0.5000000000000000    0.5750000000000001 T T T Ti
   0.0000000000000000    0.0000000000000000    0.5750000000000001 T T T Ti
   0.4999999999999999    0.0000000000000000    0.5250000000000000 F F F Ti
   0.1666666666666666    0.7500000000000001    0.5333333333333334 F F F Al
   0.6666666666666666    0.7500000000000001    0.5833333333333334 T T T Al
   0.3333333333333333    0.2500000000000000    0.5666666666666667 F F F Al
   0.8333333333333333    0.2500000000000001    0.5166666666666667 F F F Al
   0.1666666666666666    0.2500000000000000    0.5833333333333334 T T T Au
   0.6666666666666666    0.2500000000000001    0.5333333333333334 F F F Au
   0.3333333333333333    0.7500000000000001    0.5166666666666667 F F F Au
   0.8333333333333333    0.7500000000000001    0.5666666666666668 F F F Au
   0.0000000000000000    0.5000000000000000    0.6250000000000000 T T T Ti
   0.4999999999999999    0.5000000000000000    0.6750000000000000 T T T Ti
   0.0000000000000000    0.0000000000000000    0.6750000000000000 T T T Ti
   0.4999999999999999    0.0000000000000000    0.6250000000000000 T T T Ti
   0.1666666666666666    0.7500000000000001    0.6333333333333333 T T T Al
   0.6666666666666666    0.7500000000000001    0.6833333333333333 T T T Al
   0.3333333333333333    0.2500000000000000    0.6666666666666667 T T T Al
   0.8333333333333333    0.2500000000000001    0.6166666666666667 T T T Al
   0.1666666666666666    0.2500000000000000    0.6833333333333333 T T T Au
   0.6666666666666666    0.2500000000000001    0.6333333333333333 T T T Au
   0.3333333333333333    0.7500000000000001    0.6166666666666667 T T T Au
   0.8333333333333333    0.7500000000000001    0.6666666666666667 T T T Au
