Sr5 Cd10 As10
1.0
   3.9160119953582511    0.0000000000000000   -6.7827317390096775
  -0.0000000000000038    7.5078830449177563   -4.5218211593397823
   0.0000000000000000    0.0000000000000000   54.2618539120774130
Sr Cd As Sr Cd As Sr Cd As Sr Cd As Sr Cd As
1 2 2 1 2 2 1 2 2 1 2 2 1 2 2
Selective dynamics
direct
   0.0000000000000000    0.0000000000000000    0.3500000000000000 T T T Sr
   0.6666666666666666    0.6320464848359606    0.3193372070696634 T T T Cd
   0.3333333333333334    0.3679535151640396    0.2973294595970034 T T T Cd
   0.3333333333333334    0.7498421076016228    0.3291535089668019 T T T As
   0.6666666666666667    0.2501578923983773    0.3708464910331982 T T T As
   0.0000000000000000    0.0000000000000000    0.4333333333333333 F F F Sr
   0.6666666666666666    0.6320464848359606    0.4026705404029967 T T T Cd
   0.3333333333333334    0.3679535151640396    0.3806627929303367 T T T Cd
   0.3333333333333334    0.7498421076016228    0.4124868423001352 T T T As
   0.6666666666666667    0.2501578923983773    0.4541798243665315 F F F As
   0.0000000000000000    0.0000000000000000    0.5166666666666666 F F F Sr
   0.6666666666666666    0.6320464848359606    0.4860038737363300 F F F Cd
   0.3333333333333334    0.3679535151640396    0.4639961262636700 F F F Cd
   0.3333333333333334    0.7498421076016228    0.4958201756334686 F F F As
   0.6666666666666667    0.2501578923983773    0.5375131576998649 F F F As
   0.0000000000000000    0.0000000000000000    0.6000000000000001 T T T Sr
   0.6666666666666666    0.6320464848359606    0.5693372070696634 F F F Cd
   0.3333333333333334    0.3679535151640396    0.5473294595970033 F F F Cd
   0.3333333333333334    0.7498421076016228    0.5791535089668018 F F F As
   0.6666666666666667    0.2501578923983773    0.6208464910331981 T T T As
   0.0000000000000000    0.0000000000000000    0.6833333333333333 T T T Sr
   0.6666666666666666    0.6320464848359606    0.6526705404029967 T T T Cd
   0.3333333333333334    0.3679535151640396    0.6306627929303367 T T T Cd
   0.3333333333333334    0.7498421076016228    0.6624868423001352 T T T As
   0.6666666666666667    0.2501578923983773    0.7041798243665315 T T T As
