Sr12 Tl24 Pt12
1.0
  11.2611270202269758    0.0000000000000000   -4.4752225389057037
  -0.0000000000000005    8.4728323002968047   -4.4752225389057045
   0.0000000000000000    0.0000000000000000   35.8017803112456292
Sr Tl Pt Sr Tl Pt Sr Tl Pt
4 8 4 4 8 4 4 8 4
Selective dynamics
direct
   0.4348967807423065    0.7500000000000000    0.4137370975927883 T T T Sr
   0.0651032192576935    0.2500000000000000    0.3675129024072117 T T T Sr
   0.9348967807423066    0.7500000000000000    0.4137370975927883 T T T Sr
   0.5651032192576935    0.2500000000000001    0.3675129024072117 T T T Sr
   0.1461351244460758    0.5517265539285249    0.3528577097968251 T T T Tl
   0.3538648755539243    0.4482734460714751    0.4283922902031749 F F F Tl
   0.3538648755539243    0.0517265539285248    0.3788239286853061 T T T Tl
   0.1461351244460758    0.9482734460714750    0.4024260713146939 T T T Tl
   0.6461351244460759    0.5517265539285249    0.3528577097968251 T T T Tl
   0.8538648755539242    0.4482734460714752    0.4283922902031749 F F F Tl
   0.8538648755539242    0.0517265539285248    0.3788239286853061 T T T Tl
   0.6461351244460759    0.9482734460714752    0.4024260713146939 T T T Tl
   0.2211801027205880    0.7500000000000000    0.3245225128400735 T T T Pt
   0.2788198972794120    0.2500000000000000    0.3317274871599265 T T T Pt
   0.7211801027205881    0.7500000000000001    0.3245225128400735 T T T Pt
   0.7788198972794120    0.2500000000000001    0.3317274871599265 T T T Pt
   0.4348967807423065    0.7500000000000000    0.5387370975927883 F F F Sr
   0.0651032192576935    0.2500000000000000    0.4925129024072117 F F F Sr
   0.9348967807423066    0.7500000000000000    0.5387370975927883 F F F Sr
   0.5651032192576935    0.2500000000000001    0.4925129024072117 F F F Sr
   0.1461351244460758    0.5517265539285249    0.4778577097968251 F F F Tl
   0.3538648755539243    0.4482734460714751    0.5533922902031749 F F F Tl
   0.3538648755539243    0.0517265539285248    0.5038239286853061 F F F Tl
   0.1461351244460758    0.9482734460714750    0.5274260713146939 F F F Tl
   0.6461351244460759    0.5517265539285249    0.4778577097968251 F F F Tl
   0.8538648755539242    0.4482734460714752    0.5533922902031749 F F F Tl
   0.8538648755539242    0.0517265539285248    0.5038239286853061 F F F Tl
   0.6461351244460759    0.9482734460714752    0.5274260713146939 F F F Tl
   0.2211801027205880    0.7500000000000000    0.4495225128400735 F F F Pt
   0.2788198972794120    0.2500000000000000    0.4567274871599265 F F F Pt
   0.7211801027205881    0.7500000000000001    0.4495225128400735 F F F Pt
   0.7788198972794120    0.2500000000000001    0.4567274871599265 F F F Pt
   0.4348967807423065    0.7500000000000000    0.6637370975927883 T T T Sr
   0.0651032192576935    0.2500000000000000    0.6175129024072117 T T T Sr
   0.9348967807423066    0.7500000000000000    0.6637370975927883 T T T Sr
   0.5651032192576935    0.2500000000000001    0.6175129024072117 T T T Sr
   0.1461351244460758    0.5517265539285249    0.6028577097968251 T T T Tl
   0.3538648755539243    0.4482734460714751    0.6783922902031749 T T T Tl
   0.3538648755539243    0.0517265539285248    0.6288239286853061 T T T Tl
   0.1461351244460758    0.9482734460714750    0.6524260713146939 T T T Tl
   0.6461351244460759    0.5517265539285249    0.6028577097968251 T T T Tl
   0.8538648755539242    0.4482734460714752    0.6783922902031749 T T T Tl
   0.8538648755539242    0.0517265539285248    0.6288239286853061 T T T Tl
   0.6461351244460759    0.9482734460714752    0.6524260713146939 T T T Tl
   0.2211801027205880    0.7500000000000000    0.5745225128400735 F F F Pt
   0.2788198972794120    0.2500000000000000    0.5817274871599265 T T T Pt
   0.7211801027205881    0.7500000000000001    0.5745225128400735 F F F Pt
   0.7788198972794120    0.2500000000000001    0.5817274871599265 T T T Pt
