Zr10 Ni20 Sb10
1.0
   3.6639503471906214    0.0000000000000000   -6.3461481577437917
   0.0000000000000050    8.3265186041325236   -4.2307654384958582
   0.0000000000000000    0.0000000000000000   54.9999507004461776
Zr Ni Sb Zr Ni Sb Zr Ni Sb Zr Ni Sb Zr Ni Sb
2 4 2 2 4 2 2 4 2 2 4 2 2 4 2
Selective dynamics
direct
   0.6666666666666666    0.2499999999999999    0.3125000000000000 T T T Zr
   0.3333333333333334    0.7499999999999999    0.3509615384615385 T T T Zr
   0.6666666666666666    0.9034285699479591    0.3627637361498430 T T T Ni
   0.3333333333333333    0.4034285699479591    0.3243021976883046 T T T Ni
   0.6666666666666667    0.5965714300520407    0.3391593407732340 T T T Ni
   0.3333333333333334    0.0965714300520408    0.3776208792347724 T T T Ni
   0.0000000000000000    0.5000000000000000    0.3317307692307693 T T T Sb
   0.0000000000000000    0.0000000000000000    0.3701923076923077 T T T Sb
   0.6666666666666666    0.2499999999999999    0.3894230769230770 T T T Zr
   0.3333333333333334    0.7499999999999999    0.4278846153846154 F F F Zr
   0.6666666666666666    0.9034285699479591    0.4396868130729200 F F F Ni
   0.3333333333333333    0.4034285699479591    0.4012252746113815 T T T Ni
   0.6666666666666667    0.5965714300520407    0.4160824176963109 T T T Ni
   0.3333333333333334    0.0965714300520408    0.4545439561578494 F F F Ni
   0.0000000000000000    0.5000000000000000    0.4086538461538462 T T T Sb
   0.0000000000000000    0.0000000000000000    0.4471153846153846 F F F Sb
   0.6666666666666666    0.2499999999999999    0.4663461538461539 F F F Zr
   0.3333333333333334    0.7499999999999999    0.5048076923076923 F F F Zr
   0.6666666666666666    0.9034285699479591    0.5166098899959969 F F F Ni
   0.3333333333333333    0.4034285699479591    0.4781483515344584 F F F Ni
   0.6666666666666667    0.5965714300520407    0.4930054946193878 F F F Ni
   0.3333333333333334    0.0965714300520408    0.5314670330809262 F F F Ni
   0.0000000000000000    0.5000000000000000    0.4855769230769231 F F F Sb
   0.0000000000000000    0.0000000000000000    0.5240384615384616 F F F Sb
   0.6666666666666666    0.2499999999999999    0.5432692307692308 F F F Zr
   0.3333333333333334    0.7499999999999999    0.5817307692307693 T T T Zr
   0.6666666666666666    0.9034285699479591    0.5935329669190739 T T T Ni
   0.3333333333333333    0.4034285699479591    0.5550714284575353 F F F Ni
   0.6666666666666667    0.5965714300520407    0.5699285715424647 F F F Ni
   0.3333333333333334    0.0965714300520408    0.6083901100040032 T T T Ni
   0.0000000000000000    0.5000000000000000    0.5625000000000000 F F F Sb
   0.0000000000000000    0.0000000000000000    0.6009615384615385 T T T Sb
   0.6666666666666666    0.2499999999999999    0.6201923076923077 T T T Zr
   0.3333333333333334    0.7499999999999999    0.6586538461538463 T T T Zr
   0.6666666666666666    0.9034285699479591    0.6704560438421507 T T T Ni
   0.3333333333333333    0.4034285699479591    0.6319945053806123 T T T Ni
   0.6666666666666667    0.5965714300520407    0.6468516484655417 T T T Ni
   0.3333333333333334    0.0965714300520408    0.6853131869270801 T T T Ni
   0.0000000000000000    0.5000000000000000    0.6394230769230770 T T T Sb
   0.0000000000000000    0.0000000000000000    0.6778846153846154 T T T Sb
