Zr12 Ni24 Sb12
1.0
   3.6639503471906250    0.0000000000000000   -2.1153827192479291
  -0.0000000000000047   16.6530372082650473   -4.2307654384958591
   0.0000000000000000    0.0000000000000000   33.8461235079668796
Zr Ni Sb Zr Ni Sb Zr Ni Sb
4 8 4 4 8 4 4 8 4
Selective dynamics
direct
   0.6666666666666666    0.1250000000000000    0.3424479166666666 T T T Zr
   0.6666666666666666    0.6250000000000000    0.4049479166666666 T T T Zr
   0.3333333333333334    0.3749999999999999    0.4153645833333333 T T T Zr
   0.3333333333333334    0.8749999999999999    0.3528645833333333 T T T Zr
   0.6666666666666666    0.4517142849739796    0.3832872022884141 T T T Ni
   0.6666666666666666    0.9517142849739796    0.3207872022884141 T T T Ni
   0.3333333333333333    0.2017142849739795    0.3937038689550807 T T T Ni
   0.3333333333333333    0.7017142849739795    0.3312038689550807 T T T Ni
   0.6666666666666667    0.2982857150260204    0.3641086310449192 T T T Ni
   0.6666666666666667    0.7982857150260203    0.4266086310449192 F F F Ni
   0.3333333333333334    0.0482857150260204    0.3745252977115859 T T T Ni
   0.3333333333333334    0.5482857150260203    0.4370252977115858 F F F Ni
   0.0000000000000000    0.2500000000000000    0.3164062500000000 T T T Sb
   0.0000000000000000    0.7500000000000000    0.3789062500000000 T T T Sb
   0.0000000000000000    0.0000000000000000    0.4101562500000000 T T T Sb
   0.0000000000000000    0.5000000000000000    0.3476562500000000 T T T Sb
   0.6666666666666666    0.1250000000000000    0.4674479166666666 F F F Zr
   0.6666666666666666    0.6250000000000000    0.5299479166666666 F F F Zr
   0.3333333333333334    0.3749999999999999    0.5403645833333333 F F F Zr
   0.3333333333333334    0.8749999999999999    0.4778645833333333 F F F Zr
   0.6666666666666666    0.4517142849739796    0.5082872022884141 F F F Ni
   0.6666666666666666    0.9517142849739796    0.4457872022884141 F F F Ni
   0.3333333333333333    0.2017142849739795    0.5187038689550807 F F F Ni
   0.3333333333333333    0.7017142849739795    0.4562038689550807 F F F Ni
   0.6666666666666667    0.2982857150260204    0.4891086310449192 F F F Ni
   0.6666666666666667    0.7982857150260203    0.5516086310449192 F F F Ni
   0.3333333333333334    0.0482857150260204    0.4995252977115859 F F F Ni
   0.3333333333333334    0.5482857150260203    0.5620252977115858 F F F Ni
   0.0000000000000000    0.2500000000000000    0.4414062500000000 F F F Sb
   0.0000000000000000    0.7500000000000000    0.5039062500000000 F F F Sb
   0.0000000000000000    0.0000000000000000    0.5351562500000000 F F F Sb
   0.0000000000000000    0.5000000000000000    0.4726562500000000 F F F Sb
   0.6666666666666666    0.1250000000000000    0.5924479166666666 T T T Zr
   0.6666666666666666    0.6250000000000000    0.6549479166666666 T T T Zr
   0.3333333333333334    0.3749999999999999    0.6653645833333333 T T T Zr
   0.3333333333333334    0.8749999999999999    0.6028645833333333 T T T Zr
   0.6666666666666666    0.4517142849739796    0.6332872022884141 T T T Ni
   0.6666666666666666    0.9517142849739796    0.5707872022884141 F F F Ni
   0.3333333333333333    0.2017142849739795    0.6437038689550807 T T T Ni
   0.3333333333333333    0.7017142849739795    0.5812038689550807 F F F Ni
   0.6666666666666667    0.2982857150260204    0.6141086310449192 T T T Ni
   0.6666666666666667    0.7982857150260203    0.6766086310449192 T T T Ni
   0.3333333333333334    0.0482857150260204    0.6245252977115858 T T T Ni
   0.3333333333333334    0.5482857150260203    0.6870252977115858 T T T Ni
   0.0000000000000000    0.2500000000000000    0.5664062500000000 F F F Sb
   0.0000000000000000    0.7500000000000000    0.6289062500000000 T T T Sb
   0.0000000000000000    0.0000000000000000    0.6601562500000000 T T T Sb
   0.0000000000000000    0.5000000000000000    0.5976562500000000 T T T Sb
