Na16 Sb8 Au8
1.0
   9.3608674346307055    0.0000000000000000    0.0000000000000006
   0.0000000000000010    5.9307666039688609    0.0000000000000004
   0.0000000000000000    0.0000000000000000   30.3387987089177074
Na Sb Au Na Sb Au
8 4 4 8 4 4
Selective dynamics
direct
   0.6784242843545201    0.2500000000000000    0.2712286538638669 T T T Na
   0.3215757156454799    0.7500000000000000    0.3537713461361331 T T T Na
   0.3215757156454799    0.2500000000000000    0.2712286538638669 T T T Na
   0.6784242843545201    0.7500000000000000    0.3537713461361331 T T T Na
   0.1784242843545201    0.2500000000000000    0.3962286538638669 F F F Na
   0.8215757156454800    0.7500000000000000    0.4787713461361331 F F F Na
   0.8215757156454800    0.2500000000000000    0.3962286538638669 F F F Na
   0.1784242843545201    0.7500000000000000    0.4787713461361331 F F F Na
   0.0000000000000000    0.7500000000000000    0.3868217698810739 F F F Sb
   0.0000000000000000    0.2500000000000000    0.4881782301189261 F F F Sb
   0.5000000000000000    0.7500000000000000    0.2618217698810739 T T T Sb
   0.5000000000000000    0.2500000000000000    0.3631782301189261 F F F Sb
   0.0000000000000000    0.5000000000000000    0.3125000000000000 T T T Au
   0.0000000000000000    0.0000000000000000    0.3125000000000000 T T T Au
   0.5000000000000000    0.5000000000000000    0.4375000000000000 F F F Au
   0.5000000000000000    0.0000000000000000    0.4375000000000000 F F F Au
   0.6784242843545201    0.2500000000000000    0.5212286538638669 F F F Na
   0.3215757156454799    0.7500000000000000    0.6037713461361331 F F F Na
   0.3215757156454799    0.2500000000000000    0.5212286538638669 F F F Na
   0.6784242843545201    0.7500000000000000    0.6037713461361331 F F F Na
   0.1784242843545201    0.2500000000000000    0.6462286538638669 T T T Na
   0.8215757156454800    0.7500000000000000    0.7287713461361331 T T T Na
   0.8215757156454800    0.2500000000000000    0.6462286538638669 T T T Na
   0.1784242843545201    0.7500000000000000    0.7287713461361331 T T T Na
   0.0000000000000000    0.7500000000000000    0.6368217698810739 F F F Sb
   0.0000000000000000    0.2500000000000000    0.7381782301189261 T T T Sb
   0.5000000000000000    0.7500000000000000    0.5118217698810739 F F F Sb
   0.5000000000000000    0.2500000000000000    0.6131782301189261 F F F Sb
   0.0000000000000000    0.5000000000000000    0.5625000000000000 F F F Au
   0.0000000000000000    0.0000000000000000    0.5625000000000000 F F F Au
   0.5000000000000000    0.5000000000000000    0.6875000000000000 T T T Au
   0.5000000000000000    0.0000000000000000    0.6875000000000000 T T T Au
