Zr8 Ni24
1.0
   5.3166574595759801    0.0000000000000000    0.0000000000000003
   2.6583287297879892    4.6043604232128370    4.3110261416106788
   0.0000000000000000    0.0000000000000000   38.7992352744961124
Zr Ni Zr Ni Zr Ni Zr Ni
2 6 2 6 2 6 2 6
Selective dynamics
direct
   0.6666666666666666    0.6666666666666667    0.2870370370370370 T T T Zr
   0.3333333333333334    0.3333333333333333    0.3796296296296297 T T T Zr
   0.1560250716630555    0.6879498566738889    0.2846722381473457 T T T Ni
   0.3120501433261111    0.8439749283369444    0.3228916746292284 T T T Ni
   0.8439749283369444    0.3120501433261111    0.3819944285193210 T T T Ni
   0.6879498566738889    0.1560250716630556    0.3437749920374383 T T T Ni
   0.1560250716630555    0.1560250716630556    0.3437749920374383 T T T Ni
   0.8439749283369444    0.8439749283369444    0.3228916746292284 T T T Ni
   0.6666666666666666    0.6666666666666667    0.3981481481481481 F F F Zr
   0.3333333333333334    0.3333333333333333    0.4907407407407408 F F F Zr
   0.1560250716630555    0.6879498566738889    0.3957833492584568 F F F Ni
   0.3120501433261111    0.8439749283369444    0.4340027857403395 F F F Ni
   0.8439749283369444    0.3120501433261111    0.4931055396304321 F F F Ni
   0.6879498566738889    0.1560250716630556    0.4548861031485494 F F F Ni
   0.1560250716630555    0.1560250716630556    0.4548861031485494 F F F Ni
   0.8439749283369444    0.8439749283369444    0.4340027857403395 F F F Ni
   0.6666666666666666    0.6666666666666667    0.5092592592592593 F F F Zr
   0.3333333333333334    0.3333333333333333    0.6018518518518519 F F F Zr
   0.1560250716630555    0.6879498566738889    0.5068944603695679 F F F Ni
   0.3120501433261111    0.8439749283369444    0.5451138968514506 F F F Ni
   0.8439749283369444    0.3120501433261111    0.6042166507415432 F F F Ni
   0.6879498566738889    0.1560250716630556    0.5659972142596605 F F F Ni
   0.1560250716630555    0.1560250716630556    0.5659972142596605 F F F Ni
   0.8439749283369444    0.8439749283369444    0.5451138968514506 F F F Ni
   0.6666666666666666    0.6666666666666667    0.6203703703703703 T T T Zr
   0.3333333333333334    0.3333333333333333    0.7129629629629630 T T T Zr
   0.1560250716630555    0.6879498566738889    0.6180055714806790 T T T Ni
   0.3120501433261111    0.8439749283369444    0.6562250079625618 T T T Ni
   0.8439749283369444    0.3120501433261111    0.7153277618526543 T T T Ni
   0.6879498566738889    0.1560250716630556    0.6771083253707716 T T T Ni
   0.1560250716630555    0.1560250716630556    0.6771083253707716 T T T Ni
   0.8439749283369444    0.8439749283369444    0.6562250079625618 T T T Ni
