Ca24 As48 Ru48
1.0
   8.4176204775908001    0.0000000000000000   -4.2088102387954001
   0.0000000000000034   20.8751747170529072   -4.2088102387954009
   0.0000000000000000    0.0000000000000000   33.6704819103632076
Ca As Ru Ca As Ru Ca As Ru
8 16 16 8 16 16 8 16 16
Selective dynamics
direct
   0.5000000000000000    0.4999999999999999    0.4312500000000000 F F F Ca
   0.0000000000000000    0.0000000000000000    0.4312500000000000 F F F Ca
   0.0000000000000000    0.4999999999999999    0.3687500000000000 T T T Ca
   0.5000000000000000    0.0000000000000000    0.3687500000000000 T T T Ca
   0.7500000000000000    0.7499999999999999    0.4312500000000000 F F F Ca
   0.2500000000000000    0.2499999999999999    0.4312500000000000 F F F Ca
   0.2500000000000000    0.7499999999999999    0.3687500000000000 T T T Ca
   0.7500000000000000    0.2499999999999999    0.3687500000000000 T T T Ca
   0.5000000000000000    0.6833932316115811    0.3291741539514477 T T T As
   0.0000000000000000    0.1833932316115811    0.3291741539514477 T T T As
   0.0000000000000000    0.6833932316115811    0.3916741539514477 T T T As
   0.5000000000000000    0.1833932316115810    0.3916741539514477 T T T As
   0.7500000000000000    0.5666067683884188    0.4083258460485524 T T T As
   0.2500000000000000    0.0666067683884189    0.4083258460485524 T T T As
   0.2500000000000000    0.5666067683884188    0.3458258460485524 T T T As
   0.7500000000000000    0.0666067683884188    0.3458258460485524 T T T As
   0.7500000000000000    0.9333932316115811    0.3291741539514477 T T T As
   0.2500000000000000    0.4333932316115810    0.3291741539514477 T T T As
   0.2500000000000000    0.9333932316115811    0.3916741539514477 T T T As
   0.7500000000000000    0.4333932316115809    0.3916741539514476 T T T As
   0.5000000000000000    0.8166067683884189    0.3458258460485524 T T T As
   0.0000000000000000    0.3166067683884189    0.3458258460485524 T T T As
   0.0000000000000000    0.8166067683884189    0.4083258460485524 T T T As
   0.5000000000000000    0.3166067683884188    0.4083258460485524 T T T As
   0.5000000000000000    0.6250000000000000    0.3843750000000000 T T T Ru
   0.0000000000000000    0.1250000000000000    0.3843750000000000 T T T Ru
   0.0000000000000000    0.6250000000000000    0.3218750000000000 T T T Ru
   0.5000000000000000    0.1249999999999999    0.3218750000000000 T T T Ru
   0.7500000000000000    0.6250000000000000    0.3531250000000000 T T T Ru
   0.2500000000000000    0.1250000000000000    0.3531250000000000 T T T Ru
   0.2500000000000000    0.6250000000000000    0.4156250000000000 T T T Ru
   0.7500000000000000    0.1249999999999999    0.4156250000000000 T T T Ru
   0.7500000000000000    0.8749999999999999    0.3843750000000000 T T T Ru
   0.2500000000000000    0.3749999999999999    0.3843750000000000 T T T Ru
   0.2500000000000000    0.8749999999999999    0.3218750000000000 T T T Ru
   0.7500000000000000    0.3749999999999999    0.3218750000000000 T T T Ru
   0.5000000000000000    0.8749999999999999    0.4156250000000000 T T T Ru
   0.0000000000000000    0.3750000000000000    0.4156250000000000 T T T Ru
   0.0000000000000000    0.8749999999999999    0.3531250000000000 T T T Ru
   0.5000000000000000    0.3749999999999999    0.3531250000000000 T T T Ru
   0.5000000000000000    0.4999999999999999    0.5562500000000000 F F F Ca
   0.0000000000000000    0.0000000000000000    0.5562500000000000 F F F Ca
   0.0000000000000000    0.4999999999999999    0.4937500000000000 F F F Ca
   0.5000000000000000    0.0000000000000000    0.4937500000000000 F F F Ca
   0.7500000000000000    0.7499999999999999    0.5562500000000000 F F F Ca
   0.2500000000000000    0.2499999999999999    0.5562500000000000 F F F Ca
   0.2500000000000000    0.7499999999999999    0.4937500000000000 F F F Ca
   0.7500000000000000    0.2499999999999999    0.4937500000000000 F F F Ca
   0.5000000000000000    0.6833932316115811    0.4541741539514477 F F F As
   0.0000000000000000    0.1833932316115811    0.4541741539514477 F F F As
   0.0000000000000000    0.6833932316115811    0.5166741539514477 F F F As
   0.5000000000000000    0.1833932316115810    0.5166741539514477 F F F As
   0.7500000000000000    0.5666067683884188    0.5333258460485524 F F F As
   0.2500000000000000    0.0666067683884189    0.5333258460485524 F F F As
   0.2500000000000000    0.5666067683884188    0.4708258460485524 F F F As
   0.7500000000000000    0.0666067683884188    0.4708258460485524 F F F As
   0.7500000000000000    0.9333932316115811    0.4541741539514477 F F F As
   0.2500000000000000    0.4333932316115810    0.4541741539514477 F F F As
   0.2500000000000000    0.9333932316115811    0.5166741539514477 F F F As
   0.7500000000000000    0.4333932316115809    0.5166741539514477 F F F As
   0.5000000000000000    0.8166067683884189    0.4708258460485524 F F F As
   0.0000000000000000    0.3166067683884189    0.4708258460485524 F F F As
   0.0000000000000000    0.8166067683884189    0.5333258460485524 F F F As
   0.5000000000000000    0.3166067683884188    0.5333258460485524 F F F As
   0.5000000000000000    0.6250000000000000    0.5093750000000000 F F F Ru
   0.0000000000000000    0.1250000000000000    0.5093750000000000 F F F Ru
   0.0000000000000000    0.6250000000000000    0.4468750000000000 F F F Ru
   0.5000000000000000    0.1249999999999999    0.4468750000000000 F F F Ru
   0.7500000000000000    0.6250000000000000    0.4781250000000000 F F F Ru
   0.2500000000000000    0.1250000000000000    0.4781250000000000 F F F Ru
   0.2500000000000000    0.6250000000000000    0.5406250000000000 F F F Ru
   0.7500000000000000    0.1249999999999999    0.5406250000000000 F F F Ru
   0.7500000000000000    0.8749999999999999    0.5093750000000000 F F F Ru
   0.2500000000000000    0.3749999999999999    0.5093750000000000 F F F Ru
   0.2500000000000000    0.8749999999999999    0.4468750000000000 F F F Ru
   0.7500000000000000    0.3749999999999999    0.4468750000000000 F F F Ru
   0.5000000000000000    0.8749999999999999    0.5406250000000000 F F F Ru
   0.0000000000000000    0.3750000000000000    0.5406250000000000 F F F Ru
   0.0000000000000000    0.8749999999999999    0.4781250000000000 F F F Ru
   0.5000000000000000    0.3749999999999999    0.4781250000000000 F F F Ru
   0.5000000000000000    0.4999999999999999    0.6812500000000000 T T T Ca
   0.0000000000000000    0.0000000000000000    0.6812500000000000 T T T Ca
   0.0000000000000000    0.4999999999999999    0.6187500000000000 T T T Ca
   0.5000000000000000    0.0000000000000000    0.6187500000000000 T T T Ca
   0.7500000000000000    0.7499999999999999    0.6812500000000000 T T T Ca
   0.2500000000000000    0.2499999999999999    0.6812500000000000 T T T Ca
   0.2500000000000000    0.7499999999999999    0.6187500000000000 T T T Ca
   0.7500000000000000    0.2499999999999999    0.6187500000000000 T T T Ca
   0.5000000000000000    0.6833932316115811    0.5791741539514477 F F F As
   0.0000000000000000    0.1833932316115811    0.5791741539514477 F F F As
   0.0000000000000000    0.6833932316115811    0.6416741539514477 T T T As
   0.5000000000000000    0.1833932316115810    0.6416741539514477 T T T As
   0.7500000000000000    0.5666067683884188    0.6583258460485524 T T T As
   0.2500000000000000    0.0666067683884189    0.6583258460485524 T T T As
   0.2500000000000000    0.5666067683884188    0.5958258460485524 T T T As
   0.7500000000000000    0.0666067683884188    0.5958258460485524 T T T As
   0.7500000000000000    0.9333932316115811    0.5791741539514477 F F F As
   0.2500000000000000    0.4333932316115810    0.5791741539514477 F F F As
   0.2500000000000000    0.9333932316115811    0.6416741539514477 T T T As
   0.7500000000000000    0.4333932316115809    0.6416741539514477 T T T As
   0.5000000000000000    0.8166067683884189    0.5958258460485524 T T T As
   0.0000000000000000    0.3166067683884189    0.5958258460485524 T T T As
   0.0000000000000000    0.8166067683884189    0.6583258460485524 T T T As
   0.5000000000000000    0.3166067683884188    0.6583258460485524 T T T As
   0.5000000000000000    0.6250000000000000    0.6343750000000000 T T T Ru
   0.0000000000000000    0.1250000000000000    0.6343750000000000 T T T Ru
   0.0000000000000000    0.6250000000000000    0.5718750000000000 F F F Ru
   0.5000000000000000    0.1249999999999999    0.5718750000000000 F F F Ru
   0.7500000000000000    0.6250000000000000    0.6031250000000000 T T T Ru
   0.2500000000000000    0.1250000000000000    0.6031250000000000 T T T Ru
   0.2500000000000000    0.6250000000000000    0.6656250000000000 T T T Ru
   0.7500000000000000    0.1249999999999999    0.6656250000000000 T T T Ru
   0.7500000000000000    0.8749999999999999    0.6343750000000000 T T T Ru
   0.2500000000000000    0.3749999999999999    0.6343750000000000 T T T Ru
   0.2500000000000000    0.8749999999999999    0.5718750000000000 F F F Ru
   0.7500000000000000    0.3749999999999999    0.5718750000000000 F F F Ru
   0.5000000000000000    0.8749999999999999    0.6656250000000000 T T T Ru
   0.0000000000000000    0.3750000000000000    0.6656250000000000 T T T Ru
   0.0000000000000000    0.8749999999999999    0.6031250000000000 T T T Ru
   0.5000000000000000    0.3749999999999999    0.6031250000000000 T T T Ru
