Sc16 Fe8 Si16
1.0
   3.9855892354837934    0.0000000000000000    0.0000000000000002
  -0.0000000000000005    8.6799076828383015    4.6866866942878627
   0.0000000000000000    0.0000000000000000   37.6755839835395321
Sc Fe Si Sc Fe Si
8 4 8 8 4 8
Selective dynamics
direct
   0.5000000000000000    0.6853653491787597    0.3305237630228394 T T T Sc
   0.0000000000000000    0.9995560017914968    0.3071292469660708 T T T Sc
   0.5000000000000000    0.3146346508212402    0.3694762369771606 F F F Sc
   0.0000000000000000    0.0004439982085032    0.3928707530339292 F F F Sc
   0.0000000000000000    0.1853653491787598    0.4555237630228394 F F F Sc
   0.5000000000000000    0.4995560017914968    0.4321292469660708 F F F Sc
   0.0000000000000000    0.8146346508212403    0.4944762369771606 F F F Sc
   0.5000000000000000    0.5004439982085032    0.2678707530339292 T T T Sc
   0.0000000000000000    0.2705694506180265    0.3139189119132485 T T T Fe
   0.0000000000000000    0.7294305493819735    0.3860810880867515 F F F Fe
   0.5000000000000000    0.7705694506180265    0.4389189119132485 F F F Fe
   0.5000000000000000    0.2294305493819735    0.2610810880867515 T T T Fe
   0.5000000000000000    0.0064163632699064    0.4417748548065251 F F F Si
   0.5000000000000000    0.1466700377344381    0.3297341362632821 T T T Si
   0.5000000000000000    0.9935836367300936    0.2582251451934748 T T T Si
   0.5000000000000000    0.8533299622655619    0.3702658637367179 F F F Si
   0.0000000000000000    0.5064163632699064    0.3167748548065251 T T T Si
   0.0000000000000000    0.6466700377344381    0.4547341362632821 F F F Si
   0.0000000000000000    0.4935836367300936    0.3832251451934748 F F F Si
   0.0000000000000000    0.3533299622655619    0.4952658637367179 F F F Si
   0.5000000000000000    0.6853653491787597    0.5805237630228394 F F F Sc
   0.0000000000000000    0.9995560017914968    0.5571292469660708 F F F Sc
   0.5000000000000000    0.3146346508212402    0.6194762369771606 F F F Sc
   0.0000000000000000    0.0004439982085032    0.6428707530339292 F F F Sc
   0.0000000000000000    0.1853653491787598    0.7055237630228394 T T T Sc
   0.5000000000000000    0.4995560017914968    0.6821292469660708 T T T Sc
   0.0000000000000000    0.8146346508212403    0.7444762369771606 T T T Sc
   0.5000000000000000    0.5004439982085032    0.5178707530339292 F F F Sc
   0.0000000000000000    0.2705694506180265    0.5639189119132485 F F F Fe
   0.0000000000000000    0.7294305493819735    0.6360810880867515 F F F Fe
   0.5000000000000000    0.7705694506180265    0.6889189119132485 T T T Fe
   0.5000000000000000    0.2294305493819735    0.5110810880867515 F F F Fe
   0.5000000000000000    0.0064163632699064    0.6917748548065251 T T T Si
   0.5000000000000000    0.1466700377344381    0.5797341362632821 F F F Si
   0.5000000000000000    0.9935836367300936    0.5082251451934748 F F F Si
   0.5000000000000000    0.8533299622655619    0.6202658637367179 F F F Si
   0.0000000000000000    0.5064163632699064    0.5667748548065251 F F F Si
   0.0000000000000000    0.6466700377344381    0.7047341362632821 T T T Si
   0.0000000000000000    0.4935836367300936    0.6332251451934748 F F F Si
   0.0000000000000000    0.3533299622655619    0.7452658637367179 T T T Si
