Sc16 Al32 Ni16
1.0
   9.5488692122646874    0.0000000000000000   -4.0141796150271842
   0.0000000000000026    6.7000783658575891   -4.0141796150271816
   0.0000000000000000    0.0000000000000000   36.1276165352446554
Sc Al Ni Sc Al Ni Sc Al Ni Sc Al Ni
4 8 4 4 8 4 4 8 4 4 8 4
Selective dynamics
direct
   0.4334627353579357    0.7500000000000000    0.3537180817064373 T T T Sc
   0.0665372646420643    0.2500000000000000    0.3129485849602294 T T T Sc
   0.9334627353579357    0.7499999999999999    0.3537180817064373 T T T Sc
   0.5665372646420643    0.2499999999999999    0.3129485849602294 T T T Sc
   0.1465286563665981    0.9489227305489588    0.3439390429906174 T T T Al
   0.3534713436334019    0.0510772694510411    0.3227276236760492 T T T Al
   0.3534713436334019    0.4489227305489589    0.3669326749091512 T T T Al
   0.1465286563665981    0.5510772694510411    0.2997339917575155 T T T Al
   0.6465286563665981    0.9489227305489589    0.3439390429906175 T T T Al
   0.8534713436334019    0.0510772694510410    0.3227276236760492 T T T Al
   0.8534713436334019    0.4489227305489589    0.3669326749091512 T T T Al
   0.6465286563665981    0.5510772694510411    0.2997339917575155 T T T Al
   0.2109282103254198    0.7500000000000000    0.3845475789250467 T T T Ni
   0.2890717896745802    0.2500000000000000    0.2821190877416200 T T T Ni
   0.7109282103254196    0.7500000000000000    0.3845475789250467 T T T Ni
   0.7890717896745802    0.2500000000000000    0.2821190877416200 T T T Ni
   0.4334627353579357    0.7500000000000000    0.4648291928175484 F F F Sc
   0.0665372646420643    0.2500000000000000    0.4240596960713405 F F F Sc
   0.9334627353579357    0.7499999999999999    0.4648291928175484 F F F Sc
   0.5665372646420643    0.2499999999999999    0.4240596960713405 F F F Sc
   0.1465286563665981    0.9489227305489588    0.4550501541017286 F F F Al
   0.3534713436334019    0.0510772694510411    0.4338387347871603 F F F Al
   0.3534713436334019    0.4489227305489589    0.4780437860202623 F F F Al
   0.1465286563665981    0.5510772694510411    0.4108451028686266 F F F Al
   0.6465286563665981    0.9489227305489589    0.4550501541017286 F F F Al
   0.8534713436334019    0.0510772694510410    0.4338387347871603 F F F Al
   0.8534713436334019    0.4489227305489589    0.4780437860202623 F F F Al
   0.6465286563665981    0.5510772694510411    0.4108451028686266 F F F Al
   0.2109282103254198    0.7500000000000000    0.4956586900361578 F F F Ni
   0.2890717896745802    0.2500000000000000    0.3932301988527311 F F F Ni
   0.7109282103254196    0.7500000000000000    0.4956586900361578 F F F Ni
   0.7890717896745802    0.2500000000000000    0.3932301988527311 F F F Ni
   0.4334627353579357    0.7500000000000000    0.5759403039286595 F F F Sc
   0.0665372646420643    0.2500000000000000    0.5351708071824516 F F F Sc
   0.9334627353579357    0.7499999999999999    0.5759403039286595 F F F Sc
   0.5665372646420643    0.2499999999999999    0.5351708071824516 F F F Sc
   0.1465286563665981    0.9489227305489588    0.5661612652128396 F F F Al
   0.3534713436334019    0.0510772694510411    0.5449498458982714 F F F Al
   0.3534713436334019    0.4489227305489589    0.5891548971313734 F F F Al
   0.1465286563665981    0.5510772694510411    0.5219562139797377 F F F Al
   0.6465286563665981    0.9489227305489589    0.5661612652128397 F F F Al
   0.8534713436334019    0.0510772694510410    0.5449498458982714 F F F Al
   0.8534713436334019    0.4489227305489589    0.5891548971313734 F F F Al
   0.6465286563665981    0.5510772694510411    0.5219562139797377 F F F Al
   0.2109282103254198    0.7500000000000000    0.6067698011472689 F F F Ni
   0.2890717896745802    0.2500000000000000    0.5043413099638423 F F F Ni
   0.7109282103254196    0.7500000000000000    0.6067698011472689 F F F Ni
   0.7890717896745802    0.2500000000000000    0.5043413099638423 F F F Ni
   0.4334627353579357    0.7500000000000000    0.6870514150397706 T T T Sc
   0.0665372646420643    0.2500000000000000    0.6462819182935627 T T T Sc
   0.9334627353579357    0.7499999999999999    0.6870514150397706 T T T Sc
   0.5665372646420643    0.2499999999999999    0.6462819182935626 T T T Sc
   0.1465286563665981    0.9489227305489588    0.6772723763239508 T T T Al
   0.3534713436334019    0.0510772694510411    0.6560609570093825 T T T Al
   0.3534713436334019    0.4489227305489589    0.7002660082424845 T T T Al
   0.1465286563665981    0.5510772694510411    0.6330673250908487 T T T Al
   0.6465286563665981    0.9489227305489589    0.6772723763239508 T T T Al
   0.8534713436334019    0.0510772694510410    0.6560609570093825 T T T Al
   0.8534713436334019    0.4489227305489589    0.7002660082424845 T T T Al
   0.6465286563665981    0.5510772694510411    0.6330673250908487 T T T Al
   0.2109282103254198    0.7500000000000000    0.7178809122583800 T T T Ni
   0.2890717896745802    0.2500000000000000    0.6154524210749533 T T T Ni
   0.7109282103254196    0.7500000000000000    0.7178809122583800 T T T Ni
   0.7890717896745802    0.2500000000000000    0.6154524210749533 T T T Ni
