Li12 Fe12 As12
1.0
   3.6777755106063768    0.0000000000000000    0.0000000000000002
   0.0000000000000021   12.9452335461939008   -3.6777755106063776
   0.0000000000000000    0.0000000000000000   29.4222040848510140
Li Fe As Li Fe As Li Fe As
4 4 4 4 4 4 4 4 4
Selective dynamics
direct
   0.0000000000000000    0.4216287307404514    0.4277035913425564 T T T Li
   0.0000000000000000    0.9216287307404514    0.3652035913425564 T T T Li
   0.5000000000000000    0.0783712692595485    0.3222964086574436 T T T Li
   0.5000000000000000    0.5783712692595485    0.3847964086574436 T T T Li
   0.0000000000000000    0.2500000000000000    0.3437500000000000 T T T Fe
   0.0000000000000000    0.7500000000000000    0.4062500000000000 T T T Fe
   0.5000000000000000    0.2500000000000000    0.4062500000000000 T T T Fe
   0.5000000000000000    0.7500000000000000    0.3437500000000000 T T T Fe
   0.0000000000000000    0.1275210115430277    0.3909401264428785 T T T As
   0.0000000000000000    0.6275210115430276    0.3284401264428785 T T T As
   0.5000000000000000    0.3724789884569723    0.3590598735571215 T T T As
   0.5000000000000000    0.8724789884569724    0.4215598735571215 T T T As
   0.0000000000000000    0.4216287307404514    0.5527035913425564 F F F Li
   0.0000000000000000    0.9216287307404514    0.4902035913425564 F F F Li
   0.5000000000000000    0.0783712692595485    0.4472964086574436 F F F Li
   0.5000000000000000    0.5783712692595485    0.5097964086574436 F F F Li
   0.0000000000000000    0.2500000000000000    0.4687500000000000 F F F Fe
   0.0000000000000000    0.7500000000000000    0.5312500000000000 F F F Fe
   0.5000000000000000    0.2500000000000000    0.5312500000000000 F F F Fe
   0.5000000000000000    0.7500000000000000    0.4687500000000000 F F F Fe
   0.0000000000000000    0.1275210115430277    0.5159401264428785 F F F As
   0.0000000000000000    0.6275210115430276    0.4534401264428785 F F F As
   0.5000000000000000    0.3724789884569723    0.4840598735571215 F F F As
   0.5000000000000000    0.8724789884569724    0.5465598735571215 F F F As
   0.0000000000000000    0.4216287307404514    0.6777035913425564 T T T Li
   0.0000000000000000    0.9216287307404514    0.6152035913425564 T T T Li
   0.5000000000000000    0.0783712692595485    0.5722964086574436 T T T Li
   0.5000000000000000    0.5783712692595485    0.6347964086574436 T T T Li
   0.0000000000000000    0.2500000000000000    0.5937500000000000 T T T Fe
   0.0000000000000000    0.7500000000000000    0.6562500000000000 T T T Fe
   0.5000000000000000    0.2500000000000000    0.6562500000000000 T T T Fe
   0.5000000000000000    0.7500000000000000    0.5937500000000000 T T T Fe
   0.0000000000000000    0.1275210115430277    0.6409401264428785 T T T As
   0.0000000000000000    0.6275210115430276    0.5784401264428785 T T T As
   0.5000000000000000    0.3724789884569723    0.6090598735571215 T T T As
   0.5000000000000000    0.8724789884569724    0.6715598735571215 T T T As
