Li4 Fe4 As4
1.0
   3.6777755106063768    0.0000000000000000    0.0000000000000002
   0.0000000000000006    3.6777755106063768    0.0000000000000002
   0.0000000000000000    0.0000000000000000   32.3630838654847466
Li Fe As Li Fe As
2 2 2 2 2 2
Selective dynamics
direct
   0.5000000000000000    0.0000000000000000    0.4019848256295140 T T T Li
   0.0000000000000000    0.5000000000000000    0.4646818410371528 F F F Li
   0.0000000000000000    0.0000000000000000    0.3333333333333334 T T T Fe
   0.5000000000000000    0.5000000000000000    0.3333333333333334 T T T Fe
   0.5000000000000000    0.0000000000000000    0.4843417379505445 F F F As
   0.0000000000000000    0.5000000000000000    0.3823249287161223 T T T As
   0.5000000000000000    0.0000000000000000    0.6019848256295139 T T T Li
   0.0000000000000000    0.5000000000000000    0.6646818410371528 T T T Li
   0.0000000000000000    0.0000000000000000    0.5333333333333334 F F F Fe
   0.5000000000000000    0.5000000000000000    0.5333333333333334 F F F Fe
   0.5000000000000000    0.0000000000000000    0.6843417379505445 T T T As
   0.0000000000000000    0.5000000000000000    0.5823249287161223 F F F As
