Zr16 Ti16 As16
1.0
   3.7905505838620672    0.0000000000000000   -3.7905505838620663
   0.0000000000000024   14.8947662648324943   -7.5811011677241309
   0.0000000000000000    0.0000000000000000   37.9055058386206696
Zr Ti As Zr Ti As Zr Ti As Zr Ti As
4 4 4 4 4 4 4 4 4 4 4 4
Selective dynamics
direct
   0.5000000000000000    0.1790299867605115    0.3358059973521023 T T T Zr
   0.0000000000000000    0.3209700132394886    0.3641940026478977 T T T Zr
   0.0000000000000000    0.6790299867605114    0.3358059973521023 T T T Zr
   0.5000000000000000    0.8209700132394888    0.3641940026478978 T T T Zr
   0.5000000000000000    0.0000000000000000    0.3500000000000000 T T T Ti
   0.0000000000000000    0.0000000000000000    0.3500000000000000 T T T Ti
   0.0000000000000000    0.5000000000000000    0.3500000000000000 T T T Ti
   0.5000000000000000    0.5000000000000000    0.3500000000000000 T T T Ti
   0.0000000000000000    0.1293566439484693    0.3258713287896938 T T T As
   0.5000000000000000    0.3706433560515308    0.3741286712103062 T T T As
   0.5000000000000000    0.6293566439484694    0.3258713287896939 T T T As
   0.0000000000000000    0.8706433560515309    0.3741286712103062 T T T As
   0.5000000000000000    0.1790299867605115    0.4358059973521023 T T T Zr
   0.0000000000000000    0.3209700132394886    0.4641940026478977 F F F Zr
   0.0000000000000000    0.6790299867605114    0.4358059973521023 T T T Zr
   0.5000000000000000    0.8209700132394888    0.4641940026478978 F F F Zr
   0.5000000000000000    0.0000000000000000    0.4500000000000000 F F F Ti
   0.0000000000000000    0.0000000000000000    0.4500000000000000 F F F Ti
   0.0000000000000000    0.5000000000000000    0.4500000000000000 F F F Ti
   0.5000000000000000    0.5000000000000000    0.4500000000000000 F F F Ti
   0.0000000000000000    0.1293566439484693    0.4258713287896939 T T T As
   0.5000000000000000    0.3706433560515308    0.4741286712103062 F F F As
   0.5000000000000000    0.6293566439484694    0.4258713287896939 T T T As
   0.0000000000000000    0.8706433560515309    0.4741286712103062 F F F As
   0.5000000000000000    0.1790299867605115    0.5358059973521023 F F F Zr
   0.0000000000000000    0.3209700132394886    0.5641940026478978 T T T Zr
   0.0000000000000000    0.6790299867605114    0.5358059973521023 F F F Zr
   0.5000000000000000    0.8209700132394888    0.5641940026478978 T T T Zr
   0.5000000000000000    0.0000000000000000    0.5500000000000000 F F F Ti
   0.0000000000000000    0.0000000000000000    0.5500000000000000 F F F Ti
   0.0000000000000000    0.5000000000000000    0.5500000000000000 F F F Ti
   0.5000000000000000    0.5000000000000000    0.5500000000000000 F F F Ti
   0.0000000000000000    0.1293566439484693    0.5258713287896939 F F F As
   0.5000000000000000    0.3706433560515308    0.5741286712103062 T T T As
   0.5000000000000000    0.6293566439484694    0.5258713287896939 F F F As
   0.0000000000000000    0.8706433560515309    0.5741286712103062 T T T As
   0.5000000000000000    0.1790299867605115    0.6358059973521023 T T T Zr
   0.0000000000000000    0.3209700132394886    0.6641940026478977 T T T Zr
   0.0000000000000000    0.6790299867605114    0.6358059973521022 T T T Zr
   0.5000000000000000    0.8209700132394888    0.6641940026478977 T T T Zr
   0.5000000000000000    0.0000000000000000    0.6500000000000000 T T T Ti
   0.0000000000000000    0.0000000000000000    0.6499999999999999 T T T Ti
   0.0000000000000000    0.5000000000000000    0.6499999999999999 T T T Ti
   0.5000000000000000    0.5000000000000000    0.6500000000000000 T T T Ti
   0.0000000000000000    0.1293566439484693    0.6258713287896939 T T T As
   0.5000000000000000    0.3706433560515308    0.6741286712103062 T T T As
   0.5000000000000000    0.6293566439484694    0.6258713287896939 T T T As
   0.0000000000000000    0.8706433560515309    0.6741286712103062 T T T As
