Fe9 Ni3 As12
1.0
   3.4707156964069239    0.0000000000000000    0.0000000000000002
   0.0000000000000010    5.9249070467054423   -5.2984994365097799
   0.0000000000000000    0.0000000000000000   36.8603904107283000
Fe Ni As Fe Ni As Fe Ni As
3 1 4 3 1 4 3 1 4
Selective dynamics
direct
   0.5000000000000000    0.8003953557310343    0.3105552668916846 T T T Fe
   0.0000000000000000    0.2934719899087668    0.3095396276965928 T T T Fe
   0.0000000000000000    0.2014792140827240    0.3677360068863958 T T T Fe
   0.5000000000000000    0.6995061010571036    0.3679902257783786 T T T Ni
   0.5000000000000000    0.0929778892585773    0.3108605163576261 T T T As
   0.5000000000000000    0.4118818523285412    0.4261658733302184 F F F As
   0.0000000000000000    0.9195176667354590    0.3694156159490819 T T T As
   0.0000000000000000    0.5807699208978010    0.3948797242528788 T T T As
   0.5000000000000000    0.8003953557310343    0.4534124097488274 F F F Fe
   0.0000000000000000    0.2934719899087668    0.4523967705537356 F F F Fe
   0.0000000000000000    0.2014792140827240    0.5105931497435386 F F F Fe
   0.5000000000000000    0.6995061010571036    0.5108473686355215 F F F Ni
   0.5000000000000000    0.0929778892585773    0.4537176592147689 F F F As
   0.5000000000000000    0.4118818523285412    0.5690230161873612 F F F As
   0.0000000000000000    0.9195176667354590    0.5122727588062247 F F F As
   0.0000000000000000    0.5807699208978010    0.5377368671100216 F F F As
   0.5000000000000000    0.8003953557310343    0.5962695526059703 F F F Fe
   0.0000000000000000    0.2934719899087668    0.5952539134108785 F F F Fe
   0.0000000000000000    0.2014792140827240    0.6534502926006815 T T T Fe
   0.5000000000000000    0.6995061010571036    0.6537045114926643 T T T Ni
   0.5000000000000000    0.0929778892585773    0.5965748020719118 F F F As
   0.5000000000000000    0.4118818523285412    0.7118801590445041 T T T As
   0.0000000000000000    0.9195176667354590    0.6551299016633676 T T T As
   0.0000000000000000    0.5807699208978010    0.6805940099671645 T T T As
