Fe18 Ni6 As24
1.0
   5.2656897182046043    0.0000000000000000   -0.0290878400263148
  -0.0000000000000004    6.9414313928138478    5.9249974450857987
   0.0000000000000000    0.0000000000000000   41.4749821156005893
Fe Ni As Fe Ni As Fe Ni As
6 2 8 6 2 8 6 2 8
Selective dynamics
direct
   0.0015084887392401    0.2500000000000000    0.4213720918598524 F F F Fe
   0.0015084887392401    0.7500000000000001    0.3499435204312809 T T T Fe
   0.5016945972826150    0.0000000000000000    0.3866468584058906 T T T Fe
   0.5016945972826150    0.5000000000000000    0.3152182869773191 T T T Fe
   0.0023271671279513    0.0000000000000000    0.3997886835238967 F F F Fe
   0.0023271671279512    0.5000000000000000    0.3283601120953253 T T T Fe
   0.4985745218584511    0.2500000000000000    0.2929276996704139 T T T Ni
   0.4985745218584510    0.7500000000000001    0.3643562710989853 T T T Ni
   0.2919542760051924    0.2500000000000000    0.3795745870702034 T T T As
   0.2919542760051924    0.7500000000000001    0.3081460156416319 T T T As
   0.8037207402670106    0.2500000000000000    0.3340168780602085 T T T As
   0.8037207402670106    0.7500000000000001    0.4054454494887799 F F F As
   0.7086083563418839    0.0000000000000000    0.2972117617163631 T T T As
   0.7086083563418839    0.5000000000000000    0.3686403331449346 T T T As
   0.1916118523776473    0.0000000000000000    0.3456042968360286 T T T As
   0.1916118523776471    0.5000000000000000    0.4170328682646000 F F F As
   0.0015084887392401    0.2500000000000000    0.5642292347169953 F F F Fe
   0.0015084887392401    0.7500000000000001    0.4928006632884238 F F F Fe
   0.5016945972826150    0.0000000000000000    0.5295040012630334 F F F Fe
   0.5016945972826150    0.5000000000000000    0.4580754298344620 F F F Fe
   0.0023271671279513    0.0000000000000000    0.5426458263810395 F F F Fe
   0.0023271671279512    0.5000000000000000    0.4712172549524681 F F F Fe
   0.4985745218584511    0.2500000000000000    0.4357848425275567 F F F Ni
   0.4985745218584510    0.7500000000000001    0.5072134139561282 F F F Ni
   0.2919542760051924    0.2500000000000000    0.5224317299273462 F F F As
   0.2919542760051924    0.7500000000000001    0.4510031584987748 F F F As
   0.8037207402670106    0.2500000000000000    0.4768740209173514 F F F As
   0.8037207402670106    0.7500000000000001    0.5483025923459228 F F F As
   0.7086083563418839    0.0000000000000000    0.4400689045735060 F F F As
   0.7086083563418839    0.5000000000000000    0.5114974760020774 F F F As
   0.1916118523776473    0.0000000000000000    0.4884614396931714 F F F As
   0.1916118523776471    0.5000000000000000    0.5598900111217429 F F F As
   0.0015084887392401    0.2500000000000000    0.7070863775741381 T T T Fe
   0.0015084887392401    0.7500000000000001    0.6356578061455667 T T T Fe
   0.5016945972826150    0.0000000000000000    0.6723611441201762 T T T Fe
   0.5016945972826150    0.5000000000000000    0.6009325726916048 F F F Fe
   0.0023271671279513    0.0000000000000000    0.6855029692381824 T T T Fe
   0.0023271671279512    0.5000000000000000    0.6140743978096110 T T T Fe
   0.4985745218584511    0.2500000000000000    0.5786419853846996 F F F Ni
   0.4985745218584510    0.7500000000000001    0.6500705568132710 T T T Ni
   0.2919542760051924    0.2500000000000000    0.6652888727844890 T T T As
   0.2919542760051924    0.7500000000000001    0.5938603013559176 F F F As
   0.8037207402670106    0.2500000000000000    0.6197311637744942 T T T As
   0.8037207402670106    0.7500000000000001    0.6911597352030656 T T T As
   0.7086083563418839    0.0000000000000000    0.5829260474306488 F F F As
   0.7086083563418839    0.5000000000000000    0.6543546188592202 T T T As
   0.1916118523776473    0.0000000000000000    0.6313185825503143 T T T As
   0.1916118523776471    0.5000000000000000    0.7027471539788857 T T T As
