Cs32 Sb32 Pt16
1.0
  16.9377087871214158    0.0000000000000000    0.0000000000000010
   7.0568877074286833   13.7570110761178732    7.0837002528831432
   0.0000000000000000    0.0000000000000000   35.4185012644157240
Cs Sb Pt Cs Sb Pt
16 16 8 16 16 8
Selective dynamics
direct
   0.3974349295844632    0.3012825352077684    0.3397434929584462 T T T Cs
   0.3974349295844632    0.8012825352077684    0.4397434929584462 F F F Cs
   0.1025650704155368    0.1987174647922316    0.4602565070415536 F F F Cs
   0.1025650704155368    0.6987174647922316    0.3602565070415536 T T T Cs
   0.3020831216327728    0.0989584391836136    0.3802083121632772 T T T Cs
   0.3020831216327728    0.5989584391836136    0.4802083121632773 F F F Cs
   0.1979168783672272    0.4010415608163864    0.4197916878367227 F F F Cs
   0.1979168783672272    0.9010415608163864    0.3197916878367226 T T T Cs
   0.8974349295844634    0.8012825352077684    0.4397434929584463 F F F Cs
   0.8974349295844634    0.3012825352077684    0.3397434929584462 T T T Cs
   0.6025650704155369    0.1987174647922316    0.4602565070415536 F F F Cs
   0.6025650704155369    0.6987174647922316    0.3602565070415536 T T T Cs
   0.8020831216327730    0.0989584391836136    0.3802083121632772 T T T Cs
   0.8020831216327730    0.5989584391836136    0.4802083121632773 F F F Cs
   0.6979168783672272    0.9010415608163864    0.3197916878367227 T T T Cs
   0.6979168783672272    0.4010415608163864    0.4197916878367226 F F F Cs
   0.0960617653207443    0.0435614543880388    0.3912877091223922 T T T Sb
   0.0960617653207443    0.5435614543880387    0.4912877091223922 F F F Sb
   0.4039382346792557    0.1396232197087830    0.4720753560582434 F F F Sb
   0.4039382346792557    0.6396232197087830    0.3720753560582433 T T T Sb
   0.4039382346792557    0.9564385456119613    0.3087122908776077 T T T Sb
   0.4039382346792557    0.4564385456119613    0.4087122908776076 F F F Sb
   0.0960617653207443    0.3603767802912170    0.3279246439417565 T T T Sb
   0.0960617653207443    0.8603767802912170    0.4279246439417565 F F F Sb
   0.5960617653207444    0.0435614543880387    0.3912877091223922 T T T Sb
   0.5960617653207444    0.5435614543880387    0.4912877091223922 F F F Sb
   0.9039382346792558    0.6396232197087830    0.3720753560582433 T T T Sb
   0.9039382346792558    0.1396232197087830    0.4720753560582433 F F F Sb
   0.9039382346792558    0.9564385456119613    0.3087122908776077 T T T Sb
   0.9039382346792558    0.4564385456119613    0.4087122908776076 F F F Sb
   0.5960617653207444    0.8603767802912170    0.4279246439417566 F F F Sb
   0.5960617653207444    0.3603767802912170    0.3279246439417566 T T T Sb
   0.0000000000000000    0.5000000000000000    0.3499999999999999 T T T Pt
   0.0000000000000000    0.0000000000000000    0.4499999999999999 F F F Pt
   0.0000000000000000    0.5000000000000000    0.4499999999999999 F F F Pt
   0.0000000000000000    0.0000000000000000    0.3499999999999999 T T T Pt
   0.5000000000000000    0.0000000000000000    0.4500000000000000 F F F Pt
   0.5000000000000000    0.5000000000000000    0.3499999999999999 T T T Pt
   0.5000000000000000    0.0000000000000000    0.3500000000000000 T T T Pt
   0.5000000000000000    0.5000000000000000    0.4500000000000000 F F F Pt
   0.3974349295844632    0.3012825352077684    0.5397434929584463 F F F Cs
   0.3974349295844632    0.8012825352077684    0.6397434929584462 T T T Cs
   0.1025650704155368    0.1987174647922316    0.6602565070415536 T T T Cs
   0.1025650704155368    0.6987174647922316    0.5602565070415536 F F F Cs
   0.3020831216327728    0.0989584391836136    0.5802083121632773 F F F Cs
   0.3020831216327728    0.5989584391836136    0.6802083121632773 T T T Cs
   0.1979168783672272    0.4010415608163864    0.6197916878367227 T T T Cs
   0.1979168783672272    0.9010415608163864    0.5197916878367226 F F F Cs
   0.8974349295844634    0.8012825352077684    0.6397434929584462 T T T Cs
   0.8974349295844634    0.3012825352077684    0.5397434929584463 F F F Cs
   0.6025650704155369    0.1987174647922316    0.6602565070415536 T T T Cs
   0.6025650704155369    0.6987174647922316    0.5602565070415536 F F F Cs
   0.8020831216327730    0.0989584391836136    0.5802083121632773 F F F Cs
   0.8020831216327730    0.5989584391836136    0.6802083121632773 T T T Cs
   0.6979168783672272    0.9010415608163864    0.5197916878367227 F F F Cs
   0.6979168783672272    0.4010415608163864    0.6197916878367227 T T T Cs
   0.0960617653207443    0.0435614543880388    0.5912877091223923 F F F Sb
   0.0960617653207443    0.5435614543880387    0.6912877091223922 T T T Sb
   0.4039382346792557    0.1396232197087830    0.6720753560582433 T T T Sb
   0.4039382346792557    0.6396232197087830    0.5720753560582433 F F F Sb
   0.4039382346792557    0.9564385456119613    0.5087122908776077 F F F Sb
   0.4039382346792557    0.4564385456119613    0.6087122908776077 T T T Sb
   0.0960617653207443    0.3603767802912170    0.5279246439417565 F F F Sb
   0.0960617653207443    0.8603767802912170    0.6279246439417565 T T T Sb
   0.5960617653207444    0.0435614543880387    0.5912877091223923 F F F Sb
   0.5960617653207444    0.5435614543880387    0.6912877091223922 T T T Sb
   0.9039382346792558    0.6396232197087830    0.5720753560582433 F F F Sb
   0.9039382346792558    0.1396232197087830    0.6720753560582433 T T T Sb
   0.9039382346792558    0.9564385456119613    0.5087122908776076 F F F Sb
   0.9039382346792558    0.4564385456119613    0.6087122908776077 T T T Sb
   0.5960617653207444    0.8603767802912170    0.6279246439417565 T T T Sb
   0.5960617653207444    0.3603767802912170    0.5279246439417565 F F F Sb
   0.0000000000000000    0.5000000000000000    0.5499999999999999 F F F Pt
   0.0000000000000000    0.0000000000000000    0.6499999999999999 T T T Pt
   0.0000000000000000    0.5000000000000000    0.6499999999999999 T T T Pt
   0.0000000000000000    0.0000000000000000    0.5499999999999999 F F F Pt
   0.5000000000000000    0.0000000000000000    0.6499999999999999 T T T Pt
   0.5000000000000000    0.5000000000000000    0.5499999999999999 F F F Pt
   0.5000000000000000    0.0000000000000000    0.5500000000000000 F F F Pt
   0.5000000000000000    0.5000000000000000    0.6499999999999999 T T T Pt
