Cr24 Si24 Te72
1.0
   5.9231136181189887    0.0000000000000000   -3.4197112418617377
  -0.0000000000000027   44.7838752659238963   -6.8394224837234630
   0.0000000000000000    0.0000000000000000   34.1971124186173654
Cr Si Te Cr Si Te
12 12 36 12 12 36
Selective dynamics
direct
   0.6666666666666665    0.1664232334702547    0.3832846466940509 T T T Cr
   0.6666666666666665    0.6664232334702547    0.4832846466940509 F F F Cr
   0.6666666666666666    0.0002434331964119    0.3500486866392823 T T T Cr
   0.6666666666666666    0.5002434331964118    0.4500486866392823 F F F Cr
   0.0000000000000000    0.3330899001369214    0.3499513133607176 T T T Cr
   0.0000000000000000    0.8330899001369214    0.4499513133607176 F F F Cr
   0.0000000000000000    0.1669100998630786    0.3167153533059490 T T T Cr
   0.0000000000000000    0.6669100998630786    0.4167153533059491 F F F Cr
   0.3333333333333332    0.4997565668035880    0.3166179800273842 T T T Cr
   0.3333333333333332    0.9997565668035879    0.4166179800273842 F F F Cr
   0.3333333333333334    0.3335767665297452    0.4833820199726157 F F F Cr
   0.3333333333333334    0.8335767665297452    0.3833820199726157 T T T Cr
   0.0000000000000000    0.0255160578096607    0.4884365448952654 F F F Si
   0.0000000000000000    0.5255160578096607    0.3884365448952655 T T T Si
   0.3333333333333333    0.1411506088570059    0.4448967884380678 F F F Si
   0.3333333333333333    0.6411506088570058    0.3448967884380678 T T T Si
   0.3333333333333333    0.1921827244763274    0.4551032115619321 F F F Si
   0.3333333333333333    0.6921827244763273    0.3551032115619321 T T T Si
   0.6666666666666665    0.3078172755236726    0.4115634551047345 F F F Si
   0.6666666666666665    0.8078172755236726    0.3115634551047345 T T T Si
   0.6666666666666665    0.3588493911429940    0.4217698782285988 F F F Si
   0.6666666666666665    0.8588493911429941    0.3217698782285988 T T T Si
   0.0000000000000000    0.4744839421903392    0.3782301217714011 T T T Si
   0.0000000000000000    0.9744839421903391    0.4782301217714011 F F F Si
   0.6364073282674241    0.0384659705983274    0.4186349291763290 F F F Te
   0.6364073282674241    0.5384659705983275    0.3186349291763290 T T T Te
   0.0016346803492269    0.0384659705983275    0.3637450617995140 T T T Te
   0.0016346803492269    0.5384659705983275    0.4637450617995140 F F F Te
   0.3619579913833491    0.0384659705983274    0.4906995913831534 F F F Te
   0.3619579913833491    0.5384659705983275    0.3906995913831535 T T T Te
   0.9713753419499842    0.1282006960683391    0.4426337419501798 F F F Te
   0.9713753419499842    0.6282006960683391    0.3426337419501798 T T T Te
   0.3316986529841064    0.1282006960683391    0.3695882715338192 T T T Te
   0.3316986529841064    0.6282006960683391    0.4695882715338193 F F F Te
   0.6969260050659091    0.1282006960683392    0.3146984041570043 T T T Te
   0.6969260050659091    0.6282006960683392    0.4146984041570043 F F F Te
   0.9697406616007572    0.2051326372649941    0.3853015958429956 T T T Te
   0.9697406616007572    0.7051326372649941    0.4853015958429956 F F F Te
   0.3349680136825602    0.2051326372649941    0.3304117284661806 T T T Te
   0.3349680136825602    0.7051326372649941    0.4304117284661806 F F F Te
   0.6952913247166822    0.2051326372649941    0.4573662580498201 F F F Te
   0.6952913247166822    0.7051326372649941    0.3573662580498200 T T T Te
   0.3047086752833174    0.2948673627350057    0.4093004086168465 F F F Te
   0.3047086752833174    0.7948673627350057    0.3093004086168465 T T T Te
   0.6650319863174396    0.2948673627350057    0.3362549382004859 T T T Te
   0.6650319863174396    0.7948673627350057    0.4362549382004859 F F F Te
   0.0302593383992424    0.2948673627350057    0.4813650708236709 F F F Te
   0.0302593383992424    0.7948673627350057    0.3813650708236709 T T T Te
   0.3030739949340905    0.3717993039316607    0.3519682625096623 T T T Te
   0.3030739949340905    0.8717993039316607    0.4519682625096623 F F F Te
   0.6683013470158934    0.3717993039316607    0.4970783951328473 F F F Te
   0.6683013470158934    0.8717993039316607    0.3970783951328473 T T T Te
   0.0286246580500156    0.3717993039316607    0.4240329247164867 F F F Te
   0.0286246580500156    0.8717993039316607    0.3240329247164868 T T T Te
   0.6380420086166508    0.4615340294016725    0.3759670752835132 T T T Te
   0.6380420086166508    0.9615340294016724    0.4759670752835132 F F F Te
   0.9983653196507730    0.4615340294016725    0.3029216048671526 T T T Te
   0.9983653196507730    0.9615340294016724    0.4029216048671526 T T T Te
   0.3635926717325759    0.4615340294016725    0.4480317374903376 F F F Te
   0.3635926717325759    0.9615340294016724    0.3480317374903376 T T T Te
   0.6666666666666665    0.1664232334702547    0.5832846466940509 F F F Cr
   0.6666666666666665    0.6664232334702547    0.6832846466940510 T T T Cr
   0.6666666666666666    0.0002434331964119    0.5500486866392824 F F F Cr
   0.6666666666666666    0.5002434331964118    0.6500486866392824 T T T Cr
   0.0000000000000000    0.3330899001369214    0.5499513133607177 F F F Cr
   0.0000000000000000    0.8330899001369214    0.6499513133607177 T T T Cr
   0.0000000000000000    0.1669100998630786    0.5167153533059491 F F F Cr
   0.0000000000000000    0.6669100998630786    0.6167153533059491 T T T Cr
   0.3333333333333332    0.4997565668035880    0.5166179800273842 F F F Cr
   0.3333333333333332    0.9997565668035879    0.6166179800273842 T T T Cr
   0.3333333333333334    0.3335767665297452    0.6833820199726157 T T T Cr
   0.3333333333333334    0.8335767665297452    0.5833820199726156 F F F Cr
   0.0000000000000000    0.0255160578096607    0.6884365448952655 T T T Si
   0.0000000000000000    0.5255160578096607    0.5884365448952655 F F F Si
   0.3333333333333333    0.1411506088570059    0.6448967884380679 T T T Si
   0.3333333333333333    0.6411506088570058    0.5448967884380678 F F F Si
   0.3333333333333333    0.1921827244763274    0.6551032115619322 T T T Si
   0.3333333333333333    0.6921827244763273    0.5551032115619321 F F F Si
   0.6666666666666665    0.3078172755236726    0.6115634551047344 T T T Si
   0.6666666666666665    0.8078172755236726    0.5115634551047346 F F F Si
   0.6666666666666665    0.3588493911429940    0.6217698782285987 T T T Si
   0.6666666666666665    0.8588493911429941    0.5217698782285989 F F F Si
   0.0000000000000000    0.4744839421903392    0.5782301217714012 F F F Si
   0.0000000000000000    0.9744839421903391    0.6782301217714012 T T T Si
   0.6364073282674241    0.0384659705983274    0.6186349291763290 T T T Te
   0.6364073282674241    0.5384659705983275    0.5186349291763290 F F F Te
   0.0016346803492269    0.0384659705983275    0.5637450617995140 F F F Te
   0.0016346803492269    0.5384659705983275    0.6637450617995140 T T T Te
   0.3619579913833491    0.0384659705983274    0.6906995913831535 T T T Te
   0.3619579913833491    0.5384659705983275    0.5906995913831534 F F F Te
   0.9713753419499842    0.1282006960683391    0.6426337419501799 T T T Te
   0.9713753419499842    0.6282006960683391    0.5426337419501799 F F F Te
   0.3316986529841064    0.1282006960683391    0.5695882715338193 F F F Te
   0.3316986529841064    0.6282006960683391    0.6695882715338193 T T T Te
   0.6969260050659091    0.1282006960683392    0.5146984041570043 F F F Te
   0.6969260050659091    0.6282006960683392    0.6146984041570043 T T T Te
   0.9697406616007572    0.2051326372649941    0.5853015958429957 F F F Te
   0.9697406616007572    0.7051326372649941    0.6853015958429957 T T T Te
   0.3349680136825602    0.2051326372649941    0.5304117284661807 F F F Te
   0.3349680136825602    0.7051326372649941    0.6304117284661807 T T T Te
   0.6952913247166822    0.2051326372649941    0.6573662580498201 T T T Te
   0.6952913247166822    0.7051326372649941    0.5573662580498200 F F F Te
   0.3047086752833174    0.2948673627350057    0.6093004086168465 T T T Te
   0.3047086752833174    0.7948673627350057    0.5093004086168466 F F F Te
   0.6650319863174396    0.2948673627350057    0.5362549382004860 F F F Te
   0.6650319863174396    0.7948673627350057    0.6362549382004860 T T T Te
   0.0302593383992424    0.2948673627350057    0.6813650708236709 T T T Te
   0.0302593383992424    0.7948673627350057    0.5813650708236709 F F F Te
   0.3030739949340905    0.3717993039316607    0.5519682625096622 F F F Te
   0.3030739949340905    0.8717993039316607    0.6519682625096623 T T T Te
   0.6683013470158934    0.3717993039316607    0.6970783951328473 T T T Te
   0.6683013470158934    0.8717993039316607    0.5970783951328473 T T T Te
   0.0286246580500156    0.3717993039316607    0.6240329247164867 T T T Te
   0.0286246580500156    0.8717993039316607    0.5240329247164868 F F F Te
   0.6380420086166508    0.4615340294016725    0.5759670752835132 F F F Te
   0.6380420086166508    0.9615340294016724    0.6759670752835132 T T T Te
   0.9983653196507730    0.4615340294016725    0.5029216048671525 F F F Te
   0.9983653196507730    0.9615340294016724    0.6029216048671526 T T T Te
   0.3635926717325759    0.4615340294016725    0.6480317374903376 T T T Te
   0.3635926717325759    0.9615340294016724    0.5480317374903376 F F F Te
