Cr24 Si24 Te72
1.0
   5.9231136181189887    0.0000000000000000   -3.4197112418617377
  -0.0000000000000027   44.7838752659238963   -6.8394224837234630
   0.0000000000000000    0.0000000000000000   34.1971124186173654
Cr Si Te Cr Si Te
12 12 36 12 12 36
Selective dynamics
direct
   0.6666666666666665    0.1664232334702547    0.3932846466940509 T T T Cr
   0.6666666666666665    0.6664232334702547    0.4932846466940509 F F F Cr
   0.6666666666666666    0.0002434331964119    0.3600486866392824 T T T Cr
   0.6666666666666666    0.5002434331964118    0.4600486866392824 F F F Cr
   0.0000000000000000    0.3330899001369214    0.3599513133607176 T T T Cr
   0.0000000000000000    0.8330899001369214    0.4599513133607177 F F F Cr
   0.0000000000000000    0.1669100998630786    0.3267153533059491 T T T Cr
   0.0000000000000000    0.6669100998630786    0.4267153533059491 F F F Cr
   0.3333333333333332    0.4997565668035880    0.3266179800273842 T T T Cr
   0.3333333333333332    0.9997565668035879    0.4266179800273843 F F F Cr
   0.3333333333333334    0.3335767665297452    0.4933820199726157 F F F Cr
   0.3333333333333334    0.8335767665297452    0.3933820199726157 T T T Cr
   0.0000000000000000    0.0255160578096607    0.2984365448952655 T T T Si
   0.0000000000000000    0.5255160578096607    0.3984365448952655 T T T Si
   0.3333333333333333    0.1411506088570059    0.4548967884380679 F F F Si
   0.3333333333333333    0.6411506088570058    0.3548967884380678 T T T Si
   0.3333333333333333    0.1921827244763274    0.4651032115619321 F F F Si
   0.3333333333333333    0.6921827244763273    0.3651032115619322 T T T Si
   0.6666666666666665    0.3078172755236726    0.4215634551047345 F F F Si
   0.6666666666666665    0.8078172755236726    0.3215634551047345 T T T Si
   0.6666666666666665    0.3588493911429940    0.4317698782285988 F F F Si
   0.6666666666666665    0.8588493911429941    0.3317698782285988 T T T Si
   0.0000000000000000    0.4744839421903392    0.3882301217714012 T T T Si
   0.0000000000000000    0.9744839421903391    0.4882301217714012 F F F Si
   0.6364073282674241    0.0384659705983274    0.4286349291763291 F F F Te
   0.6364073282674241    0.5384659705983275    0.3286349291763290 T T T Te
   0.0016346803492269    0.0384659705983275    0.3737450617995141 T T T Te
   0.0016346803492269    0.5384659705983275    0.4737450617995140 F F F Te
   0.3619579913833491    0.0384659705983274    0.3006995913831535 T T T Te
   0.3619579913833491    0.5384659705983275    0.4006995913831535 F F F Te
   0.9713753419499842    0.1282006960683391    0.4526337419501799 F F F Te
   0.9713753419499842    0.6282006960683391    0.3526337419501798 T T T Te
   0.3316986529841064    0.1282006960683391    0.3795882715338193 T T T Te
   0.3316986529841064    0.6282006960683391    0.4795882715338193 F F F Te
   0.6969260050659091    0.1282006960683392    0.3246984041570043 T T T Te
   0.6969260050659091    0.6282006960683392    0.4246984041570043 F F F Te
   0.9697406616007572    0.2051326372649941    0.3953015958429957 T T T Te
   0.9697406616007572    0.7051326372649941    0.4953015958429957 F F F Te
   0.3349680136825602    0.2051326372649941    0.3404117284661807 T T T Te
   0.3349680136825602    0.7051326372649941    0.4404117284661807 F F F Te
   0.6952913247166822    0.2051326372649941    0.4673662580498201 F F F Te
   0.6952913247166822    0.7051326372649941    0.3673662580498201 T T T Te
   0.3047086752833174    0.2948673627350057    0.4193004086168465 F F F Te
   0.3047086752833174    0.7948673627350057    0.3193004086168466 T T T Te
   0.6650319863174396    0.2948673627350057    0.3462549382004859 T T T Te
   0.6650319863174396    0.7948673627350057    0.4462549382004860 F F F Te
   0.0302593383992424    0.2948673627350057    0.4913650708236710 F F F Te
   0.0302593383992424    0.7948673627350057    0.3913650708236709 T T T Te
   0.3030739949340905    0.3717993039316607    0.3619682625096624 T T T Te
   0.3030739949340905    0.8717993039316607    0.4619682625096623 F F F Te
   0.6683013470158934    0.3717993039316607    0.3070783951328473 T T T Te
   0.6683013470158934    0.8717993039316607    0.4070783951328473 F F F Te
   0.0286246580500156    0.3717993039316607    0.4340329247164868 F F F Te
   0.0286246580500156    0.8717993039316607    0.3340329247164868 T T T Te
   0.6380420086166508    0.4615340294016725    0.3859670752835132 T T T Te
   0.6380420086166508    0.9615340294016724    0.4859670752835132 F F F Te
   0.9983653196507730    0.4615340294016725    0.3129216048671526 T T T Te
   0.9983653196507730    0.9615340294016724    0.4129216048671526 F F F Te
   0.3635926717325759    0.4615340294016725    0.4580317374903377 F F F Te
   0.3635926717325759    0.9615340294016724    0.3580317374903376 T T T Te
   0.6666666666666665    0.1664232334702547    0.5932846466940509 T T T Cr
   0.6666666666666665    0.6664232334702547    0.6932846466940510 T T T Cr
   0.6666666666666666    0.0002434331964119    0.5600486866392824 F F F Cr
   0.6666666666666666    0.5002434331964118    0.6600486866392824 T T T Cr
   0.0000000000000000    0.3330899001369214    0.5599513133607177 F F F Cr
   0.0000000000000000    0.8330899001369214    0.6599513133607177 T T T Cr
   0.0000000000000000    0.1669100998630786    0.5267153533059491 F F F Cr
   0.0000000000000000    0.6669100998630786    0.6267153533059491 T T T Cr
   0.3333333333333332    0.4997565668035880    0.5266179800273842 F F F Cr
   0.3333333333333332    0.9997565668035879    0.6266179800273842 T T T Cr
   0.3333333333333334    0.3335767665297452    0.6933820199726157 T T T Cr
   0.3333333333333334    0.8335767665297452    0.5933820199726156 T T T Cr
   0.0000000000000000    0.0255160578096607    0.4984365448952655 F F F Si
   0.0000000000000000    0.5255160578096607    0.5984365448952655 T T T Si
   0.3333333333333333    0.1411506088570059    0.6548967884380679 T T T Si
   0.3333333333333333    0.6411506088570058    0.5548967884380678 F F F Si
   0.3333333333333333    0.1921827244763274    0.6651032115619322 T T T Si
   0.3333333333333333    0.6921827244763273    0.5651032115619321 F F F Si
   0.6666666666666665    0.3078172755236726    0.6215634551047345 T T T Si
   0.6666666666666665    0.8078172755236726    0.5215634551047346 F F F Si
   0.6666666666666665    0.3588493911429940    0.6317698782285989 T T T Si
   0.6666666666666665    0.8588493911429941    0.5317698782285989 F F F Si
   0.0000000000000000    0.4744839421903392    0.5882301217714012 F F F Si
   0.0000000000000000    0.9744839421903391    0.6882301217714012 T T T Si
   0.6364073282674241    0.0384659705983274    0.6286349291763290 T T T Te
   0.6364073282674241    0.5384659705983275    0.5286349291763290 F F F Te
   0.0016346803492269    0.0384659705983275    0.5737450617995140 F F F Te
   0.0016346803492269    0.5384659705983275    0.6737450617995140 T T T Te
   0.3619579913833491    0.0384659705983274    0.5006995913831535 F F F Te
   0.3619579913833491    0.5384659705983275    0.6006995913831534 T T T Te
   0.9713753419499842    0.1282006960683391    0.6526337419501799 T T T Te
   0.9713753419499842    0.6282006960683391    0.5526337419501799 F F F Te
   0.3316986529841064    0.1282006960683391    0.5795882715338193 F F F Te
   0.3316986529841064    0.6282006960683391    0.6795882715338193 T T T Te
   0.6969260050659091    0.1282006960683392    0.5246984041570043 F F F Te
   0.6969260050659091    0.6282006960683392    0.6246984041570043 T T T Te
   0.9697406616007572    0.2051326372649941    0.5953015958429957 T T T Te
   0.9697406616007572    0.7051326372649941    0.6953015958429957 T T T Te
   0.3349680136825602    0.2051326372649941    0.5404117284661807 F F F Te
   0.3349680136825602    0.7051326372649941    0.6404117284661807 T T T Te
   0.6952913247166822    0.2051326372649941    0.6673662580498201 T T T Te
   0.6952913247166822    0.7051326372649941    0.5673662580498201 F F F Te
   0.3047086752833174    0.2948673627350057    0.6193004086168465 T T T Te
   0.3047086752833174    0.7948673627350057    0.5193004086168466 F F F Te
   0.6650319863174396    0.2948673627350057    0.5462549382004860 F F F Te
   0.6650319863174396    0.7948673627350057    0.6462549382004860 T T T Te
   0.0302593383992424    0.2948673627350057    0.6913650708236709 T T T Te
   0.0302593383992424    0.7948673627350057    0.5913650708236710 F F F Te
   0.3030739949340905    0.3717993039316607    0.5619682625096624 F F F Te
   0.3030739949340905    0.8717993039316607    0.6619682625096623 T T T Te
   0.6683013470158934    0.3717993039316607    0.5070783951328474 F F F Te
   0.6683013470158934    0.8717993039316607    0.6070783951328473 T T T Te
   0.0286246580500156    0.3717993039316607    0.6340329247164868 T T T Te
   0.0286246580500156    0.8717993039316607    0.5340329247164868 F F F Te
   0.6380420086166508    0.4615340294016725    0.5859670752835132 F F F Te
   0.6380420086166508    0.9615340294016724    0.6859670752835132 T T T Te
   0.9983653196507730    0.4615340294016725    0.5129216048671525 F F F Te
   0.9983653196507730    0.9615340294016724    0.6129216048671526 T T T Te
   0.3635926717325759    0.4615340294016725    0.6580317374903376 T T T Te
   0.3635926717325759    0.9615340294016724    0.5580317374903376 F F F Te
