Ca12 Cd6 Pd12
1.0
   4.5216113388586390    0.0000000000000000    0.0000000000000003
   0.0000000000000014    8.6679015266710699   -5.9406436426676654
   0.0000000000000000    0.0000000000000000   41.5845054986736642
Ca Cd Pd Ca Cd Pd Ca Cd Pd
4 2 4 4 2 4 4 2 4
Selective dynamics
direct
   0.0000000000000000    0.7982184021627319    0.3140312003089617 T T T Ca
   0.0000000000000000    0.2017815978372681    0.3716830854053240 T T T Ca
   0.5000000000000000    0.2982184021627320    0.3140312003089617 T T T Ca
   0.5000000000000000    0.7017815978372681    0.3716830854053240 T T T Ca
   0.0000000000000000    0.0000000000000000    0.4142857142857143 F F F Cd
   0.5000000000000000    0.5000000000000000    0.4142857142857143 F F F Cd
   0.4999999999999999    0.0000000000000000    0.3102301739052517 T T T Pd
   0.5000000000000000    0.0000000000000000    0.3754841118090340 T T T Pd
   0.0000000000000000    0.5000000000000000    0.3102301739052517 T T T Pd
   0.0000000000000000    0.5000000000000000    0.3754841118090340 T T T Pd
   0.0000000000000000    0.7982184021627319    0.4568883431661045 F F F Ca
   0.0000000000000000    0.2017815978372681    0.5145402282624669 F F F Ca
   0.5000000000000000    0.2982184021627320    0.4568883431661045 F F F Ca
   0.5000000000000000    0.7017815978372681    0.5145402282624669 F F F Ca
   0.0000000000000000    0.0000000000000000    0.5571428571428572 F F F Cd
   0.5000000000000000    0.5000000000000000    0.5571428571428572 F F F Cd
   0.4999999999999999    0.0000000000000000    0.4530873167623946 F F F Pd
   0.5000000000000000    0.0000000000000000    0.5183412546661769 F F F Pd
   0.0000000000000000    0.5000000000000000    0.4530873167623946 F F F Pd
   0.0000000000000000    0.5000000000000000    0.5183412546661769 F F F Pd
   0.0000000000000000    0.7982184021627319    0.5997454860232474 F F F Ca
   0.0000000000000000    0.2017815978372681    0.6573973711196097 T T T Ca
   0.5000000000000000    0.2982184021627320    0.5997454860232474 F F F Ca
   0.5000000000000000    0.7017815978372681    0.6573973711196097 T T T Ca
   0.0000000000000000    0.0000000000000000    0.7000000000000000 T T T Cd
   0.5000000000000000    0.5000000000000000    0.7000000000000000 T T T Cd
   0.4999999999999999    0.0000000000000000    0.5959444596195373 F F F Pd
   0.5000000000000000    0.0000000000000000    0.6611983975233197 T T T Pd
   0.0000000000000000    0.5000000000000000    0.5959444596195373 F F F Pd
   0.0000000000000000    0.5000000000000000    0.6611983975233197 T T T Pd
