Ca16 Cd8 Pd16
1.0
   7.4656691588137472    0.0000000000000000    0.0000000000000005
   5.4770627159544771    7.1959474987163032    8.6679015266710699
   0.0000000000000000    0.0000000000000000   43.3395076333553533
Ca Cd Pd Ca Cd Pd
8 4 8 8 4 8
Selective dynamics
direct
   0.5000000000000000    0.2499999999999999    0.4803563195674536 F F F Ca
   0.5000000000000000    0.7500000000000000    0.3803563195674536 T T T Ca
   0.5000000000000000    0.2499999999999999    0.3996436804325464 T T T Ca
   0.5000000000000000    0.7500000000000000    0.2996436804325464 T T T Ca
   0.0000000000000000    0.2500000000000000    0.3803563195674535 T T T Ca
   0.0000000000000000    0.7500000000000000    0.4803563195674536 F F F Ca
   0.0000000000000000    0.2500000000000000    0.2996436804325464 T T T Ca
   0.0000000000000000    0.7500000000000000    0.3996436804325464 T T T Ca
   0.0000000000000000    0.5000000000000000    0.3900000000000000 T T T Cd
   0.0000000000000000    0.0000000000000000    0.4900000000000000 F F F Cd
   0.5000000000000000    0.0000000000000000    0.3900000000000000 T T T Cd
   0.5000000000000000    0.5000000000000000    0.4900000000000000 F F F Cd
   0.7283887826632380    0.8858056086683810    0.3128388782663238 T T T Pd
   0.7283887826632380    0.3858056086683810    0.4128388782663238 F F F Pd
   0.2716112173367620    0.1141943913316190    0.4671611217336762 F F F Pd
   0.2716112173367620    0.6141943913316190    0.3671611217336762 T T T Pd
   0.2283887826632381    0.3858056086683810    0.3128388782663238 T T T Pd
   0.2283887826632381    0.8858056086683810    0.4128388782663238 F F F Pd
   0.7716112173367620    0.1141943913316190    0.3671611217336762 T T T Pd
   0.7716112173367620    0.6141943913316190    0.4671611217336762 F F F Pd
   0.5000000000000000    0.2499999999999999    0.6803563195674536 T T T Ca
   0.5000000000000000    0.7500000000000000    0.5803563195674536 F F F Ca
   0.5000000000000000    0.2499999999999999    0.5996436804325465 T T T Ca
   0.5000000000000000    0.7500000000000000    0.4996436804325464 F F F Ca
   0.0000000000000000    0.2500000000000000    0.5803563195674535 F F F Ca
   0.0000000000000000    0.7500000000000000    0.6803563195674536 T T T Ca
   0.0000000000000000    0.2500000000000000    0.4996436804325464 F F F Ca
   0.0000000000000000    0.7500000000000000    0.5996436804325465 T T T Ca
   0.0000000000000000    0.5000000000000000    0.5900000000000000 T T T Cd
   0.0000000000000000    0.0000000000000000    0.6899999999999999 T T T Cd
   0.5000000000000000    0.0000000000000000    0.5900000000000001 T T T Cd
   0.5000000000000000    0.5000000000000000    0.6899999999999999 T T T Cd
   0.7283887826632380    0.8858056086683810    0.5128388782663238 F F F Pd
   0.7283887826632380    0.3858056086683810    0.6128388782663239 T T T Pd
   0.2716112173367620    0.1141943913316190    0.6671611217336761 T T T Pd
   0.2716112173367620    0.6141943913316190    0.5671611217336763 F F F Pd
   0.2283887826632381    0.3858056086683810    0.5128388782663238 F F F Pd
   0.2283887826632381    0.8858056086683810    0.6128388782663239 T T T Pd
   0.7716112173367620    0.1141943913316190    0.5671611217336763 F F F Pd
   0.7716112173367620    0.6141943913316190    0.6671611217336761 T T T Pd
