Li12 Si24 Rh24
1.0
   9.9371654291065177    0.0000000000000000    0.0000000000000006
   4.9685827145532588    4.9685827145532597    5.5214581502263753
   0.0000000000000000    0.0000000000000000   41.4109361266978198
Li Si Rh Li Si Rh Li Si Rh Li Si Rh Li Si Rh Li Si Rh
2 4 4 2 4 4 2 4 4 2 4 4 2 4 4 2 4 4
Selective dynamics
direct
   0.0000000000000000    0.0000000000000000    0.3533333333333333 T T T Li
   0.5000000000000000    0.0000000000000000    0.3533333333333333 T T T Li
   0.1451498639273225    0.2097002721453549    0.3253732970472860 T T T Si
   0.3548501360726775    0.5000000000000000    0.3533333333333333 T T T Si
   0.6451498639273225    0.4999999999999998    0.3533333333333334 T T T Si
   0.8548501360726776    0.7902997278546451    0.3146267029527139 T T T Si
   0.1501004309926088    0.5000000000000000    0.3200000000000000 T T T Rh
   0.3498995690073913    0.8002008619852177    0.3466398850686376 T T T Rh
   0.6501004309926088    0.1997991380147824    0.2933601149313623 T T T Rh
   0.8498995690073912    0.5000000000000000    0.3200000000000000 T T T Rh
   0.0000000000000000    0.0000000000000000    0.4199999999999999 F F F Li
   0.5000000000000000    0.0000000000000000    0.4199999999999999 F F F Li
   0.1451498639273225    0.2097002721453549    0.3920399637139527 T T T Si
   0.3548501360726775    0.5000000000000000    0.4199999999999999 F F F Si
   0.6451498639273225    0.4999999999999998    0.4200000000000000 F F F Si
   0.8548501360726776    0.7902997278546451    0.3812933696193807 T T T Si
   0.1501004309926088    0.5000000000000000    0.3866666666666666 T T T Rh
   0.3498995690073913    0.8002008619852177    0.4133065517353043 F F F Rh
   0.6501004309926088    0.1997991380147824    0.3600267815980290 T T T Rh
   0.8498995690073912    0.5000000000000000    0.3866666666666667 T T T Rh
   0.0000000000000000    0.0000000000000000    0.4866666666666666 F F F Li
   0.5000000000000000    0.0000000000000000    0.4866666666666666 F F F Li
   0.1451498639273225    0.2097002721453549    0.4587066303806193 F F F Si
   0.3548501360726775    0.5000000000000000    0.4866666666666666 F F F Si
   0.6451498639273225    0.4999999999999998    0.4866666666666667 F F F Si
   0.8548501360726776    0.7902997278546451    0.4479600362860473 F F F Si
   0.1501004309926088    0.5000000000000000    0.4533333333333333 F F F Rh
   0.3498995690073913    0.8002008619852177    0.4799732184019709 F F F Rh
   0.6501004309926088    0.1997991380147824    0.4266934482646957 F F F Rh
   0.8498995690073912    0.5000000000000000    0.4533333333333333 F F F Rh
   0.0000000000000000    0.0000000000000000    0.5533333333333332 F F F Li
   0.5000000000000000    0.0000000000000000    0.5533333333333332 F F F Li
   0.1451498639273225    0.2097002721453549    0.5253732970472860 F F F Si
   0.3548501360726775    0.5000000000000000    0.5533333333333332 F F F Si
   0.6451498639273225    0.4999999999999998    0.5533333333333335 F F F Si
   0.8548501360726776    0.7902997278546451    0.5146267029527140 F F F Si
   0.1501004309926088    0.5000000000000000    0.5200000000000000 F F F Rh
   0.3498995690073913    0.8002008619852177    0.5466398850686376 F F F Rh
   0.6501004309926088    0.1997991380147824    0.4933601149313623 F F F Rh
   0.8498995690073912    0.5000000000000000    0.5200000000000000 F F F Rh
   0.0000000000000000    0.0000000000000000    0.6199999999999999 T T T Li
   0.5000000000000000    0.0000000000000000    0.6199999999999999 T T T Li
   0.1451498639273225    0.2097002721453549    0.5920399637139526 T T T Si
   0.3548501360726775    0.5000000000000000    0.6199999999999999 T T T Si
   0.6451498639273225    0.4999999999999998    0.6200000000000001 T T T Si
   0.8548501360726776    0.7902997278546451    0.5812933696193806 T T T Si
   0.1501004309926088    0.5000000000000000    0.5866666666666667 T T T Rh
   0.3498995690073913    0.8002008619852177    0.6133065517353042 T T T Rh
   0.6501004309926088    0.1997991380147824    0.5600267815980290 F F F Rh
   0.8498995690073912    0.5000000000000000    0.5866666666666667 T T T Rh
   0.0000000000000000    0.0000000000000000    0.6866666666666665 T T T Li
   0.5000000000000000    0.0000000000000000    0.6866666666666665 T T T Li
   0.1451498639273225    0.2097002721453549    0.6587066303806193 T T T Si
   0.3548501360726775    0.5000000000000000    0.6866666666666665 T T T Si
   0.6451498639273225    0.4999999999999998    0.6866666666666668 T T T Si
   0.8548501360726776    0.7902997278546451    0.6479600362860473 T T T Si
   0.1501004309926088    0.5000000000000000    0.6533333333333333 T T T Rh
   0.3498995690073913    0.8002008619852177    0.6799732184019709 T T T Rh
   0.6501004309926088    0.1997991380147824    0.6266934482646956 T T T Rh
   0.8498995690073912    0.5000000000000000    0.6533333333333333 T T T Rh
