Hf48 Co8 Sb16
1.0
  20.4925977286794669    0.0000000000000000    0.0000000000000013
   5.8550279224798496    5.0706029207347747    3.5694853879844373
   0.0000000000000000    0.0000000000000000   35.6948538798443806
Hf Co Sb Hf Co Sb Hf Co Sb Hf Co Sb
12 2 4 12 2 4 12 2 4 12 2 4
Selective dynamics
direct
   0.5000000000000000    0.2607726923483967    0.2989227307651603 T T T Hf
   0.0000000000000000    0.7607726923483967    0.3489227307651603 T T T Hf
   0.6196136538258017    0.3803863461741983    0.3869613653825802 T T T Hf
   0.1196136538258017    0.8803863461741983    0.3369613653825802 T T T Hf
   0.8803863461741984    0.3588409614774049    0.3891159038522595 T T T Hf
   0.3803863461741985    0.8588409614774049    0.3391159038522595 T T T Hf
   0.5000000000000000    0.8967274138997537    0.3853272586100246 T T T Hf
   0.0000000000000001    0.3967274138997539    0.3353272586100247 T T T Hf
   0.8016362930501232    0.1983637069498769    0.3551636293050123 T T T Hf
   0.3016362930501231    0.6983637069498769    0.3051636293050123 T T T Hf
   0.6983637069498770    0.9049088791503692    0.3845091120849631 T T T Hf
   0.1983637069498770    0.4049088791503692    0.3345091120849631 T T T Hf
   0.5000000000000000    0.5000000000000000    0.3250000000000000 T T T Co
   0.0000000000000000    0.0000000000000000    0.3750000000000000 T T T Co
   0.8333333333333334    0.8333333333333334    0.3416666666666667 T T T Sb
   0.3333333333333334    0.3333333333333334    0.3916666666666667 T T T Sb
   0.6666666666666667    0.6666666666666666    0.3583333333333334 T T T Sb
   0.1666666666666667    0.1666666666666666    0.3083333333333333 T T T Sb
   0.5000000000000000    0.2607726923483967    0.3989227307651604 T T T Hf
   0.0000000000000000    0.7607726923483967    0.4489227307651604 F F F Hf
   0.6196136538258017    0.3803863461741983    0.4869613653825802 F F F Hf
   0.1196136538258017    0.8803863461741983    0.4369613653825802 F F F Hf
   0.8803863461741984    0.3588409614774049    0.4891159038522596 F F F Hf
   0.3803863461741985    0.8588409614774049    0.4391159038522596 F F F Hf
   0.5000000000000000    0.8967274138997537    0.4853272586100247 F F F Hf
   0.0000000000000001    0.3967274138997539    0.4353272586100246 F F F Hf
   0.8016362930501232    0.1983637069498769    0.4551636293050124 F F F Hf
   0.3016362930501231    0.6983637069498769    0.4051636293050124 F F F Hf
   0.6983637069498770    0.9049088791503692    0.4845091120849631 F F F Hf
   0.1983637069498770    0.4049088791503692    0.4345091120849631 F F F Hf
   0.5000000000000000    0.5000000000000000    0.4250000000000000 F F F Co
   0.0000000000000000    0.0000000000000000    0.4750000000000000 F F F Co
   0.8333333333333334    0.8333333333333334    0.4416666666666667 F F F Sb
   0.3333333333333334    0.3333333333333334    0.4916666666666667 F F F Sb
   0.6666666666666667    0.6666666666666666    0.4583333333333334 F F F Sb
   0.1666666666666667    0.1666666666666666    0.4083333333333334 F F F Sb
   0.5000000000000000    0.2607726923483967    0.4989227307651604 F F F Hf
   0.0000000000000000    0.7607726923483967    0.5489227307651603 F F F Hf
   0.6196136538258017    0.3803863461741983    0.5869613653825803 F F F Hf
   0.1196136538258017    0.8803863461741983    0.5369613653825802 F F F Hf
   0.8803863461741984    0.3588409614774049    0.5891159038522595 T T T Hf
   0.3803863461741985    0.8588409614774049    0.5391159038522595 F F F Hf
   0.5000000000000000    0.8967274138997537    0.5853272586100247 F F F Hf
   0.0000000000000001    0.3967274138997539    0.5353272586100246 F F F Hf
   0.8016362930501232    0.1983637069498769    0.5551636293050124 F F F Hf
   0.3016362930501231    0.6983637069498769    0.5051636293050124 F F F Hf
   0.6983637069498770    0.9049088791503692    0.5845091120849631 F F F Hf
   0.1983637069498770    0.4049088791503692    0.5345091120849631 F F F Hf
   0.5000000000000000    0.5000000000000000    0.5250000000000000 F F F Co
   0.0000000000000000    0.0000000000000000    0.5750000000000001 F F F Co
   0.8333333333333334    0.8333333333333334    0.5416666666666667 F F F Sb
   0.3333333333333334    0.3333333333333334    0.5916666666666667 T T T Sb
   0.6666666666666667    0.6666666666666666    0.5583333333333333 F F F Sb
   0.1666666666666667    0.1666666666666666    0.5083333333333333 F F F Sb
   0.5000000000000000    0.2607726923483967    0.5989227307651603 T T T Hf
   0.0000000000000000    0.7607726923483967    0.6489227307651604 T T T Hf
   0.6196136538258017    0.3803863461741983    0.6869613653825801 T T T Hf
   0.1196136538258017    0.8803863461741983    0.6369613653825802 T T T Hf
   0.8803863461741984    0.3588409614774049    0.6891159038522595 T T T Hf
   0.3803863461741985    0.8588409614774049    0.6391159038522596 T T T Hf
   0.5000000000000000    0.8967274138997537    0.6853272586100246 T T T Hf
   0.0000000000000001    0.3967274138997539    0.6353272586100247 T T T Hf
   0.8016362930501232    0.1983637069498769    0.6551636293050123 T T T Hf
   0.3016362930501231    0.6983637069498769    0.6051636293050123 T T T Hf
   0.6983637069498770    0.9049088791503692    0.6845091120849631 T T T Hf
   0.1983637069498770    0.4049088791503692    0.6345091120849631 T T T Hf
   0.5000000000000000    0.5000000000000000    0.6250000000000000 T T T Co
   0.0000000000000000    0.0000000000000000    0.6750000000000000 T T T Co
   0.8333333333333334    0.8333333333333334    0.6416666666666667 T T T Sb
   0.3333333333333334    0.3333333333333334    0.6916666666666667 T T T Sb
   0.6666666666666667    0.6666666666666666    0.6583333333333333 T T T Sb
   0.1666666666666667    0.1666666666666666    0.6083333333333334 T T T Sb
