Sc18 Fe18 Ge18
1.0
   3.9629247015980069    0.0000000000000000    0.0000000000000002
   0.0000000000000018   11.2406323035566320  -12.9795641726400515
   0.0000000000000000    0.0000000000000000   45.4284746042401721
Sc Fe Ge Sc Fe Ge Sc Fe Ge
6 6 6 6 6 6 6 6 6
Selective dynamics
direct
   0.5000000000000000    0.5000000000000000    0.3419808080957451 T T T Sc
   0.5000000000000000    0.0000000000000000    0.4134093795243166 F F F Sc
   0.5000000000000000    0.2891782827760033    0.3342510100786045 T T T Sc
   0.5000000000000000    0.7891782827760032    0.4056795815071760 F F F Sc
   0.5000000000000000    0.2108217172239968    0.3832919913494598 F F F Sc
   0.5000000000000000    0.7108217172239968    0.3118634199208884 T T T Sc
   0.0000000000000000    0.5000000000000000    0.3922104162867940 F F F Fe
   0.0000000000000000    0.0000000000000000    0.3207818448582225 T T T Fe
   0.0000000000000000    0.1133746541073322    0.4017637406491741 F F F Fe
   0.0000000000000000    0.6133746541073322    0.3303351692206026 T T T Fe
   0.0000000000000000    0.3866253458926678    0.4084067954449843 F F F Fe
   0.0000000000000000    0.8866253458926678    0.3369782240164129 T T T Fe
   0.5000000000000000    0.5000000000000000    0.2817460317460317 T T T Ge
   0.5000000000000000    0.0000000000000000    0.3531746031746031 T T T Ge
   0.0000000000000000    0.1666666666666667    0.3293650793650794 T T T Ge
   0.0000000000000000    0.6666666666666667    0.4007936507936508 F F F Ge
   0.0000000000000000    0.3333333333333334    0.3055555555555555 T T T Ge
   0.0000000000000000    0.8333333333333335    0.3769841269841270 T T T Ge
   0.5000000000000000    0.5000000000000000    0.4848379509528880 F F F Sc
   0.5000000000000000    0.0000000000000000    0.5562665223814593 F F F Sc
   0.5000000000000000    0.2891782827760033    0.4771081529357474 F F F Sc
   0.5000000000000000    0.7891782827760032    0.5485367243643188 F F F Sc
   0.5000000000000000    0.2108217172239968    0.5261491342066027 F F F Sc
   0.5000000000000000    0.7108217172239968    0.4547205627780312 F F F Sc
   0.0000000000000000    0.5000000000000000    0.5350675591439369 F F F Fe
   0.0000000000000000    0.0000000000000000    0.4636389877153654 F F F Fe
   0.0000000000000000    0.1133746541073322    0.5446208835063169 F F F Fe
   0.0000000000000000    0.6133746541073322    0.4731923120777455 F F F Fe
   0.0000000000000000    0.3866253458926678    0.5512639383021272 F F F Fe
   0.0000000000000000    0.8866253458926678    0.4798353668735557 F F F Fe
   0.5000000000000000    0.5000000000000000    0.4246031746031745 F F F Ge
   0.5000000000000000    0.0000000000000000    0.4960317460317460 F F F Ge
   0.0000000000000000    0.1666666666666667    0.4722222222222222 F F F Ge
   0.0000000000000000    0.6666666666666667    0.5436507936507937 F F F Ge
   0.0000000000000000    0.3333333333333334    0.4484126984126984 F F F Ge
   0.0000000000000000    0.8333333333333335    0.5198412698412698 F F F Ge
   0.5000000000000000    0.5000000000000000    0.6276950938100307 T T T Sc
   0.5000000000000000    0.0000000000000000    0.6991236652386023 T T T Sc
   0.5000000000000000    0.2891782827760033    0.6199652957928903 T T T Sc
   0.5000000000000000    0.7891782827760032    0.6913938672214617 T T T Sc
   0.5000000000000000    0.2108217172239968    0.6690062770637455 T T T Sc
   0.5000000000000000    0.7108217172239968    0.5975777056351741 F F F Sc
   0.0000000000000000    0.5000000000000000    0.6779247020010797 T T T Fe
   0.0000000000000000    0.0000000000000000    0.6064961305725083 T T T Fe
   0.0000000000000000    0.1133746541073322    0.6874780263634598 T T T Fe
   0.0000000000000000    0.6133746541073322    0.6160494549348883 T T T Fe
   0.0000000000000000    0.3866253458926678    0.6941210811592700 T T T Fe
   0.0000000000000000    0.8866253458926678    0.6226925097306986 T T T Fe
   0.5000000000000000    0.5000000000000000    0.5674603174603174 F F F Ge
   0.5000000000000000    0.0000000000000000    0.6388888888888888 T T T Ge
   0.0000000000000000    0.1666666666666667    0.6150793650793651 T T T Ge
   0.0000000000000000    0.6666666666666667    0.6865079365079365 T T T Ge
   0.0000000000000000    0.3333333333333334    0.5912698412698412 F F F Ge
   0.0000000000000000    0.8333333333333335    0.6626984126984127 T T T Ge
