Sc6 Fe6 Ge6
1.0
   5.6203161517783169    0.0000000000000000   -3.2448910431600111
   0.0000000000000006    3.9629247015980069    0.0000000000000002
   0.0000000000000000    0.0000000000000000   32.4489104316001260
Sc Fe Ge Sc Fe Ge
3 3 3 3 3 3
Selective dynamics
direct
   0.0000000000000000    0.5000000000000000    0.3156713131104013 T T T Sc
   0.4216434344479936    0.5000000000000000    0.4843286868895987 F F F Sc
   0.5783565655520064    0.5000000000000000    0.4000000000000000 T T T Sc
   0.0000000000000000    0.0000000000000000    0.4453498616429329 F F F Fe
   0.7732506917853358    0.0000000000000000    0.3546501383570672 T T T Fe
   0.2267493082146643    0.0000000000000000    0.4000000000000000 T T T Fe
   0.0000000000000000    0.5000000000000000    0.4000000000000000 T T T Ge
   0.6666666666666666    0.0000000000000000    0.4666666666666667 F F F Ge
   0.3333333333333333    0.0000000000000000    0.3333333333333333 T T T Ge
   0.0000000000000000    0.5000000000000000    0.5156713131104013 F F F Sc
   0.4216434344479936    0.5000000000000000    0.6843286868895988 T T T Sc
   0.5783565655520064    0.5000000000000000    0.6000000000000001 T T T Sc
   0.0000000000000000    0.0000000000000000    0.6453498616429330 T T T Fe
   0.7732506917853358    0.0000000000000000    0.5546501383570672 F F F Fe
   0.2267493082146643    0.0000000000000000    0.6000000000000001 T T T Fe
   0.0000000000000000    0.5000000000000000    0.6000000000000001 T T T Ge
   0.6666666666666666    0.0000000000000000    0.6666666666666667 T T T Ge
   0.3333333333333333    0.0000000000000000    0.5333333333333333 F F F Ge
