Sc18 Fe18 Ge18
1.0
   6.4897820863200248    0.0000000000000000    0.0000000000000004
   6.4897820863200222   11.2406323035566338    3.9629247015980082
   0.0000000000000000    0.0000000000000000   31.7033976127840553
Sc Fe Ge Sc Fe Ge Sc Fe Ge
6 6 6 6 6 6 6 6 6
Selective dynamics
direct
   0.0000000000000000    0.2108217172239968    0.3243417297914449 T T T Sc
   0.0000000000000000    0.7108217172239968    0.3868417297914449 T T T Sc
   0.4216434344479935    0.2891782827760032    0.3145471590974441 T T T Sc
   0.4216434344479936    0.7891782827760032    0.3770471590974441 T T T Sc
   0.5783565655520063    0.4999999999999999    0.4131944444444445 T T T Sc
   0.5783565655520064    0.0000000000000000    0.3506944444444445 T T T Sc
   0.0000000000000000    0.3866253458926679    0.3648662762078610 T T T Fe
   0.0000000000000000    0.8866253458926678    0.4273662762078611 F F F Fe
   0.7732506917853357    0.1133746541073321    0.3990226126810280 T T T Fe
   0.7732506917853358    0.6133746541073322    0.3365226126810280 T T T Fe
   0.2267493082146642    0.5000000000000000    0.3506944444444445 T T T Fe
   0.2267493082146643    0.0000000000000000    0.4131944444444445 T T T Fe
   0.0000000000000000    0.5000000000000000    0.4131944444444445 T T T Ge
   0.0000000000000000    0.0000000000000000    0.3506944444444445 T T T Ge
   0.6666666666666666    0.3333333333333334    0.3715277777777778 T T T Ge
   0.6666666666666666    0.8333333333333334    0.4340277777777778 F F F Ge
   0.3333333333333333    0.1666666666666667    0.3923611111111112 T T T Ge
   0.3333333333333333    0.6666666666666667    0.3298611111111112 T T T Ge
   0.0000000000000000    0.2108217172239968    0.4493417297914449 F F F Sc
   0.0000000000000000    0.7108217172239968    0.5118417297914449 F F F Sc
   0.4216434344479935    0.2891782827760032    0.4395471590974441 F F F Sc
   0.4216434344479936    0.7891782827760032    0.5020471590974441 F F F Sc
   0.5783565655520063    0.4999999999999999    0.5381944444444445 F F F Sc
   0.5783565655520064    0.0000000000000000    0.4756944444444445 F F F Sc
   0.0000000000000000    0.3866253458926679    0.4898662762078611 F F F Fe
   0.0000000000000000    0.8866253458926678    0.5523662762078611 F F F Fe
   0.7732506917853357    0.1133746541073321    0.5240226126810280 F F F Fe
   0.7732506917853358    0.6133746541073322    0.4615226126810280 F F F Fe
   0.2267493082146642    0.5000000000000000    0.4756944444444445 F F F Fe
   0.2267493082146643    0.0000000000000000    0.5381944444444445 F F F Fe
   0.0000000000000000    0.5000000000000000    0.5381944444444445 F F F Ge
   0.0000000000000000    0.0000000000000000    0.4756944444444445 F F F Ge
   0.6666666666666666    0.3333333333333334    0.4965277777777778 F F F Ge
   0.6666666666666666    0.8333333333333334    0.5590277777777779 F F F Ge
   0.3333333333333333    0.1666666666666667    0.5173611111111112 F F F Ge
   0.3333333333333333    0.6666666666666667    0.4548611111111112 F F F Ge
   0.0000000000000000    0.2108217172239968    0.5743417297914448 F F F Sc
   0.0000000000000000    0.7108217172239968    0.6368417297914449 T T T Sc
   0.4216434344479935    0.2891782827760032    0.5645471590974440 F F F Sc
   0.4216434344479936    0.7891782827760032    0.6270471590974441 T T T Sc
   0.5783565655520063    0.4999999999999999    0.6631944444444445 T T T Sc
   0.5783565655520064    0.0000000000000000    0.6006944444444445 T T T Sc
   0.0000000000000000    0.3866253458926679    0.6148662762078609 T T T Fe
   0.0000000000000000    0.8866253458926678    0.6773662762078611 T T T Fe
   0.7732506917853357    0.1133746541073321    0.6490226126810280 T T T Fe
   0.7732506917853358    0.6133746541073322    0.5865226126810280 T T T Fe
   0.2267493082146642    0.5000000000000000    0.6006944444444445 T T T Fe
   0.2267493082146643    0.0000000000000000    0.6631944444444445 T T T Fe
   0.0000000000000000    0.5000000000000000    0.6631944444444445 T T T Ge
   0.0000000000000000    0.0000000000000000    0.6006944444444445 T T T Ge
   0.6666666666666666    0.3333333333333334    0.6215277777777779 T T T Ge
   0.6666666666666666    0.8333333333333334    0.6840277777777779 T T T Ge
   0.3333333333333333    0.1666666666666667    0.6423611111111112 T T T Ge
   0.3333333333333333    0.6666666666666667    0.5798611111111112 F F F Ge
