Y48 Mg24 Al24
1.0
   7.3616208100876834    0.0000000000000000   -7.3616208100876817
   0.0000000000000024   14.7232416201753669   -7.3616208100876834
   0.0000000000000000    0.0000000000000000   51.5313456706137814
Y Mg Al Y Mg Al Y Mg Al
16 8 8 16 8 8 16 8 8
Selective dynamics
direct
   0.7500000000000001    0.3750000000000001    0.3303571428571428 T T T Y
   0.7500000000000001    0.8750000000000002    0.4017857142857143 F F F Y
   0.2500000000000000    0.3750000000000001    0.4017857142857143 F F F Y
   0.2500000000000000    0.8750000000000001    0.3303571428571428 T T T Y
   0.2500000000000000    0.1250000000000001    0.3660714285714285 T T T Y
   0.2500000000000000    0.6250000000000000    0.2946428571428572 T T T Y
   0.7500000000000001    0.1250000000000001    0.2946428571428572 T T T Y
   0.7500000000000001    0.6250000000000001    0.3660714285714285 T T T Y
   0.7500000000000001    0.1250000000000001    0.3660714285714286 T T T Y
   0.7500000000000001    0.6250000000000001    0.2946428571428572 T T T Y
   0.2500000000000000    0.1250000000000001    0.2946428571428572 T T T Y
   0.2500000000000000    0.6250000000000001    0.3660714285714285 T T T Y
   0.2500000000000000    0.3750000000000001    0.3303571428571428 T T T Y
   0.2500000000000000    0.8750000000000002    0.4017857142857143 F F F Y
   0.7500000000000001    0.3750000000000002    0.4017857142857143 F F F Y
   0.7500000000000001    0.8750000000000002    0.3303571428571429 T T T Y
   0.0000000000000000    0.0000000000000000    0.3482142857142857 T T T Mg
   0.0000000000000000    0.5000000000000001    0.4196428571428571 F F F Mg
   0.5000000000000000    0.2500000000000001    0.3125000000000000 T T T Mg
   0.5000000000000000    0.7500000000000001    0.3839285714285714 F F F Mg
   0.0000000000000000    0.2500000000000000    0.3125000000000000 T T T Mg
   0.0000000000000000    0.7500000000000001    0.3839285714285714 F F F Mg
   0.5000000000000000    0.0000000000000000    0.3482142857142857 T T T Mg
   0.5000000000000000    0.5000000000000001    0.4196428571428571 F F F Mg
   0.0000000000000000    0.0000000000000000    0.4196428571428571 F F F Al
   0.0000000000000000    0.5000000000000000    0.3482142857142857 T T T Al
   0.5000000000000000    0.2500000000000001    0.3839285714285714 F F F Al
   0.5000000000000000    0.7500000000000001    0.3125000000000000 T T T Al
   0.0000000000000000    0.2500000000000001    0.3839285714285714 F F F Al
   0.0000000000000000    0.7500000000000001    0.3125000000000000 T T T Al
   0.5000000000000000    0.0000000000000001    0.4196428571428571 F F F Al
   0.5000000000000000    0.5000000000000001    0.3482142857142857 T T T Al
   0.7500000000000001    0.3750000000000001    0.4732142857142857 F F F Y
   0.7500000000000001    0.8750000000000002    0.5446428571428572 F F F Y
   0.2500000000000000    0.3750000000000001    0.5446428571428571 F F F Y
   0.2500000000000000    0.8750000000000001    0.4732142857142857 F F F Y
   0.2500000000000000    0.1250000000000001    0.5089285714285714 F F F Y
   0.2500000000000000    0.6250000000000000    0.4375000000000000 F F F Y
   0.7500000000000001    0.1250000000000001    0.4375000000000000 F F F Y
   0.7500000000000001    0.6250000000000001    0.5089285714285714 F F F Y
   0.7500000000000001    0.1250000000000001    0.5089285714285714 F F F Y
   0.7500000000000001    0.6250000000000001    0.4375000000000000 F F F Y
   0.2500000000000000    0.1250000000000001    0.4375000000000000 F F F Y
   0.2500000000000000    0.6250000000000001    0.5089285714285714 F F F Y
   0.2500000000000000    0.3750000000000001    0.4732142857142857 F F F Y
   0.2500000000000000    0.8750000000000002    0.5446428571428572 F F F Y
   0.7500000000000001    0.3750000000000002    0.5446428571428572 F F F Y
   0.7500000000000001    0.8750000000000002    0.4732142857142858 F F F Y
   0.0000000000000000    0.0000000000000000    0.4910714285714285 F F F Mg
   0.0000000000000000    0.5000000000000001    0.5625000000000000 F F F Mg
   0.5000000000000000    0.2500000000000001    0.4553571428571428 F F F Mg
   0.5000000000000000    0.7500000000000001    0.5267857142857142 F F F Mg
   0.0000000000000000    0.2500000000000000    0.4553571428571428 F F F Mg
   0.0000000000000000    0.7500000000000001    0.5267857142857143 F F F Mg
   0.5000000000000000    0.0000000000000000    0.4910714285714285 F F F Mg
   0.5000000000000000    0.5000000000000001    0.5625000000000000 F F F Mg
   0.0000000000000000    0.0000000000000000    0.5625000000000000 F F F Al
   0.0000000000000000    0.5000000000000000    0.4910714285714285 F F F Al
   0.5000000000000000    0.2500000000000001    0.5267857142857142 F F F Al
   0.5000000000000000    0.7500000000000001    0.4553571428571428 F F F Al
   0.0000000000000000    0.2500000000000001    0.5267857142857142 F F F Al
   0.0000000000000000    0.7500000000000001    0.4553571428571428 F F F Al
   0.5000000000000000    0.0000000000000001    0.5625000000000000 F F F Al
   0.5000000000000000    0.5000000000000001    0.4910714285714285 F F F Al
   0.7500000000000001    0.3750000000000001    0.6160714285714286 F F F Y
   0.7500000000000001    0.8750000000000002    0.6875000000000000 T T T Y
   0.2500000000000000    0.3750000000000001    0.6875000000000000 T T T Y
   0.2500000000000000    0.8750000000000001    0.6160714285714286 F F F Y
   0.2500000000000000    0.1250000000000001    0.6517857142857142 T T T Y
   0.2500000000000000    0.6250000000000000    0.5803571428571428 F F F Y
   0.7500000000000001    0.1250000000000001    0.5803571428571428 F F F Y
   0.7500000000000001    0.6250000000000001    0.6517857142857142 T T T Y
   0.7500000000000001    0.1250000000000001    0.6517857142857143 T T T Y
   0.7500000000000001    0.6250000000000001    0.5803571428571429 F F F Y
   0.2500000000000000    0.1250000000000001    0.5803571428571428 F F F Y
   0.2500000000000000    0.6250000000000001    0.6517857142857142 T T T Y
   0.2500000000000000    0.3750000000000001    0.6160714285714286 F F F Y
   0.2500000000000000    0.8750000000000002    0.6875000000000000 T T T Y
   0.7500000000000001    0.3750000000000002    0.6875000000000000 T T T Y
   0.7500000000000001    0.8750000000000002    0.6160714285714286 F F F Y
   0.0000000000000000    0.0000000000000000    0.6339285714285714 T T T Mg
   0.0000000000000000    0.5000000000000001    0.7053571428571428 T T T Mg
   0.5000000000000000    0.2500000000000001    0.5982142857142857 F F F Mg
   0.5000000000000000    0.7500000000000001    0.6696428571428571 T T T Mg
   0.0000000000000000    0.2500000000000000    0.5982142857142857 F F F Mg
   0.0000000000000000    0.7500000000000001    0.6696428571428571 T T T Mg
   0.5000000000000000    0.0000000000000000    0.6339285714285714 T T T Mg
   0.5000000000000000    0.5000000000000001    0.7053571428571428 T T T Mg
   0.0000000000000000    0.0000000000000000    0.7053571428571428 T T T Al
   0.0000000000000000    0.5000000000000000    0.6339285714285714 T T T Al
   0.5000000000000000    0.2500000000000001    0.6696428571428571 T T T Al
   0.5000000000000000    0.7500000000000001    0.5982142857142857 F F F Al
   0.0000000000000000    0.2500000000000001    0.6696428571428571 T T T Al
   0.0000000000000000    0.7500000000000001    0.5982142857142857 F F F Al
   0.5000000000000000    0.0000000000000001    0.7053571428571428 T T T Al
   0.5000000000000000    0.5000000000000001    0.6339285714285714 T T T Al
