Y24 In12 Pd24
1.0
  10.9676265895636096    0.0000000000000000    0.0000000000000007
  10.9676265895636114   10.9676265895636131    3.7139309293849312
   0.0000000000000000    0.0000000000000000   29.7114474350794602
Y In Pd Y In Pd Y In Pd
8 4 8 8 4 8 8 4 8
Selective dynamics
direct
   0.1735933137028702    0.0764066862971298    0.3529491642128588 T T T Y
   0.1735933137028702    0.5764066862971298    0.4154491642128588 T T T Y
   0.8264066862971298    0.9235933137028702    0.3720508357871413 T T T Y
   0.8264066862971298    0.4235933137028702    0.4345508357871413 F F F Y
   0.3264066862971298    0.2500000000000000    0.3312500000000000 T T T Y
   0.3264066862971298    0.7500000000000000    0.3937500000000000 T T T Y
   0.6735933137028703    0.7500000000000000    0.3937500000000000 T T T Y
   0.6735933137028703    0.2500000000000000    0.3312500000000000 T T T Y
   0.5000000000000000    0.0000000000000000    0.4250000000000000 F F F In
   0.5000000000000000    0.5000000000000000    0.3625000000000000 T T T In
   0.0000000000000000    0.5000000000000000    0.3625000000000000 T T T In
   0.0000000000000000    0.0000000000000000    0.4250000000000000 F F F In
   0.6275803349636818    0.1224196650363183    0.4096975418704603 T T T Pd
   0.6275803349636818    0.6224196650363183    0.3471975418704603 T T T Pd
   0.3724196650363183    0.8775803349636817    0.3153024581295398 T T T Pd
   0.3724196650363183    0.3775803349636816    0.3778024581295398 T T T Pd
   0.8724196650363184    0.7500000000000000    0.3312500000000000 T T T Pd
   0.8724196650363184    0.2500000000000000    0.3937500000000000 T T T Pd
   0.1275803349636817    0.2499999999999999    0.3937500000000000 T T T Pd
   0.1275803349636817    0.7500000000000000    0.3312500000000000 T T T Pd
   0.1735933137028702    0.0764066862971298    0.4779491642128588 F F F Y
   0.1735933137028702    0.5764066862971298    0.5404491642128588 F F F Y
   0.8264066862971298    0.9235933137028702    0.4970508357871413 F F F Y
   0.8264066862971298    0.4235933137028702    0.5595508357871413 F F F Y
   0.3264066862971298    0.2500000000000000    0.4562500000000000 F F F Y
   0.3264066862971298    0.7500000000000000    0.5187500000000000 F F F Y
   0.6735933137028703    0.7500000000000000    0.5187500000000000 F F F Y
   0.6735933137028703    0.2500000000000000    0.4562500000000000 F F F Y
   0.5000000000000000    0.0000000000000000    0.5500000000000000 F F F In
   0.5000000000000000    0.5000000000000000    0.4875000000000000 F F F In
   0.0000000000000000    0.5000000000000000    0.4875000000000000 F F F In
   0.0000000000000000    0.0000000000000000    0.5500000000000000 F F F In
   0.6275803349636818    0.1224196650363183    0.5346975418704603 F F F Pd
   0.6275803349636818    0.6224196650363183    0.4721975418704603 F F F Pd
   0.3724196650363183    0.8775803349636817    0.4403024581295398 F F F Pd
   0.3724196650363183    0.3775803349636816    0.5028024581295398 F F F Pd
   0.8724196650363184    0.7500000000000000    0.4562500000000000 F F F Pd
   0.8724196650363184    0.2500000000000000    0.5187500000000000 F F F Pd
   0.1275803349636817    0.2499999999999999    0.5187500000000000 F F F Pd
   0.1275803349636817    0.7500000000000000    0.4562500000000000 F F F Pd
   0.1735933137028702    0.0764066862971298    0.6029491642128588 T T T Y
   0.1735933137028702    0.5764066862971298    0.6654491642128588 T T T Y
   0.8264066862971298    0.9235933137028702    0.6220508357871413 T T T Y
   0.8264066862971298    0.4235933137028702    0.6845508357871413 T T T Y
   0.3264066862971298    0.2500000000000000    0.5812500000000000 T T T Y
   0.3264066862971298    0.7500000000000000    0.6437500000000000 T T T Y
   0.6735933137028703    0.7500000000000000    0.6437500000000000 T T T Y
   0.6735933137028703    0.2500000000000000    0.5812500000000000 T T T Y
   0.5000000000000000    0.0000000000000000    0.6750000000000000 T T T In
   0.5000000000000000    0.5000000000000000    0.6125000000000000 T T T In
   0.0000000000000000    0.5000000000000000    0.6125000000000000 T T T In
   0.0000000000000000    0.0000000000000000    0.6750000000000000 T T T In
   0.6275803349636818    0.1224196650363183    0.6596975418704603 T T T Pd
   0.6275803349636818    0.6224196650363183    0.5971975418704603 T T T Pd
   0.3724196650363183    0.8775803349636817    0.5653024581295398 F F F Pd
   0.3724196650363183    0.3775803349636816    0.6278024581295398 T T T Pd
   0.8724196650363184    0.7500000000000000    0.5812500000000000 T T T Pd
   0.8724196650363184    0.2500000000000000    0.6437500000000000 T T T Pd
   0.1275803349636817    0.2499999999999999    0.6437500000000000 T T T Pd
   0.1275803349636817    0.7500000000000000    0.5812500000000000 T T T Pd
