Ba24 Cu24 Sn48
1.0
  39.3764805389194592    0.0000000000000000    0.0000000000000024
   0.6049931508957305    4.8431894779984210    4.7242441700867026
   0.0000000000000000    0.0000000000000000   37.7939533606936138
Ba Cu Sn Ba Cu Sn Ba Cu Sn
8 8 16 8 8 16 8 8 16
Selective dynamics
direct
   0.5542124372806474    0.9457875627193526    0.3466203046600810 T T T Ba
   0.0542124372806474    0.4457875627193526    0.4091203046600810 T T T Ba
   0.6957875627193525    0.3042124372806474    0.3643171953399191 T T T Ba
   0.1957875627193526    0.8042124372806474    0.4268171953399191 F F F Ba
   0.8042124372806474    0.1957875627193525    0.3153703046600810 T T T Ba
   0.3042124372806474    0.6957875627193526    0.3778703046600810 T T T Ba
   0.9457875627193525    0.5542124372806474    0.3330671953399191 T T T Ba
   0.4457875627193525    0.0542124372806474    0.3955671953399191 T T T Ba
   0.5898618039998457    0.4101381960001542    0.3510764754999807 T T T Cu
   0.0898618039998456    0.9101381960001543    0.4135764754999808 T T T Cu
   0.6601381960001543    0.8398618039998456    0.3598610245000193 T T T Cu
   0.1601381960001544    0.3398618039998456    0.4223610245000193 T T T Cu
   0.8398618039998457    0.6601381960001542    0.3198264754999808 T T T Cu
   0.3398618039998457    0.1601381960001543    0.3823264754999808 T T T Cu
   0.9101381960001544    0.0898618039998454    0.3286110245000194 T T T Cu
   0.4101381960001544    0.5898618039998456    0.3911110245000193 T T T Cu
   0.7283813750183435    0.7716186249816563    0.3683914218772930 T T T Sn
   0.2283813750183436    0.2716186249816563    0.4308914218772930 F F F Sn
   0.5216186249816563    0.4783813750183436    0.3425460781227071 T T T Sn
   0.0216186249816564    0.9783813750183437    0.4050460781227071 T T T Sn
   0.6251725436566973    0.8748274563433025    0.4179903179570872 T T T Sn
   0.1251725436566974    0.3748274563433025    0.3554903179570872 T T T Sn
   0.6248274563433026    0.3751725436566972    0.4179471820429129 T T T Sn
   0.1248274563433026    0.8751725436566974    0.3554471820429129 T T T Sn
   0.9783813750183438    0.0216186249816563    0.3371414218772930 T T T Sn
   0.4783813750183437    0.5216186249816563    0.3996414218772930 T T T Sn
   0.7716186249816565    0.7283813750183434    0.4362960781227071 F F F Sn
   0.2716186249816564    0.2283813750183434    0.3737960781227071 T T T Sn
   0.8751725436566973    0.1248274563433025    0.3867403179570872 T T T Sn
   0.3751725436566974    0.6248274563433026    0.3242403179570872 T T T Sn
   0.8748274563433026    0.6251725436566973    0.3866971820429129 T T T Sn
   0.3748274563433026    0.1251725436566974    0.3241971820429129 T T T Sn
   0.5542124372806474    0.9457875627193526    0.4716203046600810 F F F Ba
   0.0542124372806474    0.4457875627193526    0.5341203046600810 F F F Ba
   0.6957875627193525    0.3042124372806474    0.4893171953399191 F F F Ba
   0.1957875627193526    0.8042124372806474    0.5518171953399191 F F F Ba
   0.8042124372806474    0.1957875627193525    0.4403703046600810 F F F Ba
   0.3042124372806474    0.6957875627193526    0.5028703046600810 F F F Ba
   0.9457875627193525    0.5542124372806474    0.4580671953399191 F F F Ba
   0.4457875627193525    0.0542124372806474    0.5205671953399191 F F F Ba
   0.5898618039998457    0.4101381960001542    0.4760764754999807 F F F Cu
   0.0898618039998456    0.9101381960001543    0.5385764754999808 F F F Cu
   0.6601381960001543    0.8398618039998456    0.4848610245000193 F F F Cu
   0.1601381960001544    0.3398618039998456    0.5473610245000193 F F F Cu
   0.8398618039998457    0.6601381960001542    0.4448264754999808 F F F Cu
   0.3398618039998457    0.1601381960001543    0.5073264754999808 F F F Cu
   0.9101381960001544    0.0898618039998454    0.4536110245000194 F F F Cu
   0.4101381960001544    0.5898618039998456    0.5161110245000193 F F F Cu
   0.7283813750183435    0.7716186249816563    0.4933914218772930 F F F Sn
   0.2283813750183436    0.2716186249816563    0.5558914218772930 F F F Sn
   0.5216186249816563    0.4783813750183436    0.4675460781227071 F F F Sn
   0.0216186249816564    0.9783813750183437    0.5300460781227071 F F F Sn
   0.6251725436566973    0.8748274563433025    0.5429903179570872 F F F Sn
   0.1251725436566974    0.3748274563433025    0.4804903179570872 F F F Sn
   0.6248274563433026    0.3751725436566972    0.5429471820429128 F F F Sn
   0.1248274563433026    0.8751725436566974    0.4804471820429129 F F F Sn
   0.9783813750183438    0.0216186249816563    0.4621414218772930 F F F Sn
   0.4783813750183437    0.5216186249816563    0.5246414218772930 F F F Sn
   0.7716186249816565    0.7283813750183434    0.5612960781227071 F F F Sn
   0.2716186249816564    0.2283813750183434    0.4987960781227071 F F F Sn
   0.8751725436566973    0.1248274563433025    0.5117403179570872 F F F Sn
   0.3751725436566974    0.6248274563433026    0.4492403179570872 F F F Sn
   0.8748274563433026    0.6251725436566973    0.5116971820429128 F F F Sn
   0.3748274563433026    0.1251725436566974    0.4491971820429129 F F F Sn
   0.5542124372806474    0.9457875627193526    0.5966203046600810 T T T Ba
   0.0542124372806474    0.4457875627193526    0.6591203046600810 T T T Ba
   0.6957875627193525    0.3042124372806474    0.6143171953399191 T T T Ba
   0.1957875627193526    0.8042124372806474    0.6768171953399191 T T T Ba
   0.8042124372806474    0.1957875627193525    0.5653703046600810 F F F Ba
   0.3042124372806474    0.6957875627193526    0.6278703046600810 T T T Ba
   0.9457875627193525    0.5542124372806474    0.5830671953399191 T T T Ba
   0.4457875627193525    0.0542124372806474    0.6455671953399191 T T T Ba
   0.5898618039998457    0.4101381960001542    0.6010764754999807 T T T Cu
   0.0898618039998456    0.9101381960001543    0.6635764754999808 T T T Cu
   0.6601381960001543    0.8398618039998456    0.6098610245000193 T T T Cu
   0.1601381960001544    0.3398618039998456    0.6723610245000193 T T T Cu
   0.8398618039998457    0.6601381960001542    0.5698264754999808 F F F Cu
   0.3398618039998457    0.1601381960001543    0.6323264754999808 T T T Cu
   0.9101381960001544    0.0898618039998454    0.5786110245000193 T T T Cu
   0.4101381960001544    0.5898618039998456    0.6411110245000193 T T T Cu
   0.7283813750183435    0.7716186249816563    0.6183914218772930 T T T Sn
   0.2283813750183436    0.2716186249816563    0.6808914218772930 T T T Sn
   0.5216186249816563    0.4783813750183436    0.5925460781227071 T T T Sn
   0.0216186249816564    0.9783813750183437    0.6550460781227071 T T T Sn
   0.6251725436566973    0.8748274563433025    0.6679903179570872 T T T Sn
   0.1251725436566974    0.3748274563433025    0.6054903179570872 T T T Sn
   0.6248274563433026    0.3751725436566972    0.6679471820429128 T T T Sn
   0.1248274563433026    0.8751725436566974    0.6054471820429128 T T T Sn
   0.9783813750183438    0.0216186249816563    0.5871414218772930 T T T Sn
   0.4783813750183437    0.5216186249816563    0.6496414218772930 T T T Sn
   0.7716186249816565    0.7283813750183434    0.6862960781227071 T T T Sn
   0.2716186249816564    0.2283813750183434    0.6237960781227071 T T T Sn
   0.8751725436566973    0.1248274563433025    0.6367403179570872 T T T Sn
   0.3751725436566974    0.6248274563433026    0.5742403179570872 F F F Sn
   0.8748274563433026    0.6251725436566973    0.6366971820429128 T T T Sn
   0.3748274563433026    0.1251725436566974    0.5741971820429128 F F F Sn
