Ba24 Cu24 Sn48
1.0
  19.5364065183408115    0.0000000000000000    0.0000000000000012
   0.0000000000000015    9.4484883401734034   -4.8808299532380088
   0.0000000000000000    0.0000000000000000   34.1658096726660716
Ba Cu Sn Ba Cu Sn Ba Cu Sn
8 8 16 8 8 16 8 8 16
Selective dynamics
direct
   0.1084248745612948    0.1250000000000000    0.3750000000000000 T T T Ba
   0.1084248745612948    0.6250000000000000    0.3035714285714285 T T T Ba
   0.3915751254387052    0.3750000000000000    0.3392857142857142 T T T Ba
   0.3915751254387052    0.8750000000000000    0.4107142857142857 F F F Ba
   0.6084248745612948    0.1250000000000000    0.3035714285714285 T T T Ba
   0.6084248745612948    0.6249999999999999    0.3750000000000000 T T T Ba
   0.8915751254387051    0.3750000000000000    0.4107142857142857 F F F Ba
   0.8915751254387051    0.8749999999999999    0.3392857142857142 T T T Ba
   0.1797236079996913    0.3750000000000000    0.3392857142857142 T T T Cu
   0.1797236079996913    0.8750000000000000    0.4107142857142857 F F F Cu
   0.3202763920003087    0.1250000000000000    0.3750000000000000 T T T Cu
   0.3202763920003087    0.6250000000000000    0.3035714285714285 T T T Cu
   0.6797236079996913    0.3750000000000000    0.4107142857142857 F F F Cu
   0.6797236079996913    0.8750000000000000    0.3392857142857142 T T T Cu
   0.8202763920003088    0.1250000000000000    0.3035714285714285 T T T Cu
   0.8202763920003088    0.6250000000000000    0.3750000000000000 T T T Cu
   0.4567627500366872    0.1250000000000000    0.3750000000000000 T T T Sn
   0.4567627500366872    0.6249999999999999    0.3035714285714285 T T T Sn
   0.0432372499633128    0.3750000000000000    0.3392857142857142 T T T Sn
   0.0432372499633128    0.8750000000000000    0.4107142857142857 F F F Sn
   0.2503450873133948    0.3750000000000000    0.4107142857142857 F F F Sn
   0.2503450873133948    0.8750000000000000    0.3392857142857142 T T T Sn
   0.2496549126866053    0.1250000000000000    0.3035714285714285 T T T Sn
   0.2496549126866053    0.6250000000000000    0.3750000000000000 T T T Sn
   0.9567627500366873    0.1250000000000000    0.3035714285714285 T T T Sn
   0.9567627500366873    0.6250000000000000    0.3750000000000000 T T T Sn
   0.5432372499633128    0.3750000000000000    0.4107142857142857 F F F Sn
   0.5432372499633128    0.8750000000000000    0.3392857142857142 T T T Sn
   0.7503450873133948    0.3750000000000000    0.3392857142857142 T T T Sn
   0.7503450873133948    0.8750000000000000    0.4107142857142857 F F F Sn
   0.7496549126866052    0.1250000000000000    0.3750000000000000 T T T Sn
   0.7496549126866052    0.6250000000000000    0.3035714285714285 T T T Sn
   0.1084248745612948    0.1250000000000000    0.5178571428571428 F F F Ba
   0.1084248745612948    0.6250000000000000    0.4464285714285714 F F F Ba
   0.3915751254387052    0.3750000000000000    0.4821428571428571 F F F Ba
   0.3915751254387052    0.8750000000000000    0.5535714285714286 F F F Ba
   0.6084248745612948    0.1250000000000000    0.4464285714285714 F F F Ba
   0.6084248745612948    0.6249999999999999    0.5178571428571428 F F F Ba
   0.8915751254387051    0.3750000000000000    0.5535714285714286 F F F Ba
   0.8915751254387051    0.8749999999999999    0.4821428571428571 F F F Ba
   0.1797236079996913    0.3750000000000000    0.4821428571428571 F F F Cu
   0.1797236079996913    0.8750000000000000    0.5535714285714286 F F F Cu
   0.3202763920003087    0.1250000000000000    0.5178571428571428 F F F Cu
   0.3202763920003087    0.6250000000000000    0.4464285714285714 F F F Cu
   0.6797236079996913    0.3750000000000000    0.5535714285714286 F F F Cu
   0.6797236079996913    0.8750000000000000    0.4821428571428571 F F F Cu
   0.8202763920003088    0.1250000000000000    0.4464285714285714 F F F Cu
   0.8202763920003088    0.6250000000000000    0.5178571428571428 F F F Cu
   0.4567627500366872    0.1250000000000000    0.5178571428571428 F F F Sn
   0.4567627500366872    0.6249999999999999    0.4464285714285714 F F F Sn
   0.0432372499633128    0.3750000000000000    0.4821428571428571 F F F Sn
   0.0432372499633128    0.8750000000000000    0.5535714285714286 F F F Sn
   0.2503450873133948    0.3750000000000000    0.5535714285714286 F F F Sn
   0.2503450873133948    0.8750000000000000    0.4821428571428571 F F F Sn
   0.2496549126866053    0.1250000000000000    0.4464285714285714 F F F Sn
   0.2496549126866053    0.6250000000000000    0.5178571428571428 F F F Sn
   0.9567627500366873    0.1250000000000000    0.4464285714285714 F F F Sn
   0.9567627500366873    0.6250000000000000    0.5178571428571428 F F F Sn
   0.5432372499633128    0.3750000000000000    0.5535714285714286 F F F Sn
   0.5432372499633128    0.8750000000000000    0.4821428571428571 F F F Sn
   0.7503450873133948    0.3750000000000000    0.4821428571428571 F F F Sn
   0.7503450873133948    0.8750000000000000    0.5535714285714286 F F F Sn
   0.7496549126866052    0.1250000000000000    0.5178571428571428 F F F Sn
   0.7496549126866052    0.6250000000000000    0.4464285714285714 F F F Sn
   0.1084248745612948    0.1250000000000000    0.6607142857142857 T T T Ba
   0.1084248745612948    0.6250000000000000    0.5892857142857142 F F F Ba
   0.3915751254387052    0.3750000000000000    0.6250000000000000 T T T Ba
   0.3915751254387052    0.8750000000000000    0.6964285714285714 T T T Ba
   0.6084248745612948    0.1250000000000000    0.5892857142857142 F F F Ba
   0.6084248745612948    0.6249999999999999    0.6607142857142857 T T T Ba
   0.8915751254387051    0.3750000000000000    0.6964285714285714 T T T Ba
   0.8915751254387051    0.8749999999999999    0.6250000000000000 T T T Ba
   0.1797236079996913    0.3750000000000000    0.6250000000000000 T T T Cu
   0.1797236079996913    0.8750000000000000    0.6964285714285714 T T T Cu
   0.3202763920003087    0.1250000000000000    0.6607142857142857 T T T Cu
   0.3202763920003087    0.6250000000000000    0.5892857142857142 F F F Cu
   0.6797236079996913    0.3750000000000000    0.6964285714285714 T T T Cu
   0.6797236079996913    0.8750000000000000    0.6250000000000000 T T T Cu
   0.8202763920003088    0.1250000000000000    0.5892857142857142 F F F Cu
   0.8202763920003088    0.6250000000000000    0.6607142857142857 T T T Cu
   0.4567627500366872    0.1250000000000000    0.6607142857142857 T T T Sn
   0.4567627500366872    0.6249999999999999    0.5892857142857142 F F F Sn
   0.0432372499633128    0.3750000000000000    0.6250000000000000 T T T Sn
   0.0432372499633128    0.8750000000000000    0.6964285714285714 T T T Sn
   0.2503450873133948    0.3750000000000000    0.6964285714285714 T T T Sn
   0.2503450873133948    0.8750000000000000    0.6250000000000000 T T T Sn
   0.2496549126866053    0.1250000000000000    0.5892857142857142 F F F Sn
   0.2496549126866053    0.6250000000000000    0.6607142857142857 T T T Sn
   0.9567627500366873    0.1250000000000000    0.5892857142857142 F F F Sn
   0.9567627500366873    0.6250000000000000    0.6607142857142857 T T T Sn
   0.5432372499633128    0.3750000000000000    0.6964285714285714 T T T Sn
   0.5432372499633128    0.8750000000000000    0.6250000000000000 T T T Sn
   0.7503450873133948    0.3750000000000000    0.6250000000000000 T T T Sn
   0.7503450873133948    0.8750000000000000    0.6964285714285714 T T T Sn
   0.7496549126866052    0.1250000000000000    0.6607142857142857 T T T Sn
   0.7496549126866052    0.6250000000000000    0.5892857142857142 F F F Sn
