Ba12 Cu12 Sn24
1.0
   4.7242441700867017    0.0000000000000000    0.0000000000000003
   0.0000000000000031   19.5364065183408151   -9.7616599064760141
   0.0000000000000000    0.0000000000000000   34.1658096726660716
Ba Cu Sn Ba Cu Sn Ba Cu Sn
4 4 8 4 4 8 4 4 8
Selective dynamics
direct
   0.7500000000000000    0.8915751254387052    0.3172357501253443 T T T Ba
   0.2500000000000000    0.6084248745612948    0.3077642498746556 T T T Ba
   0.7500000000000000    0.3915751254387052    0.3886643215539157 F F F Ba
   0.2500000000000000    0.1084248745612949    0.3791928213032271 T T T Ba
   0.2500000000000000    0.8202763920003087    0.3682932548572310 T T T Cu
   0.7500000000000000    0.6797236079996913    0.3995638879999118 F F F Cu
   0.2500000000000000    0.3202763920003087    0.2968646834286595 T T T Cu
   0.7500000000000000    0.1797236079996912    0.3281353165713403 T T T Cu
   0.7500000000000000    0.5432372499633128    0.3605677857038036 T T T Sn
   0.2500000000000000    0.9567627500366872    0.4072893571533392 F F F Sn
   0.2500000000000000    0.7496549126866052    0.4195442607676015 F F F Sn
   0.7500000000000000    0.7503450873133948    0.3483128820895414 T T T Sn
   0.7500000000000000    0.0432372499633127    0.2891392142752321 T T T Sn
   0.2500000000000000    0.4567627500366872    0.3358607857247677 T T T Sn
   0.2500000000000000    0.2496549126866052    0.3481156893390300 T T T Sn
   0.7500000000000000    0.2503450873133948    0.4197414535181127 F F F Sn
   0.7500000000000000    0.8915751254387052    0.4600928929824872 F F F Ba
   0.2500000000000000    0.6084248745612948    0.4506213927317985 F F F Ba
   0.7500000000000000    0.3915751254387052    0.5315214644110586 F F F Ba
   0.2500000000000000    0.1084248745612949    0.5220499641603700 F F F Ba
   0.2500000000000000    0.8202763920003087    0.5111503977143739 F F F Cu
   0.7500000000000000    0.6797236079996913    0.5424210308570546 F F F Cu
   0.2500000000000000    0.3202763920003087    0.4397218262858024 F F F Cu
   0.7500000000000000    0.1797236079996912    0.4709924594284832 F F F Cu
   0.7500000000000000    0.5432372499633128    0.5034249285609464 F F F Sn
   0.2500000000000000    0.9567627500366872    0.5501465000104820 F F F Sn
   0.2500000000000000    0.7496549126866052    0.5624014036247443 F F F Sn
   0.7500000000000000    0.7503450873133948    0.4911700249466842 F F F Sn
   0.7500000000000000    0.0432372499633127    0.4319963571323750 F F F Sn
   0.2500000000000000    0.4567627500366872    0.4787179285819106 F F F Sn
   0.2500000000000000    0.2496549126866052    0.4909728321961729 F F F Sn
   0.7500000000000000    0.2503450873133948    0.5625985963752556 F F F Sn
   0.7500000000000000    0.8915751254387052    0.6029500358396300 F F F Ba
   0.2500000000000000    0.6084248745612948    0.5934785355889414 F F F Ba
   0.7500000000000000    0.3915751254387052    0.6743786072682014 T T T Ba
   0.2500000000000000    0.1084248745612949    0.6649071070175128 T T T Ba
   0.2500000000000000    0.8202763920003087    0.6540075405715167 T T T Cu
   0.7500000000000000    0.6797236079996913    0.6852781737141975 T T T Cu
   0.2500000000000000    0.3202763920003087    0.5825789691429453 F F F Cu
   0.7500000000000000    0.1797236079996912    0.6138496022856260 T T T Cu
   0.7500000000000000    0.5432372499633128    0.6462820714180892 T T T Sn
   0.2500000000000000    0.9567627500366872    0.6930036428676249 T T T Sn
   0.2500000000000000    0.7496549126866052    0.7052585464818872 T T T Sn
   0.7500000000000000    0.7503450873133948    0.6340271678038271 T T T Sn
   0.7500000000000000    0.0432372499633127    0.5748534999895178 F F F Sn
   0.2500000000000000    0.4567627500366872    0.6215750714390534 T T T Sn
   0.2500000000000000    0.2496549126866052    0.6338299750533157 T T T Sn
   0.7500000000000000    0.2503450873133948    0.7054557392323983 T T T Sn
