K4 Cd4 As4
1.0
   4.6166209683771280    0.0000000000000000    0.0000000000000003
   0.0000000000000007    4.6166209683771280    0.0000000000000003
   0.0000000000000000    0.0000000000000000   32.0973505532205365
K Cd As K Cd As
2 2 2 2 2 2
Selective dynamics
direct
   0.0000000000000000    0.5000000000000000    0.4620769107313212 F F F K
   0.5000000000000000    0.0000000000000000    0.2879230892686788 T T T K
   0.0000000000000000    0.0000000000000000    0.3750000000000000 T T T Cd
   0.5000000000000000    0.5000000000000000    0.3750000000000000 T T T Cd
   0.0000000000000000    0.5000000000000000    0.3232859524966294 T T T As
   0.5000000000000000    0.0000000000000000    0.4267140475033706 F F F As
   0.0000000000000000    0.5000000000000000    0.7120769107313212 T T T K
   0.5000000000000000    0.0000000000000000    0.5379230892686788 F F F K
   0.0000000000000000    0.0000000000000000    0.6250000000000000 T T T Cd
   0.5000000000000000    0.5000000000000000    0.6250000000000000 T T T Cd
   0.0000000000000000    0.5000000000000000    0.5732859524966294 F F F As
   0.5000000000000000    0.0000000000000000    0.6767140475033706 T T T As
