Zr12 V24 Ga48
1.0
   9.1783791022615144    0.0000000000000000    0.0000000000000006
   9.1783791022615162    9.1783791022615180    5.1967447297831804
   0.0000000000000000    0.0000000000000000   36.3772131084822945
Zr V Ga Zr V Ga Zr V Ga
4 8 16 4 8 16 4 8 16
Selective dynamics
direct
   0.0000000000000000    0.5000000000000000    0.3214285714285714 T T T Zr
   0.0000000000000000    0.0000000000000000    0.3928571428571428 F F F Zr
   0.5000000000000000    0.0000000000000000    0.3214285714285714 T T T Zr
   0.5000000000000000    0.5000000000000000    0.3928571428571428 F F F Zr
   0.5000000000000000    0.2499999999999999    0.3928571428571428 F F F V
   0.5000000000000000    0.7500000000000000    0.3214285714285715 T T T V
   0.5000000000000000    0.2499999999999999    0.3214285714285715 T T T V
   0.5000000000000000    0.7500000000000000    0.3928571428571428 F F F V
   0.0000000000000000    0.2500000000000000    0.3214285714285715 T T T V
   0.0000000000000000    0.7500000000000000    0.3928571428571428 F F F V
   0.0000000000000000    0.2500000000000000    0.3928571428571428 F F F V
   0.0000000000000000    0.7500000000000000    0.3214285714285715 T T T V
   0.3020176896720912    0.1979823103279088    0.3645739556674416 T T T Ga
   0.3020176896720912    0.6979823103279088    0.2931453842388702 T T T Ga
   0.1979823103279088    0.3020176896720911    0.4211403300468441 F F F Ga
   0.1979823103279088    0.8020176896720912    0.3497117586182727 T T T Ga
   0.3020176896720912    0.0000000000000000    0.3928571428571428 F F F Ga
   0.3020176896720912    0.5000000000000000    0.3214285714285714 T T T Ga
   0.1979823103279088    0.0000000000000000    0.3214285714285714 T T T Ga
   0.1979823103279088    0.5000000000000000    0.3928571428571428 F F F Ga
   0.8020176896720911    0.6979823103279088    0.3645739556674416 T T T Ga
   0.8020176896720911    0.1979823103279088    0.2931453842388702 T T T Ga
   0.6979823103279088    0.8020176896720912    0.4211403300468441 F F F Ga
   0.6979823103279088    0.3020176896720912    0.3497117586182727 T T T Ga
   0.8020176896720911    0.0000000000000000    0.3214285714285714 T T T Ga
   0.8020176896720911    0.5000000000000000    0.3928571428571428 F F F Ga
   0.6979823103279088    0.0000000000000000    0.3928571428571428 F F F Ga
   0.6979823103279088    0.5000000000000000    0.3214285714285714 T T T Ga
   0.0000000000000000    0.5000000000000000    0.4642857142857143 F F F Zr
   0.0000000000000000    0.0000000000000000    0.5357142857142857 F F F Zr
   0.5000000000000000    0.0000000000000000    0.4642857142857142 F F F Zr
   0.5000000000000000    0.5000000000000000    0.5357142857142857 F F F Zr
   0.5000000000000000    0.2499999999999999    0.5357142857142857 F F F V
   0.5000000000000000    0.7500000000000000    0.4642857142857143 F F F V
   0.5000000000000000    0.2499999999999999    0.4642857142857143 F F F V
   0.5000000000000000    0.7500000000000000    0.5357142857142857 F F F V
   0.0000000000000000    0.2500000000000000    0.4642857142857143 F F F V
   0.0000000000000000    0.7500000000000000    0.5357142857142857 F F F V
   0.0000000000000000    0.2500000000000000    0.5357142857142857 F F F V
   0.0000000000000000    0.7500000000000000    0.4642857142857143 F F F V
   0.3020176896720912    0.1979823103279088    0.5074310985245845 F F F Ga
   0.3020176896720912    0.6979823103279088    0.4360025270960130 F F F Ga
   0.1979823103279088    0.3020176896720911    0.5639974729039869 F F F Ga
   0.1979823103279088    0.8020176896720912    0.4925689014754155 F F F Ga
   0.3020176896720912    0.0000000000000000    0.5357142857142857 F F F Ga
   0.3020176896720912    0.5000000000000000    0.4642857142857143 F F F Ga
   0.1979823103279088    0.0000000000000000    0.4642857142857142 F F F Ga
   0.1979823103279088    0.5000000000000000    0.5357142857142857 F F F Ga
   0.8020176896720911    0.6979823103279088    0.5074310985245845 F F F Ga
   0.8020176896720911    0.1979823103279088    0.4360025270960129 F F F Ga
   0.6979823103279088    0.8020176896720912    0.5639974729039869 F F F Ga
   0.6979823103279088    0.3020176896720912    0.4925689014754155 F F F Ga
   0.8020176896720911    0.0000000000000000    0.4642857142857142 F F F Ga
   0.8020176896720911    0.5000000000000000    0.5357142857142857 F F F Ga
   0.6979823103279088    0.0000000000000000    0.5357142857142857 F F F Ga
   0.6979823103279088    0.5000000000000000    0.4642857142857143 F F F Ga
   0.0000000000000000    0.5000000000000000    0.6071428571428571 F F F Zr
   0.0000000000000000    0.0000000000000000    0.6785714285714286 T T T Zr
   0.5000000000000000    0.0000000000000000    0.6071428571428571 F F F Zr
   0.5000000000000000    0.5000000000000000    0.6785714285714286 T T T Zr
   0.5000000000000000    0.2499999999999999    0.6785714285714285 T T T V
   0.5000000000000000    0.7500000000000000    0.6071428571428572 F F F V
   0.5000000000000000    0.2499999999999999    0.6071428571428572 F F F V
   0.5000000000000000    0.7500000000000000    0.6785714285714286 T T T V
   0.0000000000000000    0.2500000000000000    0.6071428571428572 F F F V
   0.0000000000000000    0.7500000000000000    0.6785714285714286 T T T V
   0.0000000000000000    0.2500000000000000    0.6785714285714285 T T T V
   0.0000000000000000    0.7500000000000000    0.6071428571428572 F F F V
   0.3020176896720912    0.1979823103279088    0.6502882413817273 T T T Ga
   0.3020176896720912    0.6979823103279088    0.5788596699531559 F F F Ga
   0.1979823103279088    0.3020176896720911    0.7068546157611297 T T T Ga
   0.1979823103279088    0.8020176896720912    0.6354260443325583 T T T Ga
   0.3020176896720912    0.0000000000000000    0.6785714285714285 T T T Ga
   0.3020176896720912    0.5000000000000000    0.6071428571428571 F F F Ga
   0.1979823103279088    0.0000000000000000    0.6071428571428571 F F F Ga
   0.1979823103279088    0.5000000000000000    0.6785714285714286 T T T Ga
   0.8020176896720911    0.6979823103279088    0.6502882413817273 T T T Ga
   0.8020176896720911    0.1979823103279088    0.5788596699531559 F F F Ga
   0.6979823103279088    0.8020176896720912    0.7068546157611298 T T T Ga
   0.6979823103279088    0.3020176896720912    0.6354260443325583 T T T Ga
   0.8020176896720911    0.0000000000000000    0.6071428571428571 F F F Ga
   0.8020176896720911    0.5000000000000000    0.6785714285714286 T T T Ga
   0.6979823103279088    0.0000000000000000    0.6785714285714285 T T T Ga
   0.6979823103279088    0.5000000000000000    0.6071428571428571 F F F Ga
