Mg8 Cd8 Au16
1.0
   6.6560876210810589    0.0000000000000000   -3.3280438105405294
   0.0000000000000011    6.7612377422804650   -3.3280438105405277
   0.0000000000000000    0.0000000000000000   33.2804381054052953
Mg Cd Au Mg Cd Au Mg Cd Au Mg Cd Au
2 2 4 2 2 4 2 2 4 2 2 4
Selective dynamics
direct
   0.2500000000000000    0.4999999999999999    0.3250000000000000 T T T Mg
   0.7499999999999999    0.4999999999999999    0.3750000000000000 T T T Mg
   0.2500000000000000    0.0000000000000000    0.3750000000000000 T T T Cd
   0.7499999999999999    0.0000000000000000    0.3250000000000000 T T T Cd
   0.0000000000000000    0.7325082009749266    0.3732508200974927 T T T Au
   0.5000000000000000    0.7325082009749266    0.3232508200974927 T T T Au
   0.0000000000000000    0.2674917990250733    0.3267491799025073 T T T Au
   0.5000000000000000    0.2674917990250733    0.3767491799025073 T T T Au
   0.2500000000000000    0.4999999999999999    0.4250000000000000 T T T Mg
   0.7499999999999999    0.4999999999999999    0.4750000000000000 F F F Mg
   0.2500000000000000    0.0000000000000000    0.4750000000000000 F F F Cd
   0.7499999999999999    0.0000000000000000    0.4250000000000000 T T T Cd
   0.0000000000000000    0.7325082009749266    0.4732508200974926 F F F Au
   0.5000000000000000    0.7325082009749266    0.4232508200974927 T T T Au
   0.0000000000000000    0.2674917990250733    0.4267491799025073 T T T Au
   0.5000000000000000    0.2674917990250733    0.4767491799025073 F F F Au
   0.2500000000000000    0.4999999999999999    0.5249999999999999 F F F Mg
   0.7499999999999999    0.4999999999999999    0.5750000000000000 T T T Mg
   0.2500000000000000    0.0000000000000000    0.5750000000000000 T T T Cd
   0.7499999999999999    0.0000000000000000    0.5249999999999999 F F F Cd
   0.0000000000000000    0.7325082009749266    0.5732508200974926 T T T Au
   0.5000000000000000    0.7325082009749266    0.5232508200974927 F F F Au
   0.0000000000000000    0.2674917990250733    0.5267491799025074 F F F Au
   0.5000000000000000    0.2674917990250733    0.5767491799025073 T T T Au
   0.2500000000000000    0.4999999999999999    0.6250000000000000 T T T Mg
   0.7499999999999999    0.4999999999999999    0.6750000000000000 T T T Mg
   0.2500000000000000    0.0000000000000000    0.6750000000000000 T T T Cd
   0.7499999999999999    0.0000000000000000    0.6250000000000000 T T T Cd
   0.0000000000000000    0.7325082009749266    0.6732508200974927 T T T Au
   0.5000000000000000    0.7325082009749266    0.6232508200974927 T T T Au
   0.0000000000000000    0.2674917990250733    0.6267491799025073 T T T Au
   0.5000000000000000    0.2674917990250733    0.6767491799025074 T T T Au
