Ba24 Ga24 Cu48
1.0
   7.5170497304917587    0.0000000000000000    8.6799413708224407
   0.0000000000000066   17.1470143211450576    4.3399706854112168
   0.0000000000000000    0.0000000000000000   43.3997068541122033
Ba Ga Cu Ba Ga Cu Ba Ga Cu Ba Ga Cu
6 6 12 6 6 12 6 6 12 6 6 12
Selective dynamics
direct
   0.5000000000000000    0.0000000000000000    0.3375000000000000 T T T Ba
   0.0000000000000000    0.0000000000000000    0.3875000000000000 T T T Ba
   0.6666666666666666    0.6666666666666667    0.3875000000000000 T T T Ba
   0.1666666666666666    0.6666666666666667    0.3375000000000000 T T T Ba
   0.8333333333333333    0.3333333333333334    0.3375000000000000 T T T Ba
   0.3333333333333333    0.3333333333333334    0.3875000000000000 T T T Ba
   0.8333333333333331    0.8333333333333334    0.3875000000000000 T T T Ga
   0.3333333333333332    0.8333333333333334    0.3375000000000000 T T T Ga
   0.9999999999999998    0.5000000000000000    0.3375000000000000 T T T Ga
   0.4999999999999998    0.5000000000000000    0.3875000000000000 T T T Ga
   0.6666666666666665    0.1666666666666667    0.3375000000000000 T T T Ga
   0.1666666666666665    0.1666666666666667    0.3875000000000001 T T T Ga
   0.6666666666666666    0.8529355942602995    0.3688731072406367 T T T Cu
   0.1666666666666666    0.8529355942602995    0.3188731072406367 T T T Cu
   0.5000000000000000    0.8137310724063671    0.3561268927593633 T T T Cu
   0.0000000000000000    0.8137310724063671    0.3061268927593633 T T T Cu
   0.8333333333333331    0.5196022609269662    0.3188731072406367 T T T Cu
   0.3333333333333333    0.5196022609269662    0.3688731072406367 T T T Cu
   0.6666666666666666    0.4803977390730338    0.3061268927593633 T T T Cu
   0.1666666666666666    0.4803977390730338    0.3561268927593633 T T T Cu
   0.5000000000000000    0.1862689275936329    0.3188731072406367 T T T Cu
   0.0000000000000000    0.1862689275936329    0.3688731072406367 T T T Cu
   0.8333333333333333    0.1470644057397006    0.3561268927593633 T T T Cu
   0.3333333333333333    0.1470644057397006    0.3061268927593633 T T T Cu
   0.5000000000000000    0.0000000000000000    0.4375000000000000 F F F Ba
   0.0000000000000000    0.0000000000000000    0.4875000000000000 F F F Ba
   0.6666666666666666    0.6666666666666667    0.4875000000000000 F F F Ba
   0.1666666666666666    0.6666666666666667    0.4375000000000000 F F F Ba
   0.8333333333333333    0.3333333333333334    0.4375000000000000 F F F Ba
   0.3333333333333333    0.3333333333333334    0.4875000000000000 F F F Ba
   0.8333333333333331    0.8333333333333334    0.4875000000000000 F F F Ga
   0.3333333333333332    0.8333333333333334    0.4375000000000000 F F F Ga
   0.9999999999999998    0.5000000000000000    0.4375000000000000 F F F Ga
   0.4999999999999998    0.5000000000000000    0.4875000000000000 F F F Ga
   0.6666666666666665    0.1666666666666667    0.4375000000000000 F F F Ga
   0.1666666666666665    0.1666666666666667    0.4875000000000000 F F F Ga
   0.6666666666666666    0.8529355942602995    0.4688731072406367 F F F Cu
   0.1666666666666666    0.8529355942602995    0.4188731072406368 F F F Cu
   0.5000000000000000    0.8137310724063671    0.4561268927593633 F F F Cu
   0.0000000000000000    0.8137310724063671    0.4061268927593633 T T T Cu
   0.8333333333333331    0.5196022609269662    0.4188731072406368 F F F Cu
   0.3333333333333333    0.5196022609269662    0.4688731072406367 F F F Cu
   0.6666666666666666    0.4803977390730338    0.4061268927593633 T T T Cu
   0.1666666666666666    0.4803977390730338    0.4561268927593633 F F F Cu
   0.5000000000000000    0.1862689275936329    0.4188731072406368 F F F Cu
   0.0000000000000000    0.1862689275936329    0.4688731072406367 F F F Cu
   0.8333333333333333    0.1470644057397006    0.4561268927593633 F F F Cu
   0.3333333333333333    0.1470644057397006    0.4061268927593633 T T T Cu
   0.5000000000000000    0.0000000000000000    0.5375000000000001 F F F Ba
   0.0000000000000000    0.0000000000000000    0.5875000000000000 T T T Ba
   0.6666666666666666    0.6666666666666667    0.5875000000000000 T T T Ba
   0.1666666666666666    0.6666666666666667    0.5375000000000000 F F F Ba
   0.8333333333333333    0.3333333333333334    0.5375000000000000 F F F Ba
   0.3333333333333333    0.3333333333333334    0.5875000000000000 T T T Ba
   0.8333333333333331    0.8333333333333334    0.5875000000000000 T T T Ga
   0.3333333333333332    0.8333333333333334    0.5375000000000001 F F F Ga
   0.9999999999999998    0.5000000000000000    0.5375000000000001 F F F Ga
   0.4999999999999998    0.5000000000000000    0.5875000000000000 T T T Ga
   0.6666666666666665    0.1666666666666667    0.5375000000000001 F F F Ga
   0.1666666666666665    0.1666666666666667    0.5875000000000000 T T T Ga
   0.6666666666666666    0.8529355942602995    0.5688731072406368 F F F Cu
   0.1666666666666666    0.8529355942602995    0.5188731072406367 F F F Cu
   0.5000000000000000    0.8137310724063671    0.5561268927593633 F F F Cu
   0.0000000000000000    0.8137310724063671    0.5061268927593633 F F F Cu
   0.8333333333333331    0.5196022609269662    0.5188731072406367 F F F Cu
   0.3333333333333333    0.5196022609269662    0.5688731072406368 F F F Cu
   0.6666666666666666    0.4803977390730338    0.5061268927593633 F F F Cu
   0.1666666666666666    0.4803977390730338    0.5561268927593632 F F F Cu
   0.5000000000000000    0.1862689275936329    0.5188731072406367 F F F Cu
   0.0000000000000000    0.1862689275936329    0.5688731072406368 F F F Cu
   0.8333333333333333    0.1470644057397006    0.5561268927593632 F F F Cu
   0.3333333333333333    0.1470644057397006    0.5061268927593633 F F F Cu
   0.5000000000000000    0.0000000000000000    0.6375000000000000 T T T Ba
   0.0000000000000000    0.0000000000000000    0.6875000000000000 T T T Ba
   0.6666666666666666    0.6666666666666667    0.6875000000000000 T T T Ba
   0.1666666666666666    0.6666666666666667    0.6375000000000000 T T T Ba
   0.8333333333333333    0.3333333333333334    0.6375000000000000 T T T Ba
   0.3333333333333333    0.3333333333333334    0.6875000000000000 T T T Ba
   0.8333333333333331    0.8333333333333334    0.6875000000000000 T T T Ga
   0.3333333333333332    0.8333333333333334    0.6375000000000000 T T T Ga
   0.9999999999999998    0.5000000000000000    0.6375000000000000 T T T Ga
   0.4999999999999998    0.5000000000000000    0.6875000000000000 T T T Ga
   0.6666666666666665    0.1666666666666667    0.6375000000000000 T T T Ga
   0.1666666666666665    0.1666666666666667    0.6875000000000000 T T T Ga
   0.6666666666666666    0.8529355942602995    0.6688731072406366 T T T Cu
   0.1666666666666666    0.8529355942602995    0.6188731072406367 T T T Cu
   0.5000000000000000    0.8137310724063671    0.6561268927593633 T T T Cu
   0.0000000000000000    0.8137310724063671    0.6061268927593633 T T T Cu
   0.8333333333333331    0.5196022609269662    0.6188731072406367 T T T Cu
   0.3333333333333333    0.5196022609269662    0.6688731072406366 T T T Cu
   0.6666666666666666    0.4803977390730338    0.6061268927593633 T T T Cu
   0.1666666666666666    0.4803977390730338    0.6561268927593633 T T T Cu
   0.5000000000000000    0.1862689275936329    0.6188731072406367 T T T Cu
   0.0000000000000000    0.1862689275936329    0.6688731072406366 T T T Cu
   0.8333333333333333    0.1470644057397006    0.6561268927593633 T T T Cu
   0.3333333333333333    0.1470644057397006    0.6061268927593633 T T T Cu
