Al24 Zn12 Te48
1.0
   6.0863974572067736    0.0000000000000000   -6.0863974572067727
  -0.0000000000000068   24.0185787222139275   -6.0863974572067807
   0.0000000000000000    0.0000000000000000   42.6047822004474241
Al Zn Te Al Zn Te Al Zn Te
8 4 16 8 4 16 8 4 16
Selective dynamics
direct
   0.0000000000000000    0.1250000000000001    0.3494897959183674 T T T Al
   0.0000000000000000    0.6250000000000001    0.4209183673469388 F F F Al
   0.4999999999999999    0.0000000000000000    0.4030612244897959 F F F Al
   0.4999999999999999    0.5000000000000001    0.3316326530612245 T T T Al
   0.4999999999999999    0.3750000000000000    0.3852040816326531 T T T Al
   0.4999999999999999    0.8750000000000000    0.3137755102040816 T T T Al
   0.0000000000000000    0.2500000000000000    0.2959183673469388 T T T Al
   0.0000000000000000    0.7500000000000000    0.3673469387755102 T T T Al
   0.0000000000000000    0.0000000000000000    0.4030612244897959 F F F Zn
   0.0000000000000000    0.5000000000000000    0.3316326530612245 T T T Zn
   0.4999999999999999    0.2500000000000001    0.2959183673469388 T T T Zn
   0.4999999999999999    0.7500000000000000    0.3673469387755102 T T T Zn
   0.2595937613116702    0.1836899070404741    0.2898895187523284 T T T Te
   0.2595937613116702    0.6836899070404742    0.3613180901808999 T T T Te
   0.2645143914855836    0.0663100929595260    0.3418084706517158 T T T Te
   0.2645143914855836    0.5663100929595259    0.4132370420802873 F F F Te
   0.7354856085144162    0.0663100929595260    0.3404025763163119 T T T Te
   0.7354856085144162    0.5663100929595261    0.4118311477448834 F F F Te
   0.7404062386883298    0.1836899070404741    0.4258586179531131 F F F Te
   0.7404062386883298    0.6836899070404741    0.3544300465245417 T T T Te
   0.7595937613116700    0.4336899070404741    0.3256038044666142 T T T Te
   0.7595937613116700    0.9336899070404742    0.3970323758951856 F F F Te
   0.7645143914855835    0.3163100929595261    0.3775227563660015 T T T Te
   0.7645143914855835    0.8163100929595259    0.3060941849374301 T T T Te
   0.2354856085144163    0.3163100929595260    0.3761168620305977 T T T Te
   0.2354856085144163    0.8163100929595259    0.3046882906020262 T T T Te
   0.2404062386883299    0.4336899070404742    0.3187157608102559 T T T Te
   0.2404062386883299    0.9336899070404742    0.3901443322388274 T T T Te
   0.0000000000000000    0.1250000000000001    0.4923469387755102 F F F Al
   0.0000000000000000    0.6250000000000001    0.5637755102040816 F F F Al
   0.4999999999999999    0.0000000000000000    0.5459183673469388 F F F Al
   0.4999999999999999    0.5000000000000001    0.4744897959183673 F F F Al
   0.4999999999999999    0.3750000000000000    0.5280612244897960 F F F Al
   0.4999999999999999    0.8750000000000000    0.4566326530612245 F F F Al
   0.0000000000000000    0.2500000000000000    0.4387755102040816 F F F Al
   0.0000000000000000    0.7500000000000000    0.5102040816326531 F F F Al
   0.0000000000000000    0.0000000000000000    0.5459183673469388 F F F Zn
   0.0000000000000000    0.5000000000000000    0.4744897959183673 F F F Zn
   0.4999999999999999    0.2500000000000001    0.4387755102040816 F F F Zn
   0.4999999999999999    0.7500000000000000    0.5102040816326531 F F F Zn
   0.2595937613116702    0.1836899070404741    0.4327466616094713 F F F Te
   0.2595937613116702    0.6836899070404742    0.5041752330380427 F F F Te
   0.2645143914855836    0.0663100929595260    0.4846656135088587 F F F Te
   0.2645143914855836    0.5663100929595259    0.5560941849374301 F F F Te
   0.7354856085144162    0.0663100929595260    0.4832597191734548 F F F Te
   0.7354856085144162    0.5663100929595261    0.5546882906020262 F F F Te
   0.7404062386883298    0.1836899070404741    0.5687157608102560 F F F Te
   0.7404062386883298    0.6836899070404741    0.4972871893816845 F F F Te
   0.7595937613116700    0.4336899070404741    0.4684609473237570 F F F Te
   0.7595937613116700    0.9336899070404742    0.5398895187523285 F F F Te
   0.7645143914855835    0.3163100929595261    0.5203798992231443 F F F Te
   0.7645143914855835    0.8163100929595259    0.4489513277945729 F F F Te
   0.2354856085144163    0.3163100929595260    0.5189740048877405 F F F Te
   0.2354856085144163    0.8163100929595259    0.4475454334591691 F F F Te
   0.2404062386883299    0.4336899070404742    0.4615729036673988 F F F Te
   0.2404062386883299    0.9336899070404742    0.5330014750959702 F F F Te
   0.0000000000000000    0.1250000000000001    0.6352040816326531 T T T Al
   0.0000000000000000    0.6250000000000001    0.7066326530612245 T T T Al
   0.4999999999999999    0.0000000000000000    0.6887755102040816 T T T Al
   0.4999999999999999    0.5000000000000001    0.6173469387755102 T T T Al
   0.4999999999999999    0.3750000000000000    0.6709183673469388 T T T Al
   0.4999999999999999    0.8750000000000000    0.5994897959183674 F F F Al
   0.0000000000000000    0.2500000000000000    0.5816326530612245 F F F Al
   0.0000000000000000    0.7500000000000000    0.6530612244897959 T T T Al
   0.0000000000000000    0.0000000000000000    0.6887755102040816 T T T Zn
   0.0000000000000000    0.5000000000000000    0.6173469387755102 T T T Zn
   0.4999999999999999    0.2500000000000001    0.5816326530612245 F F F Zn
   0.4999999999999999    0.7500000000000000    0.6530612244897959 T T T Zn
   0.2595937613116702    0.1836899070404741    0.5756038044666141 F F F Te
   0.2595937613116702    0.6836899070404742    0.6470323758951856 T T T Te
   0.2645143914855836    0.0663100929595260    0.6275227563660015 T T T Te
   0.2645143914855836    0.5663100929595259    0.6989513277945729 T T T Te
   0.7354856085144162    0.0663100929595260    0.6261168620305977 T T T Te
   0.7354856085144162    0.5663100929595261    0.6975454334591691 T T T Te
   0.7404062386883298    0.1836899070404741    0.7115729036673988 T T T Te
   0.7404062386883298    0.6836899070404741    0.6401443322388274 T T T Te
   0.7595937613116700    0.4336899070404741    0.6113180901808999 T T T Te
   0.7595937613116700    0.9336899070404742    0.6827466616094713 T T T Te
   0.7645143914855835    0.3163100929595261    0.6632370420802872 T T T Te
   0.7645143914855835    0.8163100929595259    0.5918084706517157 F F F Te
   0.2354856085144163    0.3163100929595260    0.6618311477448834 T T T Te
   0.2354856085144163    0.8163100929595259    0.5904025763163119 F F F Te
   0.2404062386883299    0.4336899070404742    0.6044300465245416 F F F Te
   0.2404062386883299    0.9336899070404742    0.6758586179531131 T T T Te
