Al16 Zn8 Te32
1.0
   6.0863974572067745    0.0000000000000000    0.0000000000000004
   0.0000000000000039   24.0185787222139275   -6.0863974572067807
   0.0000000000000000    0.0000000000000000   30.4319872860338734
Al Zn Te Al Zn Te
8 4 16 8 4 16
Selective dynamics
direct
   0.0000000000000000    0.1250000000000001    0.4178571428571428 F F F Al
   0.0000000000000000    0.6250000000000001    0.3178571428571428 T T T Al
   0.4999999999999999    0.0000000000000000    0.3928571428571428 T T T Al
   0.4999999999999999    0.5000000000000001    0.4928571428571428 F F F Al
   0.4999999999999999    0.3750000000000000    0.3678571428571428 T T T Al
   0.4999999999999999    0.8750000000000000    0.4678571428571428 F F F Al
   0.0000000000000000    0.2500000000000000    0.3428571428571428 T T T Al
   0.0000000000000000    0.7500000000000000    0.4428571428571428 F F F Al
   0.0000000000000000    0.0000000000000000    0.4928571428571428 F F F Zn
   0.0000000000000000    0.5000000000000000    0.3928571428571428 T T T Zn
   0.4999999999999999    0.2500000000000001    0.4428571428571428 F F F Zn
   0.4999999999999999    0.7500000000000000    0.3428571428571428 T T T Zn
   0.2595937613116702    0.1836899070404741    0.4824980025623543 F F F Te
   0.2595937613116702    0.6836899070404742    0.3824980025623543 T T T Te
   0.2645143914855836    0.0663100929595260    0.3542004091867140 T T T Te
   0.2645143914855836    0.5663100929595259    0.4542004091867139 F F F Te
   0.7354856085144162    0.0663100929595260    0.4580379137113820 F F F Te
   0.7354856085144162    0.5663100929595261    0.3580379137113820 T T T Te
   0.7404062386883298    0.1836899070404741    0.3766922459681209 T T T Te
   0.7404062386883298    0.6836899070404741    0.4766922459681209 F F F Te
   0.7595937613116700    0.4336899070404741    0.4324980025623544 F F F Te
   0.7595937613116700    0.9336899070404742    0.3324980025623543 T T T Te
   0.7645143914855835    0.3163100929595260    0.3042004091867140 T T T Te
   0.7645143914855835    0.8163100929595259    0.4042004091867140 T T T Te
   0.2354856085144163    0.3163100929595260    0.4080379137113820 F F F Te
   0.2354856085144163    0.8163100929595259    0.3080379137113820 T T T Te
   0.2404062386883299    0.4336899070404742    0.3266922459681209 T T T Te
   0.2404062386883299    0.9336899070404742    0.4266922459681209 F F F Te
   0.0000000000000000    0.1250000000000001    0.6178571428571429 T T T Al
   0.0000000000000000    0.6250000000000001    0.5178571428571428 F F F Al
   0.4999999999999999    0.0000000000000000    0.5928571428571427 T T T Al
   0.4999999999999999    0.5000000000000001    0.6928571428571428 T T T Al
   0.4999999999999999    0.3750000000000000    0.5678571428571428 F F F Al
   0.4999999999999999    0.8750000000000000    0.6678571428571428 T T T Al
   0.0000000000000000    0.2500000000000000    0.5428571428571428 F F F Al
   0.0000000000000000    0.7500000000000000    0.6428571428571428 T T T Al
   0.0000000000000000    0.0000000000000000    0.6928571428571428 T T T Zn
   0.0000000000000000    0.5000000000000000    0.5928571428571429 T T T Zn
   0.4999999999999999    0.2500000000000001    0.6428571428571428 T T T Zn
   0.4999999999999999    0.7500000000000000    0.5428571428571428 F F F Zn
   0.2595937613116702    0.1836899070404741    0.6824980025623544 T T T Te
   0.2595937613116702    0.6836899070404742    0.5824980025623544 F F F Te
   0.2645143914855836    0.0663100929595260    0.5542004091867140 F F F Te
   0.2645143914855836    0.5663100929595259    0.6542004091867140 T T T Te
   0.7354856085144162    0.0663100929595260    0.6580379137113821 T T T Te
   0.7354856085144162    0.5663100929595261    0.5580379137113820 F F F Te
   0.7404062386883298    0.1836899070404741    0.5766922459681210 F F F Te
   0.7404062386883298    0.6836899070404741    0.6766922459681209 T T T Te
   0.7595937613116700    0.4336899070404741    0.6324980025623543 T T T Te
   0.7595937613116700    0.9336899070404742    0.5324980025623544 F F F Te
   0.7645143914855835    0.3163100929595260    0.5042004091867140 F F F Te
   0.7645143914855835    0.8163100929595259    0.6042004091867139 T T T Te
   0.2354856085144163    0.3163100929595260    0.6080379137113820 T T T Te
   0.2354856085144163    0.8163100929595259    0.5080379137113821 F F F Te
   0.2404062386883299    0.4336899070404742    0.5266922459681209 F F F Te
   0.2404062386883299    0.9336899070404742    0.6266922459681209 T T T Te
