Na24 In48 Au24
1.0
  10.4781797793760294    0.0000000000000000   -4.5734766174623056
  -0.0000000000000010   16.2418229581649314   -4.5734766174622994
   0.0000000000000000    0.0000000000000000   32.0143363222361259
Na In Au Na In Au Na In Au
8 16 8 8 16 8 8 16 8
Selective dynamics
direct
   0.0698299027627271    0.3750000000000001    0.3849757003946753 T T T Na
   0.0698299027627271    0.8750000000000000    0.3135471289661038 T T T Na
   0.4301700972372730    0.1250000000000000    0.3293100138910390 T T T Na
   0.4301700972372730    0.6250000000000000    0.4007385853196104 T T T Na
   0.5698299027627272    0.3750000000000000    0.3849757003946753 T T T Na
   0.5698299027627272    0.8749999999999999    0.3135471289661039 T T T Na
   0.9301700972372728    0.1250000000000000    0.3293100138910390 T T T Na
   0.9301700972372728    0.6250000000000000    0.4007385853196104 T T T Na
   0.1413679211293832    0.2232762547026325    0.3020920251188594 T T T In
   0.1413679211293832    0.7232762547026326    0.3735205965474308 T T T In
   0.3586320788706168    0.2767237452973674    0.4121936891668548 F F F In
   0.3586320788706168    0.7767237452973674    0.3407651177382834 T T T In
   0.3586320788706168    0.4732762547026326    0.2974154762247499 T T T In
   0.3586320788706168    0.9732762547026326    0.3688440476533213 T T T In
   0.1413679211293832    0.0267237452973675    0.4168702380609643 F F F In
   0.1413679211293832    0.5267237452973675    0.3454416666323930 T T T In
   0.6413679211293832    0.2232762547026325    0.3020920251188594 T T T In
   0.6413679211293832    0.7232762547026325    0.3735205965474308 T T T In
   0.8586320788706168    0.2767237452973674    0.4121936891668548 F F F In
   0.8586320788706168    0.7767237452973674    0.3407651177382834 T T T In
   0.8586320788706168    0.4732762547026325    0.2974154762247499 T T T In
   0.8586320788706168    0.9732762547026326    0.3688440476533213 T T T In
   0.6413679211293832    0.0267237452973674    0.4168702380609643 F F F In
   0.6413679211293832    0.5267237452973674    0.3454416666323930 T T T In
   0.2836218435333002    0.3750000000000000    0.3440888347904714 T T T Au
   0.2836218435333002    0.8750000000000000    0.4155174062190429 F F F Au
   0.2163781564666998    0.1250000000000000    0.3701968794952428 T T T Au
   0.2163781564666998    0.6250000000000000    0.2987683080666714 T T T Au
   0.7836218435333002    0.3749999999999999    0.3440888347904714 T T T Au
   0.7836218435333002    0.8749999999999999    0.4155174062190429 F F F Au
   0.7163781564666998    0.1250000000000000    0.3701968794952428 T T T Au
   0.7163781564666998    0.6250000000000000    0.2987683080666714 T T T Au
   0.0698299027627271    0.3750000000000001    0.5278328432518181 F F F Na
   0.0698299027627271    0.8750000000000000    0.4564042718232467 F F F Na
   0.4301700972372730    0.1250000000000000    0.4721671567481818 F F F Na
   0.4301700972372730    0.6250000000000000    0.5435957281767532 F F F Na
   0.5698299027627272    0.3750000000000000    0.5278328432518181 F F F Na
   0.5698299027627272    0.8749999999999999    0.4564042718232467 F F F Na
   0.9301700972372728    0.1250000000000000    0.4721671567481818 F F F Na
   0.9301700972372728    0.6250000000000000    0.5435957281767532 F F F Na
   0.1413679211293832    0.2232762547026325    0.4449491679760023 F F F In
   0.1413679211293832    0.7232762547026326    0.5163777394045737 F F F In
   0.3586320788706168    0.2767237452973674    0.5550508320239977 F F F In
   0.3586320788706168    0.7767237452973674    0.4836222605954263 F F F In
   0.3586320788706168    0.4732762547026326    0.4402726190818927 F F F In
   0.3586320788706168    0.9732762547026326    0.5117011905104641 F F F In
   0.1413679211293832    0.0267237452973675    0.5597273809181073 F F F In
   0.1413679211293832    0.5267237452973675    0.4882988094895358 F F F In
   0.6413679211293832    0.2232762547026325    0.4449491679760023 F F F In
   0.6413679211293832    0.7232762547026325    0.5163777394045737 F F F In
   0.8586320788706168    0.2767237452973674    0.5550508320239977 F F F In
   0.8586320788706168    0.7767237452973674    0.4836222605954263 F F F In
   0.8586320788706168    0.4732762547026325    0.4402726190818927 F F F In
   0.8586320788706168    0.9732762547026326    0.5117011905104641 F F F In
   0.6413679211293832    0.0267237452973674    0.5597273809181073 F F F In
   0.6413679211293832    0.5267237452973674    0.4882988094895358 F F F In
   0.2836218435333002    0.3750000000000000    0.4869459776476143 F F F Au
   0.2836218435333002    0.8750000000000000    0.5583745490761858 F F F Au
   0.2163781564666998    0.1250000000000000    0.5130540223523856 F F F Au
   0.2163781564666998    0.6250000000000000    0.4416254509238142 F F F Au
   0.7836218435333002    0.3749999999999999    0.4869459776476143 F F F Au
   0.7836218435333002    0.8749999999999999    0.5583745490761858 F F F Au
   0.7163781564666998    0.1250000000000000    0.5130540223523856 F F F Au
   0.7163781564666998    0.6250000000000000    0.4416254509238142 F F F Au
   0.0698299027627271    0.3750000000000001    0.6706899861089610 T T T Na
   0.0698299027627271    0.8750000000000000    0.5992614146803895 T T T Na
   0.4301700972372730    0.1250000000000000    0.6150242996053247 T T T Na
   0.4301700972372730    0.6250000000000000    0.6864528710338961 T T T Na
   0.5698299027627272    0.3750000000000000    0.6706899861089610 T T T Na
   0.5698299027627272    0.8749999999999999    0.5992614146803896 T T T Na
   0.9301700972372728    0.1250000000000000    0.6150242996053247 T T T Na
   0.9301700972372728    0.6250000000000000    0.6864528710338961 T T T Na
   0.1413679211293832    0.2232762547026325    0.5878063108331451 F F F In
   0.1413679211293832    0.7232762547026326    0.6592348822617164 T T T In
   0.3586320788706168    0.2767237452973674    0.6979079748811405 T T T In
   0.3586320788706168    0.7767237452973674    0.6264794034525691 T T T In
   0.3586320788706168    0.4732762547026326    0.5831297619390357 F F F In
   0.3586320788706168    0.9732762547026326    0.6545583333676070 T T T In
   0.1413679211293832    0.0267237452973675    0.7025845237752500 T T T In
   0.1413679211293832    0.5267237452973675    0.6311559523466787 T T T In
   0.6413679211293832    0.2232762547026325    0.5878063108331451 F F F In
   0.6413679211293832    0.7232762547026325    0.6592348822617164 T T T In
   0.8586320788706168    0.2767237452973674    0.6979079748811405 T T T In
   0.8586320788706168    0.7767237452973674    0.6264794034525691 T T T In
   0.8586320788706168    0.4732762547026325    0.5831297619390357 F F F In
   0.8586320788706168    0.9732762547026326    0.6545583333676070 T T T In
   0.6413679211293832    0.0267237452973674    0.7025845237752500 T T T In
   0.6413679211293832    0.5267237452973674    0.6311559523466787 T T T In
   0.2836218435333002    0.3750000000000000    0.6298031205047572 T T T Au
   0.2836218435333002    0.8750000000000000    0.7012316919333286 T T T Au
   0.2163781564666998    0.1250000000000000    0.6559111652095285 T T T Au
   0.2163781564666998    0.6250000000000000    0.5844825937809571 F F F Au
   0.7836218435333002    0.3749999999999999    0.6298031205047572 T T T Au
   0.7836218435333002    0.8749999999999999    0.7012316919333286 T T T Au
   0.7163781564666998    0.1250000000000000    0.6559111652095285 T T T Au
   0.7163781564666998    0.6250000000000000    0.5844825937809570 F F F Au
