Na16 In32 Au16
1.0
   4.5734766174623038    0.0000000000000000    0.0000000000000003
   0.0000000000000026   16.2418229581649314  -10.4781797793760330
   0.0000000000000000    0.0000000000000000   41.9127191175041247
Na In Au Na In Au
8 16 8 8 16 8
Selective dynamics
direct
   0.5000000000000000    0.1250000000000000    0.2637925243093182 T T T Na
   0.5000000000000000    0.6250000000000000    0.3887925243093182 F F F Na
   0.0000000000000000    0.3749999999999999    0.4862074756906818 F F F Na
   0.0000000000000000    0.8750000000000000    0.3612074756906818 F F F Na
   0.0000000000000000    0.1250000000000000    0.3887925243093182 F F F Na
   0.0000000000000000    0.6250000000000000    0.2637925243093182 T T T Na
   0.4999999999999999    0.3750000000000000    0.3612074756906818 F F F Na
   0.4999999999999999    0.8750000000000000    0.4862074756906818 F F F Na
   0.0000000000000000    0.2767237452973674    0.2838389560419960 T T T In
   0.0000000000000000    0.7767237452973674    0.4088389560419960 F F F In
   0.5000000000000000    0.2232762547026326    0.4661610439580040 F F F In
   0.5000000000000000    0.7232762547026326    0.3411610439580040 T T T In
   0.5000000000000000    0.0267237452973674    0.4170229166066877 F F F In
   0.5000000000000000    0.5267237452973674    0.2920229166066877 T T T In
   0.0000000000000000    0.4732762547026326    0.3329770833933123 T T T In
   0.0000000000000000    0.9732762547026326    0.4579770833933123 F F F In
   0.5000000000000000    0.2767237452973674    0.4088389560419960 F F F In
   0.5000000000000000    0.7767237452973674    0.2838389560419960 T T T In
   0.0000000000000000    0.2232762547026325    0.3411610439580040 T T T In
   0.0000000000000000    0.7232762547026326    0.4661610439580040 F F F In
   0.0000000000000000    0.0267237452973674    0.2920229166066877 T T T In
   0.0000000000000000    0.5267237452973674    0.4170229166066877 F F F In
   0.5000000000000000    0.4732762547026325    0.4579770833933123 F F F In
   0.5000000000000000    0.9732762547026325    0.3329770833933123 T T T In
   0.0000000000000000    0.1250000000000000    0.4603445391166749 F F F Au
   0.0000000000000000    0.6250000000000000    0.3353445391166749 T T T Au
   0.5000000000000000    0.3750000000000000    0.2896554608833251 T T T Au
   0.5000000000000000    0.8750000000000000    0.4146554608833251 F F F Au
   0.5000000000000000    0.1250000000000000    0.3353445391166749 T T T Au
   0.5000000000000000    0.6250000000000000    0.4603445391166749 F F F Au
   0.0000000000000000    0.3749999999999999    0.4146554608833251 F F F Au
   0.0000000000000000    0.8750000000000000    0.2896554608833251 T T T Au
   0.5000000000000000    0.1250000000000000    0.5137925243093182 F F F Na
   0.5000000000000000    0.6250000000000000    0.6387925243093182 F F F Na
   0.0000000000000000    0.3749999999999999    0.7362074756906818 T T T Na
   0.0000000000000000    0.8750000000000000    0.6112074756906818 F F F Na
   0.0000000000000000    0.1250000000000000    0.6387925243093182 F F F Na
   0.0000000000000000    0.6250000000000000    0.5137925243093182 F F F Na
   0.4999999999999999    0.3750000000000000    0.6112074756906818 F F F Na
   0.4999999999999999    0.8750000000000000    0.7362074756906818 T T T Na
   0.0000000000000000    0.2767237452973674    0.5338389560419960 F F F In
   0.0000000000000000    0.7767237452973674    0.6588389560419960 T T T In
   0.5000000000000000    0.2232762547026326    0.7161610439580040 T T T In
   0.5000000000000000    0.7232762547026326    0.5911610439580040 F F F In
   0.5000000000000000    0.0267237452973674    0.6670229166066877 T T T In
   0.5000000000000000    0.5267237452973674    0.5420229166066877 F F F In
   0.0000000000000000    0.4732762547026326    0.5829770833933123 F F F In
   0.0000000000000000    0.9732762547026326    0.7079770833933123 T T T In
   0.5000000000000000    0.2767237452973674    0.6588389560419960 T T T In
   0.5000000000000000    0.7767237452973674    0.5338389560419960 F F F In
   0.0000000000000000    0.2232762547026325    0.5911610439580040 F F F In
   0.0000000000000000    0.7232762547026326    0.7161610439580040 T T T In
   0.0000000000000000    0.0267237452973674    0.5420229166066877 F F F In
   0.0000000000000000    0.5267237452973674    0.6670229166066877 T T T In
   0.5000000000000000    0.4732762547026325    0.7079770833933123 T T T In
   0.5000000000000000    0.9732762547026325    0.5829770833933123 F F F In
   0.0000000000000000    0.1250000000000000    0.7103445391166749 T T T Au
   0.0000000000000000    0.6250000000000000    0.5853445391166749 F F F Au
   0.5000000000000000    0.3750000000000000    0.5396554608833251 F F F Au
   0.5000000000000000    0.8750000000000000    0.6646554608833251 T T T Au
   0.5000000000000000    0.1250000000000000    0.5853445391166749 F F F Au
   0.5000000000000000    0.6250000000000000    0.7103445391166749 T T T Au
   0.0000000000000000    0.3749999999999999    0.6646554608833251 T T T Au
   0.0000000000000000    0.8750000000000000    0.5396554608833251 F F F Au
