Na8 In16 Au8
1.0
   4.5734766174623038    0.0000000000000000    0.0000000000000003
   0.0000000000000017   10.4781797793760312    0.0000000000000006
   0.0000000000000000    0.0000000000000000   32.4836459163298557
Na In Au Na In Au
4 8 4 4 8 4
Selective dynamics
direct
   0.5000000000000000    0.0698299027627271    0.4375000000000000 F F F Na
   0.0000000000000000    0.4301700972372730    0.3125000000000000 T T T Na
   0.0000000000000000    0.5698299027627272    0.4375000000000000 F F F Na
   0.5000000000000001    0.9301700972372728    0.3125000000000000 T T T Na
   0.0000000000000000    0.1413679211293832    0.3616381273513163 F F F In
   0.5000000000000000    0.3586320788706168    0.3883618726486837 F F F In
   0.5000000000000000    0.3586320788706168    0.4866381273513163 F F F In
   0.0000000000000000    0.1413679211293832    0.2633618726486837 T T T In
   0.5000000000000000    0.6413679211293832    0.3616381273513163 F F F In
   0.0000000000000000    0.8586320788706168    0.3883618726486837 F F F In
   0.0000000000000000    0.8586320788706168    0.4866381273513163 F F F In
   0.5000000000000000    0.6413679211293832    0.2633618726486837 T T T In
   0.0000000000000000    0.2836218435333002    0.4375000000000000 F F F Au
   0.5000000000000000    0.2163781564666998    0.3125000000000000 T T T Au
   0.5000000000000000    0.7836218435333002    0.4375000000000000 F F F Au
   0.0000000000000000    0.7163781564666998    0.3125000000000000 T T T Au
   0.5000000000000000    0.0698299027627271    0.6875000000000000 T T T Na
   0.0000000000000000    0.4301700972372730    0.5625000000000000 F F F Na
   0.0000000000000000    0.5698299027627272    0.6875000000000000 T T T Na
   0.5000000000000001    0.9301700972372728    0.5625000000000000 F F F Na
   0.0000000000000000    0.1413679211293832    0.6116381273513163 F F F In
   0.5000000000000000    0.3586320788706168    0.6383618726486837 F F F In
   0.5000000000000000    0.3586320788706168    0.7366381273513163 T T T In
   0.0000000000000000    0.1413679211293832    0.5133618726486837 F F F In
   0.5000000000000000    0.6413679211293832    0.6116381273513163 F F F In
   0.0000000000000000    0.8586320788706168    0.6383618726486837 F F F In
   0.0000000000000000    0.8586320788706168    0.7366381273513163 T T T In
   0.5000000000000000    0.6413679211293832    0.5133618726486837 F F F In
   0.0000000000000000    0.2836218435333002    0.6875000000000000 T T T Au
   0.5000000000000000    0.2163781564666998    0.5625000000000000 F F F Au
   0.5000000000000000    0.7836218435333002    0.6875000000000000 T T T Au
   0.0000000000000000    0.7163781564666998    0.5625000000000000 F F F Au
