Al24 Cu12 Ir12
1.0
   8.1278902436745426    0.0000000000000000    0.0000000000000005
  -0.0000000000000003    5.2490973916132351   -5.1158688404664776
   0.0000000000000000    0.0000000000000000   40.9269507237317995
Al Cu Ir Al Cu Ir Al Cu Ir
8 4 4 8 4 4 8 4 4
Selective dynamics
direct
   0.0000000000000000    0.5000000000000000    0.4062500000000000 T T T Al
   0.0000000000000000    0.5000000000000001    0.3437500000000000 T T T Al
   0.7500000000000000    0.1720620714700232    0.3965077589337529 T T T Al
   0.2500000000000000    0.8279379285299768    0.3534922410662471 T T T Al
   0.5000000000000000    0.5000000000000000    0.3437500000000000 T T T Al
   0.5000000000000000    0.5000000000000000    0.4062500000000000 T T T Al
   0.2500000000000000    0.1720620714700232    0.3340077589337529 T T T Al
   0.7500000000000000    0.8279379285299768    0.4159922410662471 T T T Al
   0.0000000000000000    0.0000000000000000    0.3437500000000000 T T T Cu
   0.0000000000000000    0.0000000000000000    0.4062500000000000 T T T Cu
   0.5000000000000000    0.0000000000000000    0.4062500000000000 T T T Cu
   0.5000000000000000    0.0000000000000000    0.3437500000000000 T T T Cu
   0.2500000000000000    0.3194562747992578    0.4149320343499072 T T T Ir
   0.7500000000000000    0.6805437252007422    0.3350679656500928 T T T Ir
   0.7500000000000000    0.3194562747992578    0.3524320343499072 T T T Ir
   0.2500000000000000    0.6805437252007422    0.3975679656500928 T T T Ir
   0.0000000000000000    0.5000000000000000    0.5312500000000000 F F F Al
   0.0000000000000000    0.5000000000000001    0.4687500000000000 F F F Al
   0.7500000000000000    0.1720620714700232    0.5215077589337529 F F F Al
   0.2500000000000000    0.8279379285299768    0.4784922410662471 F F F Al
   0.5000000000000000    0.5000000000000000    0.4687500000000000 F F F Al
   0.5000000000000000    0.5000000000000000    0.5312500000000000 F F F Al
   0.2500000000000000    0.1720620714700232    0.4590077589337529 F F F Al
   0.7500000000000000    0.8279379285299768    0.5409922410662471 F F F Al
   0.0000000000000000    0.0000000000000000    0.4687500000000000 F F F Cu
   0.0000000000000000    0.0000000000000000    0.5312500000000000 F F F Cu
   0.5000000000000000    0.0000000000000000    0.5312500000000000 F F F Cu
   0.5000000000000000    0.0000000000000000    0.4687500000000000 F F F Cu
   0.2500000000000000    0.3194562747992578    0.5399320343499072 F F F Ir
   0.7500000000000000    0.6805437252007422    0.4600679656500928 F F F Ir
   0.7500000000000000    0.3194562747992578    0.4774320343499072 F F F Ir
   0.2500000000000000    0.6805437252007422    0.5225679656500928 F F F Ir
   0.0000000000000000    0.5000000000000000    0.6562500000000000 T T T Al
   0.0000000000000000    0.5000000000000001    0.5937500000000000 T T T Al
   0.7500000000000000    0.1720620714700232    0.6465077589337529 T T T Al
   0.2500000000000000    0.8279379285299768    0.6034922410662471 T T T Al
   0.5000000000000000    0.5000000000000000    0.5937500000000000 T T T Al
   0.5000000000000000    0.5000000000000000    0.6562500000000000 T T T Al
   0.2500000000000000    0.1720620714700232    0.5840077589337529 T T T Al
   0.7500000000000000    0.8279379285299768    0.6659922410662471 T T T Al
   0.0000000000000000    0.0000000000000000    0.5937500000000000 T T T Cu
   0.0000000000000000    0.0000000000000000    0.6562500000000000 T T T Cu
   0.5000000000000000    0.0000000000000000    0.6562500000000000 T T T Cu
   0.5000000000000000    0.0000000000000000    0.5937500000000000 T T T Cu
   0.2500000000000000    0.3194562747992578    0.6649320343499072 T T T Ir
   0.7500000000000000    0.6805437252007422    0.5850679656500928 T T T Ir
   0.7500000000000000    0.3194562747992578    0.6024320343499072 T T T Ir
   0.2500000000000000    0.6805437252007422    0.6475679656500928 T T T Ir
