Zr18 Sn24 Sb12
1.0
   7.6770358623158872    0.0000000000000000   -0.0514914575307552
  -0.0000000000000006    9.6810452940309375   -5.5818481486743972
   0.0000000000000000    0.0000000000000000   39.0729370407207952
Zr Sn Sb Zr Sn Sb Zr Sn Sb
6 8 4 6 8 4 6 8 4
Selective dynamics
direct
   0.1624956222473131    0.2524923140689808    0.3644686501687253 T T T Zr
   0.8375043777526869    0.2524923140689808    0.2949736303589203 T T T Zr
   0.5000000000000000    0.4945489920505892    0.3643006656897668 T T T Zr
   0.1624956222473131    0.7524923140689808    0.3644686501687252 T T T Zr
   0.8375043777526869    0.7524923140689808    0.2949736303589203 T T T Zr
   0.5000000000000000    0.9945489920505892    0.3643006656897668 T T T Zr
   0.5000000000000000    0.1642046891320561    0.3171086224156907 T T T Sn
   0.1697076651930942    0.0860851901938631    0.4123483184074008 F F F Sn
   0.8302923348069058    0.0860851901938631    0.3424062124416397 T T T Sn
   0.5000000000000000    0.3264607212710331    0.4117166270069731 F F F Sn
   0.5000000000000000    0.6642046891320561    0.3171086224156907 T T T Sn
   0.1697076651930942    0.5860851901938631    0.4123483184074008 F F F Sn
   0.8302923348069058    0.5860851901938631    0.3424062124416397 T T T Sn
   0.5000000000000000    0.8264607212710331    0.4117166270069731 F F F Sn
   0.1672515334204832    0.4188147895103143    0.3172749566342519 T T T Sb
   0.8327484665795168    0.4188147895103143    0.3896880311623460 F F F Sb
   0.1672515334204832    0.9188147895103143    0.3172749566342519 T T T Sb
   0.8327484665795168    0.9188147895103143    0.3896880311623460 F F F Sb
   0.1624956222473131    0.2524923140689808    0.5073257930258681 F F F Zr
   0.8375043777526869    0.2524923140689808    0.4378307732160631 F F F Zr
   0.5000000000000000    0.4945489920505892    0.5071578085469097 F F F Zr
   0.1624956222473131    0.7524923140689808    0.5073257930258681 F F F Zr
   0.8375043777526869    0.7524923140689808    0.4378307732160631 F F F Zr
   0.5000000000000000    0.9945489920505892    0.5071578085469097 F F F Zr
   0.5000000000000000    0.1642046891320561    0.4599657652728335 F F F Sn
   0.1697076651930942    0.0860851901938631    0.5552054612645436 F F F Sn
   0.8302923348069058    0.0860851901938631    0.4852633552987825 F F F Sn
   0.5000000000000000    0.3264607212710331    0.5545737698641160 F F F Sn
   0.5000000000000000    0.6642046891320561    0.4599657652728335 F F F Sn
   0.1697076651930942    0.5860851901938631    0.5552054612645436 F F F Sn
   0.8302923348069058    0.5860851901938631    0.4852633552987825 F F F Sn
   0.5000000000000000    0.8264607212710331    0.5545737698641160 F F F Sn
   0.1672515334204832    0.4188147895103143    0.4601320994913948 F F F Sb
   0.8327484665795168    0.4188147895103143    0.5325451740194889 F F F Sb
   0.1672515334204832    0.9188147895103143    0.4601320994913948 F F F Sb
   0.8327484665795168    0.9188147895103143    0.5325451740194889 F F F Sb
   0.1624956222473131    0.2524923140689808    0.6501829358830109 T T T Zr
   0.8375043777526869    0.2524923140689808    0.5806879160732059 F F F Zr
   0.5000000000000000    0.4945489920505892    0.6500149514040525 T T T Zr
   0.1624956222473131    0.7524923140689808    0.6501829358830109 T T T Zr
   0.8375043777526869    0.7524923140689808    0.5806879160732059 F F F Zr
   0.5000000000000000    0.9945489920505892    0.6500149514040525 T T T Zr
   0.5000000000000000    0.1642046891320561    0.6028229081299763 F F F Sn
   0.1697076651930942    0.0860851901938631    0.6980626041216865 T T T Sn
   0.8302923348069058    0.0860851901938631    0.6281204981559254 T T T Sn
   0.5000000000000000    0.3264607212710331    0.6974309127212588 T T T Sn
   0.5000000000000000    0.6642046891320561    0.6028229081299763 F F F Sn
   0.1697076651930942    0.5860851901938631    0.6980626041216865 T T T Sn
   0.8302923348069058    0.5860851901938631    0.6281204981559254 T T T Sn
   0.5000000000000000    0.8264607212710331    0.6974309127212588 T T T Sn
   0.1672515334204832    0.4188147895103143    0.6029892423485377 F F F Sb
   0.8327484665795168    0.4188147895103143    0.6754023168766317 T T T Sb
   0.1672515334204832    0.9188147895103143    0.6029892423485377 F F F Sb
   0.8327484665795168    0.9188147895103143    0.6754023168766317 T T T Sb
