Si8 Pt16
1.0
   3.9708037041281363    0.0000000000000000    0.0000000000000002
   0.0000000000000010    6.0067171983716570   -3.9708037041281372
   0.0000000000000000    0.0000000000000000   35.7372333371532278
Si Pt Si Pt Si Pt Si Pt
2 4 2 4 2 4 2 4
Selective dynamics
direct
   0.0000000000000000    0.0000000000000000    0.3703703703703703 T T T Si
   0.4999999999999999    0.5000000000000000    0.3703703703703703 T T T Si
   0.0000000000000000    0.2500000000000000    0.3425925925925926 T T T Pt
   0.4999999999999999    0.2500000000000000    0.2870370370370370 T T T Pt
   0.4999999999999999    0.7500000000000000    0.3425925925925926 T T T Pt
   0.0000000000000000    0.7500000000000000    0.2870370370370370 T T T Pt
   0.0000000000000000    0.0000000000000000    0.4814814814814815 F F F Si
   0.4999999999999999    0.5000000000000000    0.4814814814814815 F F F Si
   0.0000000000000000    0.2500000000000000    0.4537037037037037 F F F Pt
   0.4999999999999999    0.2500000000000000    0.3981481481481481 F F F Pt
   0.4999999999999999    0.7500000000000000    0.4537037037037037 F F F Pt
   0.0000000000000000    0.7500000000000000    0.3981481481481481 F F F Pt
   0.0000000000000000    0.0000000000000000    0.5925925925925926 F F F Si
   0.4999999999999999    0.5000000000000000    0.5925925925925926 F F F Si
   0.0000000000000000    0.2500000000000000    0.5648148148148148 F F F Pt
   0.4999999999999999    0.2500000000000000    0.5092592592592593 F F F Pt
   0.4999999999999999    0.7500000000000000    0.5648148148148148 F F F Pt
   0.0000000000000000    0.7500000000000000    0.5092592592592593 F F F Pt
   0.0000000000000000    0.0000000000000000    0.7037037037037037 T T T Si
   0.4999999999999999    0.5000000000000000    0.7037037037037037 T T T Si
   0.0000000000000000    0.2500000000000000    0.6759259259259259 T T T Pt
   0.4999999999999999    0.2500000000000000    0.6203703703703703 T T T Pt
   0.4999999999999999    0.7500000000000000    0.6759259259259259 T T T Pt
   0.0000000000000000    0.7500000000000000    0.6203703703703703 T T T Pt
