Ca32 Al16 Pd32
1.0
  15.1782700746294079    0.0000000000000000   -2.1844228778909693
   6.3128650173962564    7.4810497559403402    5.6072834719233002
   0.0000000000000000    0.0000000000000000   38.9585317490713479
Ca Al Pd Ca Al Pd
16 8 16 16 8 16
Selective dynamics
direct
   0.9342905839276625    0.7154881466919535    0.4866786028575049 F F F Ca
   0.4342905839276625    0.2154881466919536    0.3866786028575049 T T T Ca
   0.9342905839276625    0.4159306854527217    0.3870376307135601 T T T Ca
   0.4342905839276625    0.9159306854527216    0.4870376307135601 F F F Ca
   0.5657094160723375    0.7845118533080466    0.4133213971424951 T T T Ca
   0.0657094160723375    0.2845118533080466    0.3133213971424951 T T T Ca
   0.5657094160723375    0.0840693145472784    0.3129623692864399 T T T Ca
   0.0657094160723375    0.5840693145472786    0.4129623692864399 T T T Ca
   0.6842905839276625    0.4654881466919534    0.3366786028575049 T T T Ca
   0.1842905839276625    0.9654881466919534    0.4366786028575049 F F F Ca
   0.6842905839276625    0.1659306854527218    0.4370376307135601 F F F Ca
   0.1842905839276625    0.6659306854527216    0.3370376307135601 T T T Ca
   0.8157094160723375    0.0345118533080466    0.3633213971424950 T T T Ca
   0.3157094160723375    0.5345118533080468    0.4633213971424951 F F F Ca
   0.8157094160723375    0.3340693145472785    0.4629623692864399 F F F Ca
   0.3157094160723375    0.8340693145472784    0.3629623692864399 T T T Ca
   0.6896746334520429    0.8103253665479571    0.4879349266904086 F F F Al
   0.1896746334520429    0.3103253665479571    0.3879349266904086 T T T Al
   0.8103253665479571    0.6896746334520429    0.4120650733095914 T T T Al
   0.3103253665479571    0.1896746334520429    0.3120650733095914 T T T Al
   0.9396746334520429    0.0603253665479571    0.4379349266904086 F F F Al
   0.4396746334520430    0.5603253665479571    0.3379349266904086 T T T Al
   0.5603253665479571    0.4396746334520429    0.4620650733095914 F F F Al
   0.0603253665479571    0.9396746334520429    0.3620650733095914 T T T Al
   0.6840925218526941    0.6883862869519072    0.3616835391609591 T T T Pd
   0.1840925218526941    0.1883862869519071    0.4616835391609591 F F F Pd
   0.6840925218526941    0.9434286693427048    0.4119534695801185 T T T Pd
   0.1840925218526941    0.4434286693427045    0.3119534695801185 T T T Pd
   0.8159074781473059    0.8116137130480930    0.3383164608390409 T T T Pd
   0.3159074781473059    0.3116137130480929    0.4383164608390409 F F F Pd
   0.8159074781473059    0.5565713306572952    0.4880465304198814 F F F Pd
   0.3159074781473059    0.0565713306572955    0.3880465304198815 T T T Pd
   0.9340925218526941    0.9383862869519072    0.3116835391609591 T T T Pd
   0.4340925218526941    0.4383862869519073    0.4116835391609591 T T T Pd
   0.9340925218526941    0.1934286693427048    0.3619534695801185 T T T Pd
   0.4340925218526941    0.6934286693427049    0.4619534695801185 F F F Pd
   0.5659074781473059    0.5616137130480930    0.3883164608390409 T T T Pd
   0.0659074781473059    0.0616137130480929    0.4883164608390409 F F F Pd
   0.5659074781473059    0.3065713306572955    0.3380465304198815 T T T Pd
   0.0659074781473059    0.8065713306572957    0.4380465304198814 F F F Pd
   0.9342905839276625    0.7154881466919535    0.6866786028575049 T T T Ca
   0.4342905839276625    0.2154881466919536    0.5866786028575049 T T T Ca
   0.9342905839276625    0.4159306854527217    0.5870376307135601 T T T Ca
   0.4342905839276625    0.9159306854527216    0.6870376307135602 T T T Ca
   0.5657094160723375    0.7845118533080466    0.6133213971424951 T T T Ca
   0.0657094160723375    0.2845118533080466    0.5133213971424951 F F F Ca
   0.5657094160723375    0.0840693145472784    0.5129623692864399 F F F Ca
   0.0657094160723375    0.5840693145472786    0.6129623692864399 T T T Ca
   0.6842905839276625    0.4654881466919534    0.5366786028575049 F F F Ca
   0.1842905839276625    0.9654881466919534    0.6366786028575049 T T T Ca
   0.6842905839276625    0.1659306854527218    0.6370376307135601 T T T Ca
   0.1842905839276625    0.6659306854527216    0.5370376307135600 F F F Ca
   0.8157094160723375    0.0345118533080466    0.5633213971424951 F F F Ca
   0.3157094160723375    0.5345118533080468    0.6633213971424952 T T T Ca
   0.8157094160723375    0.3340693145472785    0.6629623692864399 T T T Ca
   0.3157094160723375    0.8340693145472784    0.5629623692864398 F F F Ca
   0.6896746334520429    0.8103253665479571    0.6879349266904087 T T T Al
   0.1896746334520429    0.3103253665479571    0.5879349266904086 T T T Al
   0.8103253665479571    0.6896746334520429    0.6120650733095914 T T T Al
   0.3103253665479571    0.1896746334520429    0.5120650733095914 F F F Al
   0.9396746334520429    0.0603253665479571    0.6379349266904086 T T T Al
   0.4396746334520430    0.5603253665479571    0.5379349266904087 F F F Al
   0.5603253665479571    0.4396746334520429    0.6620650733095914 T T T Al
   0.0603253665479571    0.9396746334520429    0.5620650733095914 F F F Al
   0.6840925218526941    0.6883862869519072    0.5616835391609591 F F F Pd
   0.1840925218526941    0.1883862869519071    0.6616835391609590 T T T Pd
   0.6840925218526941    0.9434286693427048    0.6119534695801185 T T T Pd
   0.1840925218526941    0.4434286693427045    0.5119534695801186 F F F Pd
   0.8159074781473059    0.8116137130480930    0.5383164608390409 F F F Pd
   0.3159074781473059    0.3116137130480929    0.6383164608390409 T T T Pd
   0.8159074781473059    0.5565713306572952    0.6880465304198815 T T T Pd
   0.3159074781473059    0.0565713306572955    0.5880465304198814 T T T Pd
   0.9340925218526941    0.9383862869519072    0.5116835391609591 F F F Pd
   0.4340925218526941    0.4383862869519073    0.6116835391609591 T T T Pd
   0.9340925218526941    0.1934286693427048    0.5619534695801185 F F F Pd
   0.4340925218526941    0.6934286693427049    0.6619534695801186 T T T Pd
   0.5659074781473059    0.5616137130480930    0.5883164608390410 T T T Pd
   0.0659074781473059    0.0616137130480929    0.6883164608390409 T T T Pd
   0.5659074781473059    0.3065713306572955    0.5380465304198815 F F F Pd
   0.0659074781473059    0.8065713306572957    0.6380465304198815 T T T Pd
