Ca32 Al16 Pd32
1.0
   5.8000325921426974    0.0000000000000000    0.0000000000000004
  -0.0000000000000009   15.2093060596501672    6.6353830036883448
   0.0000000000000000    0.0000000000000000   40.1178411160269519
Ca Al Pd Ca Al Pd
16 8 16 16 8 16
Selective dynamics
direct
   0.1314188321446750    0.3244405804897390    0.3188345375324692 T T T Ca
   0.1314188321446750    0.8244405804897391    0.4438345375324692 F F F Ca
   0.1314188321446750    0.4255594195102610    0.4686654624675307 F F F Ca
   0.1314188321446750    0.9255594195102611    0.3436654624675307 T T T Ca
   0.8685811678553250    0.1755594195102610    0.2811654624675307 T T T Ca
   0.8685811678553250    0.6755594195102611    0.4061654624675307 F F F Ca
   0.8685811678553250    0.0744405804897390    0.3813345375324692 F F F Ca
   0.8685811678553250    0.5744405804897390    0.5063345375324692 F F F Ca
   0.6314188321446750    0.3244405804897390    0.4438345375324692 F F F Ca
   0.6314188321446750    0.8244405804897391    0.3188345375324692 T T T Ca
   0.6314188321446750    0.4255594195102610    0.3436654624675307 T T T Ca
   0.6314188321446750    0.9255594195102611    0.4686654624675308 F F F Ca
   0.3685811678553251    0.1755594195102610    0.4061654624675307 F F F Ca
   0.3685811678553251    0.6755594195102611    0.2811654624675307 T T T Ca
   0.3685811678553251    0.0744405804897390    0.5063345375324692 F F F Ca
   0.3685811678553251    0.5744405804897390    0.3813345375324692 F F F Ca
   0.6206507330959141    0.3750000000000001    0.2687499999999999 T T T Al
   0.6206507330959141    0.8750000000000001    0.3937499999999999 F F F Al
   0.3793492669040859    0.1250000000000000    0.3312499999999999 T T T Al
   0.3793492669040859    0.6250000000000000    0.4562499999999999 F F F Al
   0.1206507330959141    0.3750000000000001    0.3937499999999999 F F F Al
   0.1206507330959141    0.8750000000000001    0.2687499999999999 T T T Al
   0.8793492669040858    0.1250000000000000    0.4562499999999999 F F F Al
   0.8793492669040858    0.6250000000000000    0.3312499999999999 T T T Al
   0.6318149562946118    0.4984019913783513    0.4560192043565624 F F F Pd
   0.6318149562946118    0.9984019913783514    0.3310192043565624 T T T Pd
   0.6318149562946118    0.2515980086216488    0.3314807956434375 T T T Pd
   0.6318149562946118    0.7515980086216488    0.4564807956434375 F F F Pd
   0.3681850437053882    0.0015980086216487    0.3939807956434375 F F F Pd
   0.3681850437053882    0.5015980086216487    0.2689807956434375 T T T Pd
   0.3681850437053882    0.2484019913783513    0.2685192043565624 T T T Pd
   0.3681850437053882    0.7484019913783513    0.3935192043565624 F F F Pd
   0.1318149562946118    0.4984019913783513    0.3310192043565624 T T T Pd
   0.1318149562946118    0.9984019913783514    0.4560192043565624 F F F Pd
   0.1318149562946118    0.2515980086216488    0.4564807956434375 F F F Pd
   0.1318149562946118    0.7515980086216488    0.3314807956434375 T T T Pd
   0.8681850437053882    0.0015980086216487    0.2689807956434375 T T T Pd
   0.8681850437053882    0.5015980086216487    0.3939807956434375 F F F Pd
   0.8681850437053882    0.2484019913783513    0.3935192043565624 F F F Pd
   0.8681850437053882    0.7484019913783513    0.2685192043565625 T T T Pd
   0.1314188321446750    0.3244405804897390    0.5688345375324692 F F F Ca
   0.1314188321446750    0.8244405804897391    0.6938345375324693 T T T Ca
   0.1314188321446750    0.4255594195102610    0.7186654624675308 T T T Ca
   0.1314188321446750    0.9255594195102611    0.5936654624675307 F F F Ca
   0.8685811678553250    0.1755594195102610    0.5311654624675307 F F F Ca
   0.8685811678553250    0.6755594195102611    0.6561654624675306 F F F Ca
   0.8685811678553250    0.0744405804897390    0.6313345375324693 F F F Ca
   0.8685811678553250    0.5744405804897390    0.7563345375324693 T T T Ca
   0.6314188321446750    0.3244405804897390    0.6938345375324693 T T T Ca
   0.6314188321446750    0.8244405804897391    0.5688345375324692 F F F Ca
   0.6314188321446750    0.4255594195102610    0.5936654624675307 F F F Ca
   0.6314188321446750    0.9255594195102611    0.7186654624675308 T T T Ca
   0.3685811678553251    0.1755594195102610    0.6561654624675308 F F F Ca
   0.3685811678553251    0.6755594195102611    0.5311654624675308 F F F Ca
   0.3685811678553251    0.0744405804897390    0.7563345375324693 T T T Ca
   0.3685811678553251    0.5744405804897390    0.6313345375324693 F F F Ca
   0.6206507330959141    0.3750000000000001    0.5187499999999999 F F F Al
   0.6206507330959141    0.8750000000000001    0.6437499999999998 F F F Al
   0.3793492669040859    0.1250000000000000    0.5812500000000000 F F F Al
   0.3793492669040859    0.6250000000000000    0.7062500000000000 T T T Al
   0.1206507330959141    0.3750000000000001    0.6437500000000000 F F F Al
   0.1206507330959141    0.8750000000000001    0.5187499999999999 F F F Al
   0.8793492669040858    0.1250000000000000    0.7062500000000000 T T T Al
   0.8793492669040858    0.6250000000000000    0.5812499999999999 F F F Al
   0.6318149562946118    0.4984019913783513    0.7060192043565625 T T T Pd
   0.6318149562946118    0.9984019913783514    0.5810192043565625 F F F Pd
   0.6318149562946118    0.2515980086216488    0.5814807956434375 F F F Pd
   0.6318149562946118    0.7515980086216488    0.7064807956434375 T T T Pd
   0.3681850437053882    0.0015980086216487    0.6439807956434376 F F F Pd
   0.3681850437053882    0.5015980086216487    0.5189807956434374 F F F Pd
   0.3681850437053882    0.2484019913783513    0.5185192043565625 F F F Pd
   0.3681850437053882    0.7484019913783513    0.6435192043565625 F F F Pd
   0.1318149562946118    0.4984019913783513    0.5810192043565624 F F F Pd
   0.1318149562946118    0.9984019913783514    0.7060192043565625 T T T Pd
   0.1318149562946118    0.2515980086216488    0.7064807956434376 T T T Pd
   0.1318149562946118    0.7515980086216488    0.5814807956434375 F F F Pd
   0.8681850437053882    0.0015980086216487    0.5189807956434376 F F F Pd
   0.8681850437053882    0.5015980086216487    0.6439807956434376 F F F Pd
   0.8681850437053882    0.2484019913783513    0.6435192043565625 F F F Pd
   0.8681850437053882    0.7484019913783513    0.5185192043565625 F F F Pd
