Mg12 Ag12 Sb12
1.0
   6.5626225100009323    0.0000000000000000   -6.5626225100009314
  -0.0000000000000004    6.5626225100009323   -6.5626225100009314
   0.0000000000000000    0.0000000000000000   45.9383575700065236
Mg Ag Sb Mg Ag Sb Mg Ag Sb
4 4 4 4 4 4 4 4 4
Selective dynamics
direct
   0.0000000000000000    0.0000000000000000    0.3690476190476191 T T T Mg
   0.5000000000000000    0.5000000000000001    0.3690476190476191 T T T Mg
   0.0000000000000000    0.5000000000000000    0.3690476190476191 T T T Mg
   0.5000000000000000    0.0000000000000000    0.3690476190476191 T T T Mg
   0.7500000000000000    0.7500000000000000    0.4047619047619048 T T T Ag
   0.2500000000000000    0.2500000000000001    0.4047619047619048 T T T Ag
   0.7500000000000000    0.2500000000000001    0.4047619047619048 T T T Ag
   0.2500000000000000    0.7500000000000000    0.4047619047619048 T T T Ag
   0.0000000000000000    0.0000000000000000    0.2976190476190476 T T T Sb
   0.5000000000000000    0.5000000000000000    0.2976190476190476 T T T Sb
   0.0000000000000000    0.5000000000000000    0.2976190476190476 T T T Sb
   0.5000000000000000    0.0000000000000001    0.2976190476190476 T T T Sb
   0.0000000000000000    0.0000000000000000    0.5119047619047619 F F F Mg
   0.5000000000000000    0.5000000000000001    0.5119047619047619 F F F Mg
   0.0000000000000000    0.5000000000000000    0.5119047619047619 F F F Mg
   0.5000000000000000    0.0000000000000000    0.5119047619047619 F F F Mg
   0.7500000000000000    0.7500000000000000    0.5476190476190477 F F F Ag
   0.2500000000000000    0.2500000000000001    0.5476190476190477 F F F Ag
   0.7500000000000000    0.2500000000000001    0.5476190476190477 F F F Ag
   0.2500000000000000    0.7500000000000000    0.5476190476190477 F F F Ag
   0.0000000000000000    0.0000000000000000    0.4404761904761905 F F F Sb
   0.5000000000000000    0.5000000000000000    0.4404761904761905 F F F Sb
   0.0000000000000000    0.5000000000000000    0.4404761904761905 F F F Sb
   0.5000000000000000    0.0000000000000001    0.4404761904761905 F F F Sb
   0.0000000000000000    0.0000000000000000    0.6547619047619048 T T T Mg
   0.5000000000000000    0.5000000000000001    0.6547619047619048 T T T Mg
   0.0000000000000000    0.5000000000000000    0.6547619047619048 T T T Mg
   0.5000000000000000    0.0000000000000000    0.6547619047619048 T T T Mg
   0.7500000000000000    0.7500000000000000    0.6904761904761905 T T T Ag
   0.2500000000000000    0.2500000000000001    0.6904761904761905 T T T Ag
   0.7500000000000000    0.2500000000000001    0.6904761904761905 T T T Ag
   0.2500000000000000    0.7500000000000000    0.6904761904761905 T T T Ag
   0.0000000000000000    0.0000000000000000    0.5833333333333333 T T T Sb
   0.5000000000000000    0.5000000000000000    0.5833333333333333 T T T Sb
   0.0000000000000000    0.5000000000000000    0.5833333333333333 T T T Sb
   0.5000000000000000    0.0000000000000001    0.5833333333333333 T T T Sb
