Ca24 Cd24 Ge24
1.0
  19.5302795864555314    0.0000000000000000    0.0000000000000012
   5.5800798818444379    4.8324909328237515    4.5099591578818661
   0.0000000000000000    0.0000000000000000   40.5896324209367947
Ca Cd Ge Ca Cd Ge Ca Cd Ge Ca Cd Ge
6 6 6 6 6 6 6 6 6 6 6 6
Selective dynamics
direct
   0.5000000000000000    0.9195415259892915    0.3453595835320540 T T T Ca
   0.0000000000000000    0.4195415259892915    0.2898040279764985 T T T Ca
   0.7097707629946458    0.8706877110160627    0.3507877851957462 T T T Ca
   0.2097707629946458    0.3706877110160627    0.2952322296401906 T T T Ca
   0.7902292370053543    0.2097707629946458    0.3131118905314592 T T T Ca
   0.2902292370053543    0.7097707629946458    0.3686674460870147 T T T Ca
   0.6270744040595174    0.3729255959404826    0.3505391313152550 T T T Cd
   0.1270744040595174    0.8729255959404826    0.2949835757596995 T T T Cd
   0.5000000000000000    0.2458511918809652    0.3646585095440903 T T T Cd
   0.0000000000000000    0.7458511918809652    0.3091029539885348 T T T Cd
   0.8729255959404827    0.3812232121785522    0.3496171739554695 T T T Cd
   0.3729255959404827    0.8812232121785522    0.2940616183999140 T T T Cd
   0.8333333333333334    0.8333333333333333    0.2993827160493828 T T T Ge
   0.3333333333333334    0.3333333333333334    0.3549382716049383 T T T Ge
   0.6666666666666667    0.6666666666666667    0.3179012345679013 T T T Ge
   0.1666666666666667    0.1666666666666666    0.3734567901234568 T T T Ge
   0.5000000000000000    0.5000000000000000    0.3919753086419753 F F F Ge
   0.0000000000000000    0.0000000000000000    0.3364197530864198 T T T Ge
   0.5000000000000000    0.9195415259892915    0.4564706946431651 F F F Ca
   0.0000000000000000    0.4195415259892915    0.4009151390876096 F F F Ca
   0.7097707629946458    0.8706877110160627    0.4618988963068573 F F F Ca
   0.2097707629946458    0.3706877110160627    0.4063433407513017 F F F Ca
   0.7902292370053543    0.2097707629946458    0.4242230016425703 F F F Ca
   0.2902292370053543    0.7097707629946458    0.4797785571981258 F F F Ca
   0.6270744040595174    0.3729255959404826    0.4616502424263662 F F F Cd
   0.1270744040595174    0.8729255959404826    0.4060946868708106 F F F Cd
   0.5000000000000000    0.2458511918809652    0.4757696206552015 F F F Cd
   0.0000000000000000    0.7458511918809652    0.4202140650996459 F F F Cd
   0.8729255959404827    0.3812232121785522    0.4607282850665806 F F F Cd
   0.3729255959404827    0.8812232121785522    0.4051727295110251 F F F Cd
   0.8333333333333334    0.8333333333333333    0.4104938271604939 F F F Ge
   0.3333333333333334    0.3333333333333334    0.4660493827160494 F F F Ge
   0.6666666666666667    0.6666666666666667    0.4290123456790124 F F F Ge
   0.1666666666666667    0.1666666666666666    0.4845679012345679 F F F Ge
   0.5000000000000000    0.5000000000000000    0.5030864197530864 F F F Ge
   0.0000000000000000    0.0000000000000000    0.4475308641975309 F F F Ge
   0.5000000000000000    0.9195415259892915    0.5675818057542763 F F F Ca
   0.0000000000000000    0.4195415259892915    0.5120262501987207 F F F Ca
   0.7097707629946458    0.8706877110160627    0.5730100074179684 F F F Ca
   0.2097707629946458    0.3706877110160627    0.5174544518624128 F F F Ca
   0.7902292370053543    0.2097707629946458    0.5353341127536814 F F F Ca
   0.2902292370053543    0.7097707629946458    0.5908896683092368 F F F Ca
   0.6270744040595174    0.3729255959404826    0.5727613535374773 F F F Cd
   0.1270744040595174    0.8729255959404826    0.5172057979819217 F F F Cd
   0.5000000000000000    0.2458511918809652    0.5868807317663125 F F F Cd
   0.0000000000000000    0.7458511918809652    0.5313251762107569 F F F Cd
   0.8729255959404827    0.3812232121785522    0.5718393961776918 F F F Cd
   0.3729255959404827    0.8812232121785522    0.5162838406221362 F F F Cd
   0.8333333333333334    0.8333333333333333    0.5216049382716050 F F F Ge
   0.3333333333333334    0.3333333333333334    0.5771604938271605 F F F Ge
   0.6666666666666667    0.6666666666666667    0.5401234567901234 F F F Ge
   0.1666666666666667    0.1666666666666666    0.5956790123456790 F F F Ge
   0.5000000000000000    0.5000000000000000    0.6141975308641976 F F F Ge
   0.0000000000000000    0.0000000000000000    0.5586419753086420 F F F Ge
   0.5000000000000000    0.9195415259892915    0.6786929168653874 T T T Ca
   0.0000000000000000    0.4195415259892915    0.6231373613098319 F F F Ca
   0.7097707629946458    0.8706877110160627    0.6841211185290794 T T T Ca
   0.2097707629946458    0.3706877110160627    0.6285655629735238 T T T Ca
   0.7902292370053543    0.2097707629946458    0.6464452238647924 T T T Ca
   0.2902292370053543    0.7097707629946458    0.7020007794203480 T T T Ca
   0.6270744040595174    0.3729255959404826    0.6838724646485883 T T T Cd
   0.1270744040595174    0.8729255959404826    0.6283169090930328 T T T Cd
   0.5000000000000000    0.2458511918809652    0.6979918428774237 T T T Cd
   0.0000000000000000    0.7458511918809652    0.6424362873218681 T T T Cd
   0.8729255959404827    0.3812232121785522    0.6829505072888029 T T T Cd
   0.3729255959404827    0.8812232121785522    0.6273949517332473 T T T Cd
   0.8333333333333334    0.8333333333333333    0.6327160493827161 T T T Ge
   0.3333333333333334    0.3333333333333334    0.6882716049382716 T T T Ge
   0.6666666666666667    0.6666666666666667    0.6512345679012346 T T T Ge
   0.1666666666666667    0.1666666666666666    0.7067901234567902 T T T Ge
   0.5000000000000000    0.5000000000000000    0.7253086419753086 T T T Ge
   0.0000000000000000    0.0000000000000000    0.6697530864197532 T T T Ge
