Sr6 Ni12 Sb12
1.0
   4.4743748814034969    0.0000000000000000    0.0000000000000003
   0.0000000000000017   10.8669437603762944   -4.4743748814034960
   0.0000000000000000    0.0000000000000000   31.3206241698244767
Sr Ni Sb Sr Ni Sb Sr Ni Sb
2 4 4 2 4 4 2 4 4
Selective dynamics
direct
   0.0000000000000000    0.0000000000000000    0.4142857142857143 F F F Sr
   0.5000000000000000    0.4999999999999999    0.4142857142857143 F F F Sr
   0.0000000000000000    0.2500000000000000    0.3785714285714286 T T T Ni
   0.5000000000000000    0.2500000000000000    0.3071428571428572 T T T Ni
   0.5000000000000000    0.7500000000000000    0.3785714285714286 T T T Ni
   0.0000000000000000    0.7500000000000000    0.3071428571428572 T T T Ni
   0.0000000000000000    0.3597340231029237    0.3228191461575606 T T T Sb
   0.5000000000000000    0.1402659768970763    0.3628951395567252 T T T Sb
   0.5000000000000000    0.8597340231029237    0.3228191461575606 T T T Sb
   0.0000000000000000    0.6402659768970763    0.3628951395567252 T T T Sb
   0.0000000000000000    0.0000000000000000    0.5571428571428572 F F F Sr
   0.5000000000000000    0.4999999999999999    0.5571428571428572 F F F Sr
   0.0000000000000000    0.2500000000000000    0.5214285714285715 F F F Ni
   0.5000000000000000    0.2500000000000000    0.4500000000000000 F F F Ni
   0.5000000000000000    0.7500000000000000    0.5214285714285715 F F F Ni
   0.0000000000000000    0.7500000000000000    0.4500000000000000 F F F Ni
   0.0000000000000000    0.3597340231029237    0.4656762890147034 F F F Sb
   0.5000000000000000    0.1402659768970763    0.5057522824138680 F F F Sb
   0.5000000000000000    0.8597340231029237    0.4656762890147034 F F F Sb
   0.0000000000000000    0.6402659768970763    0.5057522824138680 F F F Sb
   0.0000000000000000    0.0000000000000000    0.7000000000000000 T T T Sr
   0.5000000000000000    0.4999999999999999    0.7000000000000000 T T T Sr
   0.0000000000000000    0.2500000000000000    0.6642857142857144 T T T Ni
   0.5000000000000000    0.2500000000000000    0.5928571428571429 F F F Ni
   0.5000000000000000    0.7500000000000000    0.6642857142857144 T T T Ni
   0.0000000000000000    0.7500000000000000    0.5928571428571429 F F F Ni
   0.0000000000000000    0.3597340231029237    0.6085334318718463 T T T Sb
   0.5000000000000000    0.1402659768970763    0.6486094252710108 T T T Sb
   0.5000000000000000    0.8597340231029237    0.6085334318718463 T T T Sb
   0.0000000000000000    0.6402659768970763    0.6486094252710108 T T T Sb
