Na48 Zn8 Sn16
1.0
  10.0234005639181643    0.0000000000000000   -1.4706872066207832
  -0.0000000000000007   11.0022414934412556    9.4139713829344078
   0.0000000000000000    0.0000000000000000   47.0698569146720374
Na Zn Sn Na Zn Sn
24 4 8 24 4 8
Selective dynamics
direct
   0.0284644856527018    0.2500000000000000    0.3811260562661769 T T T Na
   0.0284644856527018    0.7500000000000000    0.4811260562661769 F F F Na
   0.3264414189069811    0.2500000000000000    0.3177360221523824 T T T Na
   0.3264414189069811    0.7500000000000000    0.4177360221523824 F F F Na
   0.2063609323944036    0.2500000000000000    0.4498261090506443 F F F Na
   0.2063609323944036    0.7500000000000000    0.3498261090506443 T T T Na
   0.1735585810930189    0.0000000000000000    0.4044862000698398 F F F Na
   0.1735585810930189    0.5000000000000000    0.3044862000698398 T T T Na
   0.4715355143472983    0.0000000000000000    0.3410961659560453 T T T Na
   0.4715355143472983    0.5000000000000000    0.4410961659560453 F F F Na
   0.2936390676055964    0.0000000000000000    0.4723961131715779 F F F Na
   0.2936390676055964    0.5000000000000000    0.3723961131715779 T T T Na
   0.5284644856527017    0.0000000000000000    0.4311260562661769 F F F Na
   0.5284644856527015    0.5000000000000000    0.3311260562661769 T T T Na
   0.8264414189069811    0.0000000000000000    0.3677360221523824 T T T Na
   0.8264414189069811    0.5000000000000000    0.4677360221523824 F F F Na
   0.7063609323944036    0.0000000000000000    0.2998261090506443 T T T Na
   0.7063609323944036    0.5000000000000000    0.3998261090506443 F F F Na
   0.6735585810930189    0.2500000000000000    0.3544862000698398 T T T Na
   0.6735585810930189    0.7500000000000000    0.4544862000698398 F F F Na
   0.9715355143472983    0.2500000000000000    0.4910961659560453 F F F Na
   0.9715355143472983    0.7500000000000000    0.3910961659560452 F F F Na
   0.7936390676055964    0.2500000000000000    0.4223961131715779 F F F Na
   0.7936390676055964    0.7500000000000000    0.3223961131715779 T T T Na
   0.0000000000000000    0.0000000000000000    0.4861111111111111 F F F Zn
   0.0000000000000000    0.5000000000000000    0.3861111111111111 F F F Zn
   0.5000000000000000    0.2500000000000000    0.4361111111111111 F F F Zn
   0.4999999999999999    0.7500000000000000    0.3361111111111111 T T T Zn
   0.3531949415113473    0.2500000000000000    0.3858532242609908 F F F Sn
   0.3531949415113474    0.7500000000000000    0.4858532242609908 F F F Sn
   0.1468050584886526    0.0000000000000000    0.3363689979612314 T T T Sn
   0.1468050584886526    0.5000000000000000    0.4363689979612314 F F F Sn
   0.8531949415113473    0.0000000000000000    0.4358532242609908 F F F Sn
   0.8531949415113473    0.5000000000000000    0.3358532242609908 T T T Sn
   0.6468050584886527    0.2500000000000000    0.4863689979612314 F F F Sn
   0.6468050584886527    0.7500000000000000    0.3863689979612314 F F F Sn
   0.0284644856527018    0.2500000000000000    0.5811260562661769 F F F Na
   0.0284644856527018    0.7500000000000000    0.6811260562661769 T T T Na
   0.3264414189069811    0.2500000000000000    0.5177360221523823 F F F Na
   0.3264414189069811    0.7500000000000000    0.6177360221523824 T T T Na
   0.2063609323944036    0.2500000000000000    0.6498261090506443 T T T Na
   0.2063609323944036    0.7500000000000000    0.5498261090506443 F F F Na
   0.1735585810930189    0.0000000000000000    0.6044862000698399 F F F Na
   0.1735585810930189    0.5000000000000000    0.5044862000698398 F F F Na
   0.4715355143472983    0.0000000000000000    0.5410961659560454 F F F Na
   0.4715355143472983    0.5000000000000000    0.6410961659560453 T T T Na
   0.2936390676055964    0.0000000000000000    0.6723961131715779 T T T Na
   0.2936390676055964    0.5000000000000000    0.5723961131715779 F F F Na
   0.5284644856527017    0.0000000000000000    0.6311260562661769 T T T Na
   0.5284644856527015    0.5000000000000000    0.5311260562661769 F F F Na
   0.8264414189069811    0.0000000000000000    0.5677360221523824 F F F Na
   0.8264414189069811    0.5000000000000000    0.6677360221523824 T T T Na
   0.7063609323944036    0.0000000000000000    0.4998261090506443 F F F Na
   0.7063609323944036    0.5000000000000000    0.5998261090506443 F F F Na
   0.6735585810930189    0.2500000000000000    0.5544862000698398 F F F Na
   0.6735585810930189    0.7500000000000000    0.6544862000698398 T T T Na
   0.9715355143472983    0.2500000000000000    0.6910961659560453 T T T Na
   0.9715355143472983    0.7500000000000000    0.5910961659560453 F F F Na
   0.7936390676055964    0.2500000000000000    0.6223961131715779 T T T Na
   0.7936390676055964    0.7500000000000000    0.5223961131715780 F F F Na
   0.0000000000000000    0.0000000000000000    0.6861111111111111 T T T Zn
   0.0000000000000000    0.5000000000000000    0.5861111111111111 F F F Zn
   0.5000000000000000    0.2500000000000000    0.6361111111111111 T T T Zn
   0.4999999999999999    0.7500000000000000    0.5361111111111111 F F F Zn
   0.3531949415113473    0.2500000000000000    0.5858532242609908 F F F Sn
   0.3531949415113474    0.7500000000000000    0.6858532242609908 T T T Sn
   0.1468050584886526    0.0000000000000000    0.5363689979612314 F F F Sn
   0.1468050584886526    0.5000000000000000    0.6363689979612315 T T T Sn
   0.8531949415113473    0.0000000000000000    0.6358532242609909 T T T Sn
   0.8531949415113473    0.5000000000000000    0.5358532242609908 F F F Sn
   0.6468050584886527    0.2500000000000000    0.6863689979612314 T T T Sn
   0.6468050584886527    0.7500000000000000    0.5863689979612314 F F F Sn
