Ca18 Cd18 Sn18
1.0
  20.4822986290908666    0.0000000000000000    0.0000000000000013
   5.8520853225973903    5.0680545544833917    4.7188057580051259
   0.0000000000000000    0.0000000000000000   37.7504460640410073
Ca Cd Sn Ca Cd Sn Ca Cd Sn
6 6 6 6 6 6 6 6 6
Selective dynamics
direct
   0.7875073650612024    0.2124926349387977    0.4213550872993170 T T T Ca
   0.2875073650612024    0.7124926349387977    0.3588550872993170 T T T Ca
   0.5000000000000000    0.9249852698775953    0.3322935079319673 T T T Ca
   0.0000000000000001    0.4249852698775954    0.3947935079319673 T T T Ca
   0.7124926349387978    0.8625220951836071    0.3401014047687158 T T T Ca
   0.2124926349387978    0.3625220951836071    0.4026014047687158 T T T Ca
   0.5000000000000000    0.2479375929187739    0.3544244675518199 T T T Cd
   0.0000000000000000    0.7479375929187739    0.4169244675518199 T T T Cd
   0.8739687964593871    0.3780936106218393    0.3381549653389367 T T T Cd
   0.3739687964593871    0.8780936106218393    0.4006549653389367 T T T Cd
   0.6260312035406130    0.3739687964593870    0.3386705671092433 T T T Cd
   0.1260312035406131    0.8739687964593870    0.4011705671092433 T T T Cd
   0.4999999999999999    0.4999999999999999    0.3854166666666667 T T T Sn
   0.0000000000000000    0.0000000000000000    0.3229166666666667 T T T Sn
   0.6666666666666667    0.6666666666666669    0.4270833333333333 T T T Sn
   0.1666666666666668    0.1666666666666669    0.3645833333333333 T T T Sn
   0.8333333333333334    0.8333333333333335    0.4062500000000000 T T T Sn
   0.3333333333333334    0.3333333333333336    0.3437500000000000 T T T Sn
   0.7875073650612024    0.2124926349387977    0.5463550872993170 F F F Ca
   0.2875073650612024    0.7124926349387977    0.4838550872993170 F F F Ca
   0.5000000000000000    0.9249852698775953    0.4572935079319673 F F F Ca
   0.0000000000000001    0.4249852698775954    0.5197935079319673 F F F Ca
   0.7124926349387978    0.8625220951836071    0.4651014047687158 F F F Ca
   0.2124926349387978    0.3625220951836071    0.5276014047687159 F F F Ca
   0.5000000000000000    0.2479375929187739    0.4794244675518199 F F F Cd
   0.0000000000000000    0.7479375929187739    0.5419244675518199 F F F Cd
   0.8739687964593871    0.3780936106218393    0.4631549653389367 F F F Cd
   0.3739687964593871    0.8780936106218393    0.5256549653389367 F F F Cd
   0.6260312035406130    0.3739687964593870    0.4636705671092433 F F F Cd
   0.1260312035406131    0.8739687964593870    0.5261705671092434 F F F Cd
   0.4999999999999999    0.4999999999999999    0.5104166666666667 F F F Sn
   0.0000000000000000    0.0000000000000000    0.4479166666666667 F F F Sn
   0.6666666666666667    0.6666666666666669    0.5520833333333333 F F F Sn
   0.1666666666666668    0.1666666666666669    0.4895833333333333 F F F Sn
   0.8333333333333334    0.8333333333333335    0.5312500000000000 F F F Sn
   0.3333333333333334    0.3333333333333336    0.4687500000000000 F F F Sn
   0.7875073650612024    0.2124926349387977    0.6713550872993170 T T T Ca
   0.2875073650612024    0.7124926349387977    0.6088550872993170 T T T Ca
   0.5000000000000000    0.9249852698775953    0.5822935079319673 T T T Ca
   0.0000000000000001    0.4249852698775954    0.6447935079319673 T T T Ca
   0.7124926349387978    0.8625220951836071    0.5901014047687159 T T T Ca
   0.2124926349387978    0.3625220951836071    0.6526014047687159 T T T Ca
   0.5000000000000000    0.2479375929187739    0.6044244675518200 T T T Cd
   0.0000000000000000    0.7479375929187739    0.6669244675518199 T T T Cd
   0.8739687964593871    0.3780936106218393    0.5881549653389367 T T T Cd
   0.3739687964593871    0.8780936106218393    0.6506549653389367 T T T Cd
   0.6260312035406130    0.3739687964593870    0.5886705671092434 T T T Cd
   0.1260312035406131    0.8739687964593870    0.6511705671092434 T T T Cd
   0.4999999999999999    0.4999999999999999    0.6354166666666667 T T T Sn
   0.0000000000000000    0.0000000000000000    0.5729166666666667 T T T Sn
   0.6666666666666667    0.6666666666666669    0.6770833333333333 T T T Sn
   0.1666666666666668    0.1666666666666669    0.6145833333333333 T T T Sn
   0.8333333333333334    0.8333333333333335    0.6562500000000000 T T T Sn
   0.3333333333333334    0.3333333333333336    0.5937500000000000 T T T Sn
