Mg12 Mn12 Ge12
1.0
   3.8799299488089729    0.0000000000000000    0.0000000000000002
   0.0000000000000021   13.0458385896302644   -3.8799299488089702
   0.0000000000000000    0.0000000000000000   31.0394395904717832
Mg Mn Ge Mg Mn Ge Mg Mn Ge
4 4 4 4 4 4 4 4 4
Selective dynamics
direct
   0.5000000000000000    0.0842128584976258    0.3230266073122032 T T T Mg
   0.5000000000000000    0.5842128584976258    0.3855266073122032 T T T Mg
   0.0000000000000000    0.4157871415023743    0.4269733926877968 F F F Mg
   0.0000000000000000    0.9157871415023744    0.3644733926877968 T T T Mg
   0.0000000000000000    0.2500000000000000    0.3437500000000000 T T T Mn
   0.0000000000000000    0.7500000000000001    0.4062500000000000 T T T Mn
   0.5000000000000000    0.2500000000000001    0.4062500000000000 T T T Mn
   0.5000000000000000    0.7500000000000001    0.3437500000000000 T T T Mn
   0.0000000000000000    0.1305512690050250    0.3913189086256281 T T T Ge
   0.0000000000000000    0.6305512690050251    0.3288189086256281 T T T Ge
   0.5000000000000000    0.3694487309949751    0.3586810913743719 T T T Ge
   0.5000000000000000    0.8694487309949751    0.4211810913743719 T T T Ge
   0.5000000000000000    0.0842128584976258    0.4480266073122032 F F F Mg
   0.5000000000000000    0.5842128584976258    0.5105266073122032 F F F Mg
   0.0000000000000000    0.4157871415023743    0.5519733926877968 F F F Mg
   0.0000000000000000    0.9157871415023744    0.4894733926877968 F F F Mg
   0.0000000000000000    0.2500000000000000    0.4687500000000000 F F F Mn
   0.0000000000000000    0.7500000000000001    0.5312500000000000 F F F Mn
   0.5000000000000000    0.2500000000000001    0.5312500000000000 F F F Mn
   0.5000000000000000    0.7500000000000001    0.4687500000000000 F F F Mn
   0.0000000000000000    0.1305512690050250    0.5163189086256281 F F F Ge
   0.0000000000000000    0.6305512690050251    0.4538189086256281 F F F Ge
   0.5000000000000000    0.3694487309949751    0.4836810913743719 F F F Ge
   0.5000000000000000    0.8694487309949751    0.5461810913743719 F F F Ge
   0.5000000000000000    0.0842128584976258    0.5730266073122032 F F F Mg
   0.5000000000000000    0.5842128584976258    0.6355266073122032 T T T Mg
   0.0000000000000000    0.4157871415023743    0.6769733926877968 T T T Mg
   0.0000000000000000    0.9157871415023744    0.6144733926877968 T T T Mg
   0.0000000000000000    0.2500000000000000    0.5937500000000000 T T T Mn
   0.0000000000000000    0.7500000000000001    0.6562500000000000 T T T Mn
   0.5000000000000000    0.2500000000000001    0.6562500000000000 T T T Mn
   0.5000000000000000    0.7500000000000001    0.5937500000000000 T T T Mn
   0.0000000000000000    0.1305512690050250    0.6413189086256281 T T T Ge
   0.0000000000000000    0.6305512690050251    0.5788189086256281 T T T Ge
   0.5000000000000000    0.3694487309949751    0.6086810913743719 T T T Ge
   0.5000000000000000    0.8694487309949751    0.6711810913743719 T T T Ge
