Zr8 Al8 Fe32
1.0
   6.8384363503645735    0.0000000000000000    0.0000000000000004
   0.0000000000000011    6.8384363503645735    0.0000000000000004
   0.0000000000000000    0.0000000000000000   34.1921817518228650
Zr Al Fe Zr Al Fe
4 4 16 4 4 16
Selective dynamics
direct
   0.0000000000000000    0.0000000000000000    0.3583333333333333 T T T Zr
   0.4999999999999999    0.4999999999999999    0.3583333333333333 T T T Zr
   0.0000000000000000    0.4999999999999999    0.4583333333333333 F F F Zr
   0.4999999999999999    0.0000000000000000    0.4583333333333333 F F F Zr
   0.7499999999999999    0.7500000000000000    0.3083333333333333 T T T Al
   0.2500000000000000    0.2500000000000000    0.3083333333333333 T T T Al
   0.7499999999999999    0.2500000000000000    0.4083333333333333 F F F Al
   0.2500000000000000    0.7500000000000000    0.4083333333333333 F F F Al
   0.3758600560041075    0.8758600560041073    0.3335053445341548 T T T Fe
   0.3758600560041075    0.6241399439958923    0.4831613221325118 F F F Fe
   0.1241399439958926    0.6241399439958923    0.3335053445341548 T T T Fe
   0.1241399439958925    0.8758600560041075    0.4831613221325118 F F F Fe
   0.8758600560041075    0.3758600560041074    0.3335053445341548 T T T Fe
   0.8758600560041075    0.1241399439958926    0.4831613221325118 F F F Fe
   0.6241399439958926    0.1241399439958926    0.3335053445341548 T T T Fe
   0.6241399439958925    0.3758600560041074    0.4831613221325118 F F F Fe
   0.3758600560041075    0.3758600560041074    0.4335053445341548 F F F Fe
   0.3758600560041075    0.1241399439958926    0.3831613221325118 T T T Fe
   0.1241399439958926    0.1241399439958926    0.4335053445341548 F F F Fe
   0.1241399439958925    0.3758600560041074    0.3831613221325118 T T T Fe
   0.8758600560041075    0.8758600560041074    0.4335053445341548 F F F Fe
   0.8758600560041075    0.6241399439958925    0.3831613221325118 T T T Fe
   0.6241399439958926    0.6241399439958925    0.4335053445341548 F F F Fe
   0.6241399439958925    0.8758600560041074    0.3831613221325118 T T T Fe
   0.0000000000000000    0.0000000000000000    0.5583333333333333 F F F Zr
   0.4999999999999999    0.4999999999999999    0.5583333333333333 F F F Zr
   0.0000000000000000    0.4999999999999999    0.6583333333333333 T T T Zr
   0.4999999999999999    0.0000000000000000    0.6583333333333333 T T T Zr
   0.7499999999999999    0.7500000000000000    0.5083333333333333 F F F Al
   0.2500000000000000    0.2500000000000000    0.5083333333333333 F F F Al
   0.7499999999999999    0.2500000000000000    0.6083333333333333 T T T Al
   0.2500000000000000    0.7500000000000000    0.6083333333333333 T T T Al
   0.3758600560041075    0.8758600560041073    0.5335053445341549 F F F Fe
   0.3758600560041075    0.6241399439958923    0.6831613221325118 T T T Fe
   0.1241399439958926    0.6241399439958923    0.5335053445341549 F F F Fe
   0.1241399439958925    0.8758600560041075    0.6831613221325118 T T T Fe
   0.8758600560041075    0.3758600560041074    0.5335053445341549 F F F Fe
   0.8758600560041075    0.1241399439958926    0.6831613221325118 T T T Fe
   0.6241399439958926    0.1241399439958926    0.5335053445341549 F F F Fe
   0.6241399439958925    0.3758600560041074    0.6831613221325118 T T T Fe
   0.3758600560041075    0.3758600560041074    0.6335053445341547 T T T Fe
   0.3758600560041075    0.1241399439958926    0.5831613221325118 F F F Fe
   0.1241399439958926    0.1241399439958926    0.6335053445341549 T T T Fe
   0.1241399439958925    0.3758600560041074    0.5831613221325118 F F F Fe
   0.8758600560041075    0.8758600560041074    0.6335053445341549 T T T Fe
   0.8758600560041075    0.6241399439958925    0.5831613221325118 F F F Fe
   0.6241399439958926    0.6241399439958925    0.6335053445341549 T T T Fe
   0.6241399439958925    0.8758600560041074    0.5831613221325118 F F F Fe
