Hf60 Ni10 Bi20
1.0
  20.6904389815213747    0.0000000000000000    0.0000000000000013
   5.9115539947203910    5.1195559352712463    7.3435742584349093
   0.0000000000000000    0.0000000000000000   47.7332326798269193
Hf Ni Bi Hf Ni Bi Hf Ni Bi Hf Ni Bi Hf Ni Bi
12 2 4 12 2 4 12 2 4 12 2 4 12 2 4
Selective dynamics
direct
   0.5000000000000000    0.2652102681678485    0.3737283348117840 T T T Hf
   0.0000000000000000    0.7652102681678485    0.3737283348117840 T T T Hf
   0.6173948659160757    0.3826051340839242    0.3556675862093108 T T T Hf
   0.1173948659160758    0.8826051340839243    0.3556675862093108 T T T Hf
   0.8826051340839244    0.3521845977482274    0.3603476687224949 T T T Hf
   0.3826051340839244    0.8521845977482274    0.3603476687224949 T T T Hf
   0.5000000000000000    0.8888577916511053    0.3162441004297444 T T T Hf
   0.0000000000000001    0.3888577916511055    0.3162441004297444 T T T Hf
   0.8055711041744474    0.1944288958255527    0.3461562382490603 T T T Hf
   0.3055711041744474    0.6944288958255527    0.3461562382490602 T T T Hf
   0.6944288958255527    0.9167133125233421    0.3119586356801696 T T T Hf
   0.1944288958255528    0.4167133125233421    0.3119586356801696 T T T Hf
   0.4999999999999999    0.4999999999999999    0.3760683760683761 T T T Ni
   0.0000000000000000    0.0000000000000000    0.3760683760683761 T T T Ni
   0.8333333333333335    0.8333333333333335    0.3632478632478632 T T T Bi
   0.3333333333333334    0.3333333333333335    0.3632478632478632 T T T Bi
   0.6666666666666667    0.6666666666666667    0.3119658119658119 T T T Bi
   0.1666666666666668    0.1666666666666667    0.3119658119658119 T T T Bi
   0.5000000000000000    0.2652102681678485    0.4506514117348609 F F F Hf
   0.0000000000000000    0.7652102681678485    0.4506514117348609 F F F Hf
   0.6173948659160757    0.3826051340839242    0.4325906631323877 F F F Hf
   0.1173948659160758    0.8826051340839243    0.4325906631323877 F F F Hf
   0.8826051340839244    0.3521845977482274    0.4372707456455718 F F F Hf
   0.3826051340839244    0.8521845977482274    0.4372707456455718 F F F Hf
   0.5000000000000000    0.8888577916511053    0.3931671773528214 T T T Hf
   0.0000000000000001    0.3888577916511055    0.3931671773528214 T T T Hf
   0.8055711041744474    0.1944288958255527    0.4230793151721371 F F F Hf
   0.3055711041744474    0.6944288958255527    0.4230793151721371 F F F Hf
   0.6944288958255527    0.9167133125233421    0.3888817126032465 T T T Hf
   0.1944288958255528    0.4167133125233421    0.3888817126032465 T T T Hf
   0.4999999999999999    0.4999999999999999    0.4529914529914530 F F F Ni
   0.0000000000000000    0.0000000000000000    0.4529914529914529 F F F Ni
   0.8333333333333335    0.8333333333333335    0.4401709401709402 F F F Bi
   0.3333333333333334    0.3333333333333335    0.4401709401709402 F F F Bi
   0.6666666666666667    0.6666666666666667    0.3888888888888888 T T T Bi
   0.1666666666666668    0.1666666666666667    0.3888888888888888 T T T Bi
   0.5000000000000000    0.2652102681678485    0.5275744886579379 F F F Hf
   0.0000000000000000    0.7652102681678485    0.5275744886579379 F F F Hf
   0.6173948659160757    0.3826051340839242    0.5095137400554646 F F F Hf
   0.1173948659160758    0.8826051340839243    0.5095137400554646 F F F Hf
   0.8826051340839244    0.3521845977482274    0.5141938225686488 F F F Hf
   0.3826051340839244    0.8521845977482274    0.5141938225686488 F F F Hf
   0.5000000000000000    0.8888577916511053    0.4700902542758983 F F F Hf
   0.0000000000000001    0.3888577916511055    0.4700902542758983 F F F Hf
   0.8055711041744474    0.1944288958255527    0.5000023920952141 F F F Hf
   0.3055711041744474    0.6944288958255527    0.5000023920952141 F F F Hf
   0.6944288958255527    0.9167133125233421    0.4658047895263234 F F F Hf
   0.1944288958255528    0.4167133125233421    0.4658047895263234 F F F Hf
   0.4999999999999999    0.4999999999999999    0.5299145299145299 F F F Ni
   0.0000000000000000    0.0000000000000000    0.5299145299145299 F F F Ni
   0.8333333333333335    0.8333333333333335    0.5170940170940170 F F F Bi
   0.3333333333333334    0.3333333333333335    0.5170940170940170 F F F Bi
   0.6666666666666667    0.6666666666666667    0.4658119658119658 F F F Bi
   0.1666666666666668    0.1666666666666667    0.4658119658119658 F F F Bi
   0.5000000000000000    0.2652102681678485    0.6044975655810148 T T T Hf
   0.0000000000000000    0.7652102681678485    0.6044975655810148 T T T Hf
   0.6173948659160757    0.3826051340839242    0.5864368169785416 T T T Hf
   0.1173948659160758    0.8826051340839243    0.5864368169785416 T T T Hf
   0.8826051340839244    0.3521845977482274    0.5911168994917257 T T T Hf
   0.3826051340839244    0.8521845977482274    0.5911168994917257 T T T Hf
   0.5000000000000000    0.8888577916511053    0.5470133311989752 F F F Hf
   0.0000000000000001    0.3888577916511055    0.5470133311989752 F F F Hf
   0.8055711041744474    0.1944288958255527    0.5769254690182910 T T T Hf
   0.3055711041744474    0.6944288958255527    0.5769254690182910 T T T Hf
   0.6944288958255527    0.9167133125233421    0.5427278664494004 F F F Hf
   0.1944288958255528    0.4167133125233421    0.5427278664494004 F F F Hf
   0.4999999999999999    0.4999999999999999    0.6068376068376069 T T T Ni
   0.0000000000000000    0.0000000000000000    0.6068376068376069 T T T Ni
   0.8333333333333335    0.8333333333333335    0.5940170940170939 T T T Bi
   0.3333333333333334    0.3333333333333335    0.5940170940170939 T T T Bi
   0.6666666666666667    0.6666666666666667    0.5427350427350427 F F F Bi
   0.1666666666666668    0.1666666666666667    0.5427350427350427 F F F Bi
   0.5000000000000000    0.2652102681678485    0.6814206425040916 T T T Hf
   0.0000000000000000    0.7652102681678485    0.6814206425040916 T T T Hf
   0.6173948659160757    0.3826051340839242    0.6633598939016185 T T T Hf
   0.1173948659160758    0.8826051340839243    0.6633598939016185 T T T Hf
   0.8826051340839244    0.3521845977482274    0.6680399764148026 T T T Hf
   0.3826051340839244    0.8521845977482274    0.6680399764148026 T T T Hf
   0.5000000000000000    0.8888577916511053    0.6239364081220522 T T T Hf
   0.0000000000000001    0.3888577916511055    0.6239364081220522 T T T Hf
   0.8055711041744474    0.1944288958255527    0.6538485459413679 T T T Hf
   0.3055711041744474    0.6944288958255527    0.6538485459413679 T T T Hf
   0.6944288958255527    0.9167133125233421    0.6196509433724773 T T T Hf
   0.1944288958255528    0.4167133125233421    0.6196509433724773 T T T Hf
   0.4999999999999999    0.4999999999999999    0.6837606837606838 T T T Ni
   0.0000000000000000    0.0000000000000000    0.6837606837606838 T T T Ni
   0.8333333333333335    0.8333333333333335    0.6709401709401709 T T T Bi
   0.3333333333333334    0.3333333333333335    0.6709401709401709 T T T Bi
   0.6666666666666667    0.6666666666666667    0.6196581196581197 T T T Bi
   0.1666666666666668    0.1666666666666667    0.6196581196581197 T T T Bi
