Hf36 Ni6 Bi12
1.0
  13.5450718278123894    0.0000000000000000    0.0000000000000008
   6.7725359139061956    3.9101254329901534    7.3435742584349093
   0.0000000000000000    0.0000000000000000   55.0768069382618322
Hf Ni Bi Hf Ni Bi Hf Ni Bi Hf Ni Bi Hf Ni Bi Hf Ni Bi
6 1 2 6 1 2 6 1 2 6 1 2 6 1 2 6 1 2
Selective dynamics
direct
   0.0000000000000000    0.7652102681678484    0.3127867790591017 T T T Hf
   0.2347897318321515    0.7652102681678484    0.3127867790591017 T T T Hf
   0.7652102681678484    0.4695794636643029    0.3522042196595744 T T T Hf
   0.0000000000000000    0.3888577916511052    0.3296337759280008 T T T Hf
   0.6111422083488945    0.3888577916511052    0.3296337759280008 T T T Hf
   0.3888577916511053    0.2222844166977893    0.3518435592551096 T T T Hf
   0.0000000000000000    0.0000000000000000    0.3148148148148148 T T T Ni
   0.6666666666666666    0.0000000000000000    0.3481481481481482 T T T Bi
   0.3333333333333333    0.0000000000000000    0.3481481481481482 T T T Bi
   0.0000000000000000    0.7652102681678484    0.3794534457257684 T T T Hf
   0.2347897318321515    0.7652102681678484    0.3794534457257684 T T T Hf
   0.7652102681678484    0.4695794636643029    0.4188708863262411 T T T Hf
   0.0000000000000000    0.3888577916511052    0.3963004425946675 T T T Hf
   0.6111422083488945    0.3888577916511052    0.3963004425946675 T T T Hf
   0.3888577916511053    0.2222844166977893    0.4185102259217762 T T T Hf
   0.0000000000000000    0.0000000000000000    0.3814814814814815 T T T Ni
   0.6666666666666666    0.0000000000000000    0.4148148148148149 T T T Bi
   0.3333333333333333    0.0000000000000000    0.4148148148148149 T T T Bi
   0.0000000000000000    0.7652102681678484    0.4461201123924350 F F F Hf
   0.2347897318321515    0.7652102681678484    0.4461201123924350 F F F Hf
   0.7652102681678484    0.4695794636643029    0.4855375529929078 F F F Hf
   0.0000000000000000    0.3888577916511052    0.4629671092613341 F F F Hf
   0.6111422083488945    0.3888577916511052    0.4629671092613341 F F F Hf
   0.3888577916511053    0.2222844166977893    0.4851768925884429 F F F Hf
   0.0000000000000000    0.0000000000000000    0.4481481481481482 F F F Ni
   0.6666666666666666    0.0000000000000000    0.4814814814814815 F F F Bi
   0.3333333333333333    0.0000000000000000    0.4814814814814815 F F F Bi
   0.0000000000000000    0.7652102681678484    0.5127867790591017 F F F Hf
   0.2347897318321515    0.7652102681678484    0.5127867790591017 F F F Hf
   0.7652102681678484    0.4695794636643029    0.5522042196595744 F F F Hf
   0.0000000000000000    0.3888577916511052    0.5296337759280008 F F F Hf
   0.6111422083488945    0.3888577916511052    0.5296337759280008 F F F Hf
   0.3888577916511053    0.2222844166977893    0.5518435592551096 F F F Hf
   0.0000000000000000    0.0000000000000000    0.5148148148148148 F F F Ni
   0.6666666666666666    0.0000000000000000    0.5481481481481482 F F F Bi
   0.3333333333333333    0.0000000000000000    0.5481481481481482 F F F Bi
   0.0000000000000000    0.7652102681678484    0.5794534457257683 T T T Hf
   0.2347897318321515    0.7652102681678484    0.5794534457257683 T T T Hf
   0.7652102681678484    0.4695794636643029    0.6188708863262411 T T T Hf
   0.0000000000000000    0.3888577916511052    0.5963004425946674 T T T Hf
   0.6111422083488945    0.3888577916511052    0.5963004425946674 T T T Hf
   0.3888577916511053    0.2222844166977893    0.6185102259217763 T T T Hf
   0.0000000000000000    0.0000000000000000    0.5814814814814815 T T T Ni
   0.6666666666666666    0.0000000000000000    0.6148148148148148 T T T Bi
   0.3333333333333333    0.0000000000000000    0.6148148148148148 T T T Bi
   0.0000000000000000    0.7652102681678484    0.6461201123924349 T T T Hf
   0.2347897318321515    0.7652102681678484    0.6461201123924349 T T T Hf
   0.7652102681678484    0.4695794636643029    0.6855375529929078 T T T Hf
   0.0000000000000000    0.3888577916511052    0.6629671092613341 T T T Hf
   0.6111422083488945    0.3888577916511052    0.6629671092613341 T T T Hf
   0.3888577916511053    0.2222844166977893    0.6851768925884429 T T T Hf
   0.0000000000000000    0.0000000000000000    0.6481481481481481 T T T Ni
   0.6666666666666666    0.0000000000000000    0.6814814814814815 T T T Bi
   0.3333333333333333    0.0000000000000000    0.6814814814814815 T T T Bi
