Ta32 Mn16 Re16
1.0
   6.2826939894890943    0.0000000000000000    0.0000000000000004
   0.0000000000000020   12.5653879789781868   -6.2826939894890934
   0.0000000000000000    0.0000000000000000   31.4134699474454706
Ta Mn Re Ta Mn Re
16 8 8 16 8 8
Selective dynamics
direct
   0.2500000000000000    0.1250000000000000    0.4625000000000000 F F F Ta
   0.2500000000000000    0.6250000000000000    0.3625000000000000 T T T Ta
   0.2499999999999999    0.3750000000000000    0.3125000000000000 T T T Ta
   0.2500000000000000    0.8750000000000000    0.4125000000000000 T T T Ta
   0.7500000000000000    0.3750000000000000    0.3125000000000000 T T T Ta
   0.7500000000000000    0.8750000000000000    0.4125000000000000 T T T Ta
   0.7500000000000000    0.1250000000000000    0.4625000000000000 F F F Ta
   0.7500000000000000    0.6250000000000000    0.3625000000000000 T T T Ta
   0.7500000000000000    0.1250000000000000    0.3625000000000000 T T T Ta
   0.7500000000000000    0.6250000000000000    0.4624999999999999 F F F Ta
   0.7500000000000000    0.3750000000000000    0.4125000000000000 T T T Ta
   0.7500000000000000    0.8750000000000000    0.3125000000000000 T T T Ta
   0.2500000000000000    0.3750000000000000    0.4125000000000000 T T T Ta
   0.2500000000000000    0.8750000000000000    0.3125000000000000 T T T Ta
   0.2500000000000000    0.1250000000000000    0.3625000000000000 T T T Ta
   0.2500000000000000    0.6250000000000000    0.4624999999999999 F F F Ta
   0.0000000000000000    0.5000000000000000    0.4875000000000000 F F F Mn
   0.0000000000000000    0.0000000000000000    0.3875000000000000 T T T Mn
   0.5000000000000000    0.2500000000000000    0.4375000000000000 F F F Mn
   0.5000000000000000    0.7500000000000000    0.3375000000000000 T T T Mn
   0.5000000000000000    0.5000000000000000    0.3875000000000000 T T T Mn
   0.5000000000000000    0.0000000000000000    0.4875000000000000 F F F Mn
   0.0000000000000000    0.2500000000000000    0.3375000000000000 T T T Mn
   0.0000000000000000    0.7500000000000000    0.4375000000000000 F F F Mn
   0.0000000000000000    0.5000000000000000    0.3875000000000000 T T T Re
   0.0000000000000000    0.0000000000000000    0.4875000000000000 F F F Re
   0.5000000000000000    0.2500000000000000    0.3375000000000000 T T T Re
   0.5000000000000000    0.7500000000000000    0.4375000000000000 F F F Re
   0.5000000000000000    0.5000000000000000    0.4875000000000000 F F F Re
   0.5000000000000000    0.0000000000000000    0.3875000000000000 T T T Re
   0.0000000000000000    0.2500000000000000    0.4375000000000000 F F F Re
   0.0000000000000000    0.7500000000000000    0.3375000000000000 T T T Re
   0.2500000000000000    0.1250000000000000    0.6625000000000001 T T T Ta
   0.2500000000000000    0.6250000000000000    0.5625000000000000 F F F Ta
   0.2499999999999999    0.3750000000000000    0.5125000000000000 F F F Ta
   0.2500000000000000    0.8750000000000000    0.6125000000000000 T T T Ta
   0.7500000000000000    0.3750000000000000    0.5125000000000000 F F F Ta
   0.7500000000000000    0.8750000000000000    0.6125000000000000 T T T Ta
   0.7500000000000000    0.1250000000000000    0.6625000000000001 T T T Ta
   0.7500000000000000    0.6250000000000000    0.5625000000000000 F F F Ta
   0.7500000000000000    0.1250000000000000    0.5625000000000000 F F F Ta
   0.7500000000000000    0.6250000000000000    0.6624999999999999 T T T Ta
   0.7500000000000000    0.3750000000000000    0.6125000000000000 T T T Ta
   0.7500000000000000    0.8750000000000000    0.5125000000000000 F F F Ta
   0.2500000000000000    0.3750000000000000    0.6125000000000000 T T T Ta
   0.2500000000000000    0.8750000000000000    0.5125000000000000 F F F Ta
   0.2500000000000000    0.1250000000000000    0.5625000000000000 F F F Ta
   0.2500000000000000    0.6250000000000000    0.6624999999999999 T T T Ta
   0.0000000000000000    0.5000000000000000    0.6875000000000000 T T T Mn
   0.0000000000000000    0.0000000000000000    0.5874999999999999 T T T Mn
   0.5000000000000000    0.2500000000000000    0.6375000000000000 T T T Mn
   0.5000000000000000    0.7500000000000000    0.5375000000000000 F F F Mn
   0.5000000000000000    0.5000000000000000    0.5875000000000000 T T T Mn
   0.5000000000000000    0.0000000000000000    0.6875000000000000 T T T Mn
   0.0000000000000000    0.2500000000000000    0.5375000000000000 F F F Mn
   0.0000000000000000    0.7500000000000000    0.6375000000000000 T T T Mn
   0.0000000000000000    0.5000000000000000    0.5875000000000000 T T T Re
   0.0000000000000000    0.0000000000000000    0.6875000000000000 T T T Re
   0.5000000000000000    0.2500000000000000    0.5375000000000000 F F F Re
   0.5000000000000000    0.7500000000000000    0.6375000000000000 T T T Re
   0.5000000000000000    0.5000000000000000    0.6875000000000000 T T T Re
   0.5000000000000000    0.0000000000000000    0.5874999999999999 T T T Re
   0.0000000000000000    0.2500000000000000    0.6375000000000000 T T T Re
   0.0000000000000000    0.7500000000000000    0.5375000000000000 F F F Re
