Te16 Ru8
1.0
   4.0629577118781954    0.0000000000000000    0.0000000000000002
  -0.0000000000000030   10.6941802341114514    6.4626766659339214
   0.0000000000000000    0.0000000000000000   32.3133833296696054
Te Ru Te Ru
8 4 8 4
Selective dynamics
direct
   0.0000000000000000    0.1109037931114400    0.3628483159233814 T T T Te
   0.0000000000000000    0.6109037931114399    0.4628483159233814 F F F Te
   0.0000000000000000    0.3890962068885599    0.4538183507432852 F F F Te
   0.0000000000000000    0.8890962068885598    0.3538183507432853 T T T Te
   0.5000000000000000    0.3609037931114401    0.3594568334987092 T T T Te
   0.5000000000000000    0.8609037931114401    0.4594568334987092 F F F Te
   0.5000000000000000    0.1390962068885600    0.4572098331679574 F F F Te
   0.4999999999999999    0.6390962068885599    0.3572098331679574 T T T Te
   0.0000000000000000    0.0000000000000000    0.4583333333333333 F F F Ru
   0.0000000000000000    0.5000000000000000    0.3583333333333333 T T T Ru
   0.5000000000000000    0.2500000000000000    0.3083333333333333 T T T Ru
   0.5000000000000000    0.7499999999999999    0.4083333333333334 T T T Ru
   0.0000000000000000    0.1109037931114400    0.5628483159233815 T T T Te
   0.0000000000000000    0.6109037931114399    0.6628483159233814 T T T Te
   0.0000000000000000    0.3890962068885599    0.6538183507432853 T T T Te
   0.0000000000000000    0.8890962068885598    0.5538183507432853 F F F Te
   0.5000000000000000    0.3609037931114401    0.5594568334987092 T T T Te
   0.5000000000000000    0.8609037931114401    0.6594568334987092 T T T Te
   0.5000000000000000    0.1390962068885600    0.6572098331679574 T T T Te
   0.4999999999999999    0.6390962068885599    0.5572098331679575 T T T Te
   0.0000000000000000    0.0000000000000000    0.6583333333333333 T T T Ru
   0.0000000000000000    0.5000000000000000    0.5583333333333333 T T T Ru
   0.5000000000000000    0.2500000000000000    0.5083333333333333 F F F Ru
   0.5000000000000000    0.7499999999999999    0.6083333333333334 T T T Ru
