Sc32 In32 Cu64
1.0
  12.8524012153163945    0.0000000000000000   -6.4262006076581972
  -0.0000000000000036   12.8524012153163945   -6.4262006076581972
   0.0000000000000000    0.0000000000000000   32.1310030382909915
Sc In Cu Sc In Cu
16 16 32 16 16 32
Selective dynamics
direct
   0.5000000000000000    0.5000000000000000    0.3750000000000000 T T T Sc
   0.0000000000000000    0.0000000000000000    0.3749999999999999 T T T Sc
   0.0000000000000000    0.5000000000000000    0.4750000000000000 F F F Sc
   0.5000000000000000    0.0000000000000001    0.4750000000000000 F F F Sc
   0.7500000000000000    0.7500000000000000    0.4750000000000000 F F F Sc
   0.2500000000000000    0.2500000000000001    0.4750000000000000 F F F Sc
   0.2500000000000000    0.7500000000000000    0.3749999999999999 T T T Sc
   0.7500000000000000    0.2500000000000001    0.3749999999999999 T T T Sc
   0.5000000000000000    0.7500000000000000    0.3250000000000000 T T T Sc
   0.0000000000000000    0.2500000000000000    0.3250000000000000 T T T Sc
   0.0000000000000000    0.7500000000000000    0.4249999999999999 T T T Sc
   0.5000000000000000    0.2500000000000001    0.4249999999999999 T T T Sc
   0.7500000000000000    0.4999999999999999    0.3250000000000000 T T T Sc
   0.2500000000000000    0.0000000000000000    0.3250000000000000 T T T Sc
   0.2500000000000000    0.5000000000000000    0.4249999999999999 T T T Sc
   0.7500000000000000    0.0000000000000000    0.4249999999999999 T T T Sc
   0.5000000000000000    0.5000000000000000    0.4750000000000000 F F F In
   0.0000000000000000    0.0000000000000000    0.4750000000000000 F F F In
   0.0000000000000000    0.5000000000000000    0.3749999999999999 T T T In
   0.5000000000000000    0.0000000000000000    0.3750000000000000 T T T In
   0.7500000000000000    0.7499999999999999    0.3750000000000000 T T T In
   0.2500000000000000    0.2500000000000000    0.3750000000000000 T T T In
   0.2500000000000000    0.7500000000000000    0.4750000000000000 F F F In
   0.7500000000000000    0.2500000000000001    0.4750000000000000 F F F In
   0.5000000000000000    0.7500000000000000    0.4249999999999999 T T T In
   0.0000000000000000    0.2500000000000000    0.4249999999999999 T T T In
   0.0000000000000000    0.7500000000000000    0.3250000000000000 T T T In
   0.5000000000000000    0.2500000000000001    0.3250000000000000 T T T In
   0.7500000000000000    0.5000000000000000    0.4249999999999999 T T T In
   0.2500000000000000    0.0000000000000000    0.4249999999999999 T T T In
   0.2500000000000000    0.5000000000000000    0.3250000000000000 T T T In
   0.7500000000000000    0.0000000000000001    0.3250000000000000 T T T In
   0.8750000000000001    0.8750000000000000    0.4750000000000000 F F F Cu
   0.3750000000000000    0.3750000000000001    0.4750000000000000 F F F Cu
   0.3750000000000000    0.8750000000000001    0.3749999999999999 T T T Cu
   0.8750000000000001    0.3750000000000001    0.3750000000000000 T T T Cu
   0.6250000000000000    0.8750000000000000    0.4249999999999999 T T T Cu
   0.1250000000000000    0.3750000000000000    0.4249999999999999 T T T Cu
   0.1250000000000000    0.8750000000000001    0.3250000000000000 T T T Cu
   0.6250000000000000    0.3750000000000000    0.3250000000000000 T T T Cu
   0.6250000000000000    0.6250000000000000    0.3750000000000000 T T T Cu
   0.1250000000000000    0.1250000000000000    0.3750000000000000 T T T Cu
   0.1250000000000000    0.6250000000000000    0.4750000000000000 F F F Cu
   0.6250000000000000    0.1250000000000001    0.4750000000000000 F F F Cu
   0.8750000000000001    0.6250000000000000    0.4250000000000000 T T T Cu
   0.3750000000000000    0.1250000000000000    0.4249999999999999 T T T Cu
   0.3750000000000000    0.6250000000000000    0.3250000000000000 T T T Cu
   0.8750000000000001    0.1250000000000001    0.3250000000000000 T T T Cu
   0.8750000000000001    0.6250000000000000    0.3250000000000000 T T T Cu
   0.3750000000000000    0.1250000000000001    0.3250000000000000 T T T Cu
   0.3750000000000000    0.6250000000000001    0.4249999999999999 T T T Cu
   0.8750000000000001    0.1250000000000001    0.4250000000000000 T T T Cu
   0.6250000000000000    0.6250000000000000    0.4750000000000000 F F F Cu
   0.1250000000000000    0.1250000000000001    0.4750000000000000 F F F Cu
   0.1250000000000000    0.6250000000000001    0.3749999999999999 T T T Cu
   0.6250000000000000    0.1250000000000001    0.3749999999999999 T T T Cu
   0.6250000000000000    0.8750000000000001    0.3250000000000000 T T T Cu
   0.1250000000000000    0.3750000000000001    0.3250000000000000 T T T Cu
   0.1250000000000000    0.8750000000000001    0.4249999999999999 T T T Cu
   0.6250000000000000    0.3750000000000001    0.4249999999999999 T T T Cu
   0.8750000000000001    0.8750000000000001    0.3750000000000000 T T T Cu
   0.3750000000000000    0.3750000000000001    0.3749999999999999 T T T Cu
   0.3750000000000000    0.8750000000000001    0.4750000000000000 F F F Cu
   0.8750000000000001    0.3750000000000001    0.4750000000000000 F F F Cu
   0.5000000000000000    0.5000000000000000    0.5750000000000000 T T T Sc
   0.0000000000000000    0.0000000000000000    0.5750000000000000 T T T Sc
   0.0000000000000000    0.5000000000000000    0.6750000000000000 T T T Sc
   0.5000000000000000    0.0000000000000001    0.6750000000000000 T T T Sc
   0.7500000000000000    0.7500000000000000    0.6750000000000000 T T T Sc
   0.2500000000000000    0.2500000000000001    0.6750000000000000 T T T Sc
   0.2500000000000000    0.7500000000000000    0.5750000000000000 T T T Sc
   0.7500000000000000    0.2500000000000001    0.5750000000000000 T T T Sc
   0.5000000000000000    0.7500000000000000    0.5249999999999999 F F F Sc
   0.0000000000000000    0.2500000000000000    0.5249999999999999 F F F Sc
   0.0000000000000000    0.7500000000000000    0.6250000000000000 T T T Sc
   0.5000000000000000    0.2500000000000001    0.6250000000000000 T T T Sc
   0.7500000000000000    0.4999999999999999    0.5249999999999999 F F F Sc
   0.2500000000000000    0.0000000000000000    0.5249999999999999 F F F Sc
   0.2500000000000000    0.5000000000000000    0.6250000000000000 T T T Sc
   0.7500000000000000    0.0000000000000000    0.6250000000000000 T T T Sc
   0.5000000000000000    0.5000000000000000    0.6750000000000000 T T T In
   0.0000000000000000    0.0000000000000000    0.6750000000000000 T T T In
   0.0000000000000000    0.5000000000000000    0.5750000000000000 T T T In
   0.5000000000000000    0.0000000000000000    0.5750000000000000 T T T In
   0.7500000000000000    0.7499999999999999    0.5750000000000000 T T T In
   0.2500000000000000    0.2500000000000000    0.5750000000000000 T T T In
   0.2500000000000000    0.7500000000000000    0.6750000000000000 T T T In
   0.7500000000000000    0.2500000000000001    0.6750000000000000 T T T In
   0.5000000000000000    0.7500000000000000    0.6250000000000000 T T T In
   0.0000000000000000    0.2500000000000000    0.6250000000000000 T T T In
   0.0000000000000000    0.7500000000000000    0.5249999999999999 F F F In
   0.5000000000000000    0.2500000000000001    0.5249999999999999 F F F In
   0.7500000000000000    0.5000000000000000    0.6250000000000000 T T T In
   0.2500000000000000    0.0000000000000000    0.6250000000000000 T T T In
   0.2500000000000000    0.5000000000000000    0.5250000000000000 F F F In
   0.7500000000000000    0.0000000000000001    0.5249999999999999 F F F In
   0.8750000000000001    0.8750000000000000    0.6750000000000000 T T T Cu
   0.3750000000000000    0.3750000000000001    0.6750000000000000 T T T Cu
   0.3750000000000000    0.8750000000000001    0.5750000000000000 T T T Cu
   0.8750000000000001    0.3750000000000001    0.5750000000000000 T T T Cu
   0.6250000000000000    0.8750000000000000    0.6250000000000000 T T T Cu
   0.1250000000000000    0.3750000000000000    0.6250000000000000 T T T Cu
   0.1250000000000000    0.8750000000000001    0.5250000000000000 F F F Cu
   0.6250000000000000    0.3750000000000000    0.5249999999999999 F F F Cu
   0.6250000000000000    0.6250000000000000    0.5750000000000000 T T T Cu
   0.1250000000000000    0.1250000000000000    0.5750000000000000 T T T Cu
   0.1250000000000000    0.6250000000000000    0.6750000000000000 T T T Cu
   0.6250000000000000    0.1250000000000001    0.6750000000000000 T T T Cu
   0.8750000000000001    0.6250000000000000    0.6250000000000000 T T T Cu
   0.3750000000000000    0.1250000000000000    0.6250000000000000 T T T Cu
   0.3750000000000000    0.6250000000000000    0.5249999999999999 F F F Cu
   0.8750000000000001    0.1250000000000001    0.5250000000000000 F F F Cu
   0.8750000000000001    0.6250000000000000    0.5250000000000000 F F F Cu
   0.3750000000000000    0.1250000000000001    0.5249999999999999 F F F Cu
   0.3750000000000000    0.6250000000000001    0.6250000000000000 T T T Cu
   0.8750000000000001    0.1250000000000001    0.6250000000000000 T T T Cu
   0.6250000000000000    0.6250000000000000    0.6750000000000000 T T T Cu
   0.1250000000000000    0.1250000000000001    0.6750000000000000 T T T Cu
   0.1250000000000000    0.6250000000000001    0.5750000000000000 T T T Cu
   0.6250000000000000    0.1250000000000001    0.5750000000000000 T T T Cu
   0.6250000000000000    0.8750000000000001    0.5249999999999999 F F F Cu
   0.1250000000000000    0.3750000000000001    0.5249999999999999 F F F Cu
   0.1250000000000000    0.8750000000000001    0.6250000000000000 T T T Cu
   0.6250000000000000    0.3750000000000001    0.6250000000000000 T T T Cu
   0.8750000000000001    0.8750000000000001    0.5750000000000000 T T T Cu
   0.3750000000000000    0.3750000000000001    0.5750000000000000 T T T Cu
   0.3750000000000000    0.8750000000000001    0.6750000000000000 T T T Cu
   0.8750000000000001    0.3750000000000001    0.6750000000000000 T T T Cu
