Ca16 In32 Pt16
1.0
   4.4407492461627269    0.0000000000000000    0.0000000000000003
   0.0000000000000025   15.8093519892285261  -10.6296193257886351
   0.0000000000000000    0.0000000000000000   42.5184773031545333
Ca In Pt Ca In Pt
8 16 8 8 16 8
Selective dynamics
direct
   0.0000000000000000    0.1250000000000000    0.4832515300987197 F F F Ca
   0.0000000000000000    0.6250000000000000    0.3582515300987197 F F F Ca
   0.5000000000000000    0.3750000000000000    0.4542484699012804 F F F Ca
   0.5000000000000000    0.8750000000000000    0.3292484699012804 T T T Ca
   0.5000000000000000    0.1250000000000000    0.3582515300987197 F F F Ca
   0.5000000000000000    0.6250000000000000    0.4832515300987197 F F F Ca
   0.0000000000000000    0.3749999999999999    0.3292484699012803 T T T Ca
   0.0000000000000000    0.8749999999999999    0.4542484699012803 F F F Ca
   0.0000000000000000    0.0258860464871019    0.3860705515572799 F F F In
   0.0000000000000000    0.5258860464871019    0.2610705515572799 T T T In
   0.0000000000000000    0.2241139535128981    0.4356275283137290 F F F In
   0.0000000000000000    0.7241139535128980    0.3106275283137290 T T T In
   0.4999999999999999    0.4741139535128981    0.3014294484427201 T T T In
   0.4999999999999999    0.9741139535128981    0.4264294484427201 F F F In
   0.4999999999999999    0.2758860464871020    0.5018724716862710 F F F In
   0.4999999999999999    0.7758860464871019    0.3768724716862710 F F F In
   0.5000000000000000    0.0258860464871018    0.2610705515572800 T T T In
   0.5000000000000000    0.5258860464871018    0.3860705515572799 F F F In
   0.5000000000000000    0.2241139535128980    0.3106275283137290 T T T In
   0.5000000000000000    0.7241139535128980    0.4356275283137290 F F F In
   0.0000000000000000    0.4741139535128981    0.4264294484427201 F F F In
   0.0000000000000000    0.9741139535128980    0.3014294484427201 T T T In
   0.0000000000000000    0.2758860464871019    0.3768724716862710 F F F In
   0.0000000000000000    0.7758860464871018    0.5018724716862710 F F F In
   0.5000000000000000    0.1250000000000000    0.4293264623439157 F F F Pt
   0.5000000000000000    0.6250000000000000    0.3043264623439157 T T T Pt
   0.0000000000000000    0.3750000000000000    0.2581735376560843 T T T Pt
   0.0000000000000000    0.8750000000000000    0.3831735376560843 F F F Pt
   0.0000000000000000    0.1249999999999999    0.3043264623439157 T T T Pt
   0.0000000000000000    0.6249999999999999    0.4293264623439157 F F F Pt
   0.4999999999999999    0.3749999999999999    0.3831735376560843 F F F Pt
   0.4999999999999999    0.8749999999999999    0.2581735376560843 T T T Pt
   0.0000000000000000    0.1250000000000000    0.7332515300987197 T T T Ca
   0.0000000000000000    0.6250000000000000    0.6082515300987197 F F F Ca
   0.5000000000000000    0.3750000000000000    0.7042484699012803 T T T Ca
   0.5000000000000000    0.8750000000000000    0.5792484699012803 F F F Ca
   0.5000000000000000    0.1250000000000000    0.6082515300987197 F F F Ca
   0.5000000000000000    0.6250000000000000    0.7332515300987197 T T T Ca
   0.0000000000000000    0.3749999999999999    0.5792484699012803 F F F Ca
   0.0000000000000000    0.8749999999999999    0.7042484699012803 T T T Ca
   0.0000000000000000    0.0258860464871019    0.6360705515572800 F F F In
   0.0000000000000000    0.5258860464871019    0.5110705515572800 F F F In
   0.0000000000000000    0.2241139535128981    0.6856275283137290 T T T In
   0.0000000000000000    0.7241139535128980    0.5606275283137290 F F F In
   0.4999999999999999    0.4741139535128981    0.5514294484427200 F F F In
   0.4999999999999999    0.9741139535128981    0.6764294484427200 T T T In
   0.4999999999999999    0.2758860464871020    0.7518724716862710 T T T In
   0.4999999999999999    0.7758860464871019    0.6268724716862710 F F F In
   0.5000000000000000    0.0258860464871018    0.5110705515572800 F F F In
   0.5000000000000000    0.5258860464871018    0.6360705515572800 F F F In
   0.5000000000000000    0.2241139535128980    0.5606275283137290 F F F In
   0.5000000000000000    0.7241139535128980    0.6856275283137290 T T T In
   0.0000000000000000    0.4741139535128981    0.6764294484427200 T T T In
   0.0000000000000000    0.9741139535128980    0.5514294484427200 F F F In
   0.0000000000000000    0.2758860464871019    0.6268724716862710 F F F In
   0.0000000000000000    0.7758860464871018    0.7518724716862710 T T T In
   0.5000000000000000    0.1250000000000000    0.6793264623439157 T T T Pt
   0.5000000000000000    0.6250000000000000    0.5543264623439157 F F F Pt
   0.0000000000000000    0.3750000000000000    0.5081735376560843 F F F Pt
   0.0000000000000000    0.8750000000000000    0.6331735376560843 F F F Pt
   0.0000000000000000    0.1249999999999999    0.5543264623439157 F F F Pt
   0.0000000000000000    0.6249999999999999    0.6793264623439157 T T T Pt
   0.4999999999999999    0.3749999999999999    0.6331735376560843 F F F Pt
   0.4999999999999999    0.8749999999999999    0.5081735376560843 F F F Pt
