Hf16 Cu16 Ge32
1.0
   3.8042899589427610    0.0000000000000000   -3.8042899589427601
   0.0000000000000029   18.1959408685121495   -3.8042899589427597
   0.0000000000000000    0.0000000000000000   38.0428995894276056
Hf Cu Ge Hf Cu Ge Hf Cu Ge Hf Cu Ge
4 4 8 4 4 8 4 4 8 4 4 8
Selective dynamics
direct
   0.5000000000000000    0.3811574188515436    0.3693657418851544 T T T Hf
   0.5000000000000000    0.8811574188515436    0.3193657418851544 T T T Hf
   0.0000000000000000    0.1188425811484563    0.3431342581148457 T T T Hf
   0.0000000000000000    0.6188425811484564    0.3931342581148456 T T T Hf
   0.5000000000000000    0.2499999999999999    0.3062500000000000 T T T Cu
   0.5000000000000000    0.7499999999999999    0.3562500000000000 T T T Cu
   0.0000000000000000    0.2500000000000000    0.3062500000000000 T T T Cu
   0.0000000000000000    0.7499999999999999    0.3562500000000000 T T T Cu
   0.5000000000000000    0.0000000000000000    0.3812500000000000 T T T Ge
   0.5000000000000000    0.4999999999999999    0.3312500000000000 T T T Ge
   0.0000000000000000    0.0000000000000000    0.3812500000000000 T T T Ge
   0.0000000000000000    0.5000000000000000    0.3312500000000000 T T T Ge
   0.5000000000000000    0.1606865794095746    0.3473186579409575 T T T Ge
   0.5000000000000000    0.6606865794095746    0.3973186579409574 T T T Ge
   0.0000000000000000    0.3393134205904254    0.3651813420590425 T T T Ge
   0.0000000000000000    0.8393134205904254    0.3151813420590425 T T T Ge
   0.5000000000000000    0.3811574188515436    0.4693657418851543 F F F Hf
   0.5000000000000000    0.8811574188515436    0.4193657418851544 F F F Hf
   0.0000000000000000    0.1188425811484563    0.4431342581148456 F F F Hf
   0.0000000000000000    0.6188425811484564    0.4931342581148457 F F F Hf
   0.5000000000000000    0.2499999999999999    0.4062500000000000 T T T Cu
   0.5000000000000000    0.7499999999999999    0.4562500000000000 F F F Cu
   0.0000000000000000    0.2500000000000000    0.4062500000000000 T T T Cu
   0.0000000000000000    0.7499999999999999    0.4562500000000000 F F F Cu
   0.5000000000000000    0.0000000000000000    0.4812500000000000 F F F Ge
   0.5000000000000000    0.4999999999999999    0.4312500000000000 F F F Ge
   0.0000000000000000    0.0000000000000000    0.4812500000000000 F F F Ge
   0.0000000000000000    0.5000000000000000    0.4312500000000000 F F F Ge
   0.5000000000000000    0.1606865794095746    0.4473186579409575 F F F Ge
   0.5000000000000000    0.6606865794095746    0.4973186579409575 F F F Ge
   0.0000000000000000    0.3393134205904254    0.4651813420590425 F F F Ge
   0.0000000000000000    0.8393134205904254    0.4151813420590426 T T T Ge
   0.5000000000000000    0.3811574188515436    0.5693657418851543 F F F Hf
   0.5000000000000000    0.8811574188515436    0.5193657418851544 F F F Hf
   0.0000000000000000    0.1188425811484563    0.5431342581148457 F F F Hf
   0.0000000000000000    0.6188425811484564    0.5931342581148457 T T T Hf
   0.5000000000000000    0.2499999999999999    0.5062500000000000 F F F Cu
   0.5000000000000000    0.7499999999999999    0.5562500000000000 F F F Cu
   0.0000000000000000    0.2500000000000000    0.5062500000000001 F F F Cu
   0.0000000000000000    0.7499999999999999    0.5562500000000000 F F F Cu
   0.5000000000000000    0.0000000000000000    0.5812500000000000 F F F Ge
   0.5000000000000000    0.4999999999999999    0.5312500000000000 F F F Ge
   0.0000000000000000    0.0000000000000000    0.5812500000000000 F F F Ge
   0.0000000000000000    0.5000000000000000    0.5312500000000000 F F F Ge
   0.5000000000000000    0.1606865794095746    0.5473186579409575 F F F Ge
   0.5000000000000000    0.6606865794095746    0.5973186579409575 T T T Ge
   0.0000000000000000    0.3393134205904254    0.5651813420590426 F F F Ge
   0.0000000000000000    0.8393134205904254    0.5151813420590425 F F F Ge
   0.5000000000000000    0.3811574188515436    0.6693657418851544 T T T Hf
   0.5000000000000000    0.8811574188515436    0.6193657418851544 T T T Hf
   0.0000000000000000    0.1188425811484563    0.6431342581148456 T T T Hf
   0.0000000000000000    0.6188425811484564    0.6931342581148456 T T T Hf
   0.5000000000000000    0.2499999999999999    0.6062500000000000 T T T Cu
   0.5000000000000000    0.7499999999999999    0.6562500000000000 T T T Cu
   0.0000000000000000    0.2500000000000000    0.6062500000000000 T T T Cu
   0.0000000000000000    0.7499999999999999    0.6562500000000000 T T T Cu
   0.5000000000000000    0.0000000000000000    0.6812499999999999 T T T Ge
   0.5000000000000000    0.4999999999999999    0.6312500000000000 T T T Ge
   0.0000000000000000    0.0000000000000000    0.6812499999999999 T T T Ge
   0.0000000000000000    0.5000000000000000    0.6312500000000000 T T T Ge
   0.5000000000000000    0.1606865794095746    0.6473186579409574 T T T Ge
   0.5000000000000000    0.6606865794095746    0.6973186579409574 T T T Ge
   0.0000000000000000    0.3393134205904254    0.6651813420590424 T T T Ge
   0.0000000000000000    0.8393134205904254    0.6151813420590425 T T T Ge
