Ta16 Ga16 Ni96
1.0
   7.2857756707699135    0.0000000000000000   -3.6428878353849568
   0.0000000000000023   14.4259629608543527   -3.6428878353849559
   0.0000000000000000    0.0000000000000000   32.7859905184646152
Ta Ga Ni Ta Ga Ni Ta Ga Ni Ta Ga Ni
4 4 24 4 4 24 4 4 24 4 4 24
Selective dynamics
direct
   0.4999999999999999    0.7500000000000000    0.2986111111111111 T T T Ta
   0.0000000000000000    0.2500000000000000    0.2986111111111111 T T T Ta
   0.0000000000000000    0.7500000000000001    0.3541666666666667 T T T Ta
   0.4999999999999999    0.2500000000000000    0.3541666666666667 T T T Ta
   0.4999999999999999    0.5000000000000000    0.3819444444444444 T T T Ga
   0.0000000000000000    0.0000000000000000    0.3819444444444444 T T T Ga
   0.0000000000000000    0.5000000000000000    0.3263888888888889 T T T Ga
   0.4999999999999999    0.0000000000000000    0.3263888888888889 T T T Ga
   0.7499999999999999    0.5000000000000000    0.3541666666666666 T T T Ni
   0.2500000000000000    0.0000000000000000    0.3541666666666667 T T T Ni
   0.2500000000000000    0.5000000000000000    0.2986111111111112 T T T Ni
   0.7499999999999999    0.0000000000000000    0.2986111111111112 T T T Ni
   0.7499999999999999    0.7500000000000000    0.3819444444444444 T T T Ni
   0.2500000000000000    0.2500000000000001    0.3819444444444445 T T T Ni
   0.2500000000000000    0.7500000000000001    0.3263888888888889 T T T Ni
   0.7499999999999999    0.2500000000000001    0.3263888888888890 T T T Ni
   0.4999999999999999    0.6236636605829879    0.3401292956203320 T T T Ni
   0.0000000000000000    0.1236636605829880    0.3401292956203320 T T T Ni
   0.0000000000000000    0.6236636605829879    0.2845737400647765 T T T Ni
   0.4999999999999999    0.1236636605829880    0.2845737400647765 T T T Ni
   0.4999999999999999    0.8763363394170121    0.3682040377130014 T T T Ni
   0.0000000000000000    0.3763363394170121    0.3682040377130014 T T T Ni
   0.0000000000000000    0.8763363394170121    0.3126484821574458 T T T Ni
   0.4999999999999999    0.3763363394170121    0.3126484821574458 T T T Ni
   0.7499999999999999    0.6236636605829879    0.3123515178425542 T T T Ni
   0.2500000000000000    0.1236636605829879    0.3123515178425542 T T T Ni
   0.2500000000000000    0.6236636605829879    0.3679070733981098 T T T Ni
   0.7499999999999999    0.1236636605829879    0.3679070733981098 T T T Ni
   0.7499999999999999    0.8763363394170119    0.3404262599352236 T T T Ni
   0.2500000000000000    0.3763363394170121    0.3404262599352236 T T T Ni
   0.2500000000000000    0.8763363394170121    0.2848707043796680 T T T Ni
   0.7499999999999999    0.3763363394170121    0.2848707043796680 T T T Ni
   0.4999999999999999    0.7500000000000000    0.4097222222222222 F F F Ta
   0.0000000000000000    0.2500000000000000    0.4097222222222222 F F F Ta
   0.0000000000000000    0.7500000000000001    0.4652777777777778 F F F Ta
   0.4999999999999999    0.2500000000000000    0.4652777777777778 F F F Ta
   0.4999999999999999    0.5000000000000000    0.4930555555555555 F F F Ga
   0.0000000000000000    0.0000000000000000    0.4930555555555556 F F F Ga
   0.0000000000000000    0.5000000000000000    0.4375000000000000 F F F Ga
   0.4999999999999999    0.0000000000000000    0.4375000000000000 F F F Ga
   0.7499999999999999    0.5000000000000000    0.4652777777777778 F F F Ni
   0.2500000000000000    0.0000000000000000    0.4652777777777778 F F F Ni
   0.2500000000000000    0.5000000000000000    0.4097222222222222 F F F Ni
   0.7499999999999999    0.0000000000000000    0.4097222222222222 F F F Ni
   0.7499999999999999    0.7500000000000000    0.4930555555555556 F F F Ni
   0.2500000000000000    0.2500000000000001    0.4930555555555556 F F F Ni
   0.2500000000000000    0.7500000000000001    0.4375000000000000 F F F Ni
   0.7499999999999999    0.2500000000000001    0.4375000000000001 F F F Ni
   0.4999999999999999    0.6236636605829879    0.4512404067314431 F F F Ni
   0.0000000000000000    0.1236636605829880    0.4512404067314431 F F F Ni
   0.0000000000000000    0.6236636605829879    0.3956848511758876 F F F Ni
   0.4999999999999999    0.1236636605829880    0.3956848511758876 F F F Ni
   0.4999999999999999    0.8763363394170121    0.4793151488241124 F F F Ni
   0.0000000000000000    0.3763363394170121    0.4793151488241125 F F F Ni
   0.0000000000000000    0.8763363394170121    0.4237595932685569 F F F Ni
   0.4999999999999999    0.3763363394170121    0.4237595932685569 F F F Ni
   0.7499999999999999    0.6236636605829879    0.4234626289536653 F F F Ni
   0.2500000000000000    0.1236636605829879    0.4234626289536653 F F F Ni
   0.2500000000000000    0.6236636605829879    0.4790181845092209 F F F Ni
   0.7499999999999999    0.1236636605829879    0.4790181845092208 F F F Ni
   0.7499999999999999    0.8763363394170119    0.4515373710463346 F F F Ni
   0.2500000000000000    0.3763363394170121    0.4515373710463347 F F F Ni
   0.2500000000000000    0.8763363394170121    0.3959818154907792 F F F Ni
   0.7499999999999999    0.3763363394170121    0.3959818154907791 F F F Ni
   0.4999999999999999    0.7500000000000000    0.5208333333333333 F F F Ta
   0.0000000000000000    0.2500000000000000    0.5208333333333333 F F F Ta
   0.0000000000000000    0.7500000000000001    0.5763888888888888 F F F Ta
   0.4999999999999999    0.2500000000000000    0.5763888888888888 F F F Ta
   0.4999999999999999    0.5000000000000000    0.6041666666666666 F F F Ga
   0.0000000000000000    0.0000000000000000    0.6041666666666666 F F F Ga
   0.0000000000000000    0.5000000000000000    0.5486111111111112 F F F Ga
   0.4999999999999999    0.0000000000000000    0.5486111111111112 F F F Ga
   0.7499999999999999    0.5000000000000000    0.5763888888888888 F F F Ni
   0.2500000000000000    0.0000000000000000    0.5763888888888888 F F F Ni
   0.2500000000000000    0.5000000000000000    0.5208333333333334 F F F Ni
   0.7499999999999999    0.0000000000000000    0.5208333333333334 F F F Ni
   0.7499999999999999    0.7500000000000000    0.6041666666666666 F F F Ni
   0.2500000000000000    0.2500000000000001    0.6041666666666667 F F F Ni
   0.2500000000000000    0.7500000000000001    0.5486111111111112 F F F Ni
   0.7499999999999999    0.2500000000000001    0.5486111111111112 F F F Ni
   0.4999999999999999    0.6236636605829879    0.5623515178425542 F F F Ni
   0.0000000000000000    0.1236636605829880    0.5623515178425542 F F F Ni
   0.0000000000000000    0.6236636605829879    0.5067959622869986 F F F Ni
   0.4999999999999999    0.1236636605829880    0.5067959622869986 F F F Ni
   0.4999999999999999    0.8763363394170121    0.5904262599352236 F F F Ni
   0.0000000000000000    0.3763363394170121    0.5904262599352236 F F F Ni
   0.0000000000000000    0.8763363394170121    0.5348707043796680 F F F Ni
   0.4999999999999999    0.3763363394170121    0.5348707043796680 F F F Ni
   0.7499999999999999    0.6236636605829879    0.5345737400647764 F F F Ni
   0.2500000000000000    0.1236636605829879    0.5345737400647764 F F F Ni
   0.2500000000000000    0.6236636605829879    0.5901292956203320 F F F Ni
   0.7499999999999999    0.1236636605829879    0.5901292956203320 F F F Ni
   0.7499999999999999    0.8763363394170119    0.5626484821574458 F F F Ni
   0.2500000000000000    0.3763363394170121    0.5626484821574458 F F F Ni
   0.2500000000000000    0.8763363394170121    0.5070929266018902 F F F Ni
   0.7499999999999999    0.3763363394170121    0.5070929266018902 F F F Ni
   0.4999999999999999    0.7500000000000000    0.6319444444444444 T T T Ta
   0.0000000000000000    0.2500000000000000    0.6319444444444444 T T T Ta
   0.0000000000000000    0.7500000000000001    0.6875000000000000 T T T Ta
   0.4999999999999999    0.2500000000000000    0.6875000000000000 T T T Ta
   0.4999999999999999    0.5000000000000000    0.7152777777777777 T T T Ga
   0.0000000000000000    0.0000000000000000    0.7152777777777778 T T T Ga
   0.0000000000000000    0.5000000000000000    0.6597222222222222 T T T Ga
   0.4999999999999999    0.0000000000000000    0.6597222222222222 T T T Ga
   0.7499999999999999    0.5000000000000000    0.6875000000000000 T T T Ni
   0.2500000000000000    0.0000000000000000    0.6875000000000000 T T T Ni
   0.2500000000000000    0.5000000000000000    0.6319444444444444 T T T Ni
   0.7499999999999999    0.0000000000000000    0.6319444444444444 T T T Ni
   0.7499999999999999    0.7500000000000000    0.7152777777777778 T T T Ni
   0.2500000000000000    0.2500000000000001    0.7152777777777778 T T T Ni
   0.2500000000000000    0.7500000000000001    0.6597222222222222 T T T Ni
   0.7499999999999999    0.2500000000000001    0.6597222222222223 T T T Ni
   0.4999999999999999    0.6236636605829879    0.6734626289536654 T T T Ni
   0.0000000000000000    0.1236636605829880    0.6734626289536654 T T T Ni
   0.0000000000000000    0.6236636605829879    0.6179070733981098 T T T Ni
   0.4999999999999999    0.1236636605829880    0.6179070733981098 T T T Ni
   0.4999999999999999    0.8763363394170121    0.7015373710463346 T T T Ni
   0.0000000000000000    0.3763363394170121    0.7015373710463346 T T T Ni
   0.0000000000000000    0.8763363394170121    0.6459818154907792 T T T Ni
   0.4999999999999999    0.3763363394170121    0.6459818154907792 T T T Ni
   0.7499999999999999    0.6236636605829879    0.6456848511758875 T T T Ni
   0.2500000000000000    0.1236636605829879    0.6456848511758875 T T T Ni
   0.2500000000000000    0.6236636605829879    0.7012404067314431 T T T Ni
   0.7499999999999999    0.1236636605829879    0.7012404067314431 T T T Ni
   0.7499999999999999    0.8763363394170119    0.6737595932685568 T T T Ni
   0.2500000000000000    0.3763363394170121    0.6737595932685569 T T T Ni
   0.2500000000000000    0.8763363394170121    0.6182040377130014 T T T Ni
   0.7499999999999999    0.3763363394170121    0.6182040377130014 T T T Ni
