Zr18 Co18 Sn18
1.0
   7.1391027614211868    0.0000000000000000    0.0000000000000004
   7.1391027614211895   12.3652887032367662    3.6071121894046465
   0.0000000000000000    0.0000000000000000   28.8568975152371685
Zr Co Sn Zr Co Sn Zr Co Sn
6 6 6 6 6 6 6 6 6
Selective dynamics
direct
   0.3974929349363022    0.3012535325318489    0.3269266417668523 T T T Zr
   0.3974929349363022    0.8012535325318489    0.3894266417668522 T T T Zr
   0.6025070650636978    0.4999999999999999    0.4270833333333334 F F F Zr
   0.6025070650636979    0.0000000000000000    0.3645833333333333 T T T Zr
   0.0000000000000000    0.1987464674681510    0.3397400248998145 T T T Zr
   0.0000000000000000    0.6987464674681511    0.4022400248998144 T T T Zr
   0.0000000000000000    0.4999999999999999    0.4270833333333334 F F F Co
   0.0000000000000000    0.0000000000000000    0.3645833333333333 T T T Co
   0.6666666666666666    0.3333333333333333    0.3854166666666666 T T T Co
   0.6666666666666666    0.8333333333333334    0.3229166666666666 T T T Co
   0.3333333333333333    0.1666666666666667    0.4062500000000000 T T T Co
   0.3333333333333333    0.6666666666666667    0.3437500000000000 T T T Co
   0.2656183283248054    0.4999999999999999    0.3645833333333333 T T T Sn
   0.2656183283248054    0.0000000000000000    0.4270833333333333 F F F Sn
   0.0000000000000000    0.3671908358375973    0.3811844788536337 T T T Sn
   0.0000000000000000    0.8671908358375973    0.3186844788536337 T T T Sn
   0.7343816716751945    0.1328091641624027    0.4104821878130330 T T T Sn
   0.7343816716751945    0.6328091641624027    0.3479821878130330 T T T Sn
   0.3974929349363022    0.3012535325318489    0.4519266417668523 F F F Zr
   0.3974929349363022    0.8012535325318489    0.5144266417668522 F F F Zr
   0.6025070650636978    0.4999999999999999    0.5520833333333334 F F F Zr
   0.6025070650636979    0.0000000000000000    0.4895833333333333 F F F Zr
   0.0000000000000000    0.1987464674681510    0.4647400248998145 F F F Zr
   0.0000000000000000    0.6987464674681511    0.5272400248998144 F F F Zr
   0.0000000000000000    0.4999999999999999    0.5520833333333334 F F F Co
   0.0000000000000000    0.0000000000000000    0.4895833333333333 F F F Co
   0.6666666666666666    0.3333333333333333    0.5104166666666666 F F F Co
   0.6666666666666666    0.8333333333333334    0.4479166666666666 F F F Co
   0.3333333333333333    0.1666666666666667    0.5312500000000000 F F F Co
   0.3333333333333333    0.6666666666666667    0.4687500000000000 F F F Co
   0.2656183283248054    0.4999999999999999    0.4895833333333333 F F F Sn
   0.2656183283248054    0.0000000000000000    0.5520833333333333 F F F Sn
   0.0000000000000000    0.3671908358375973    0.5061844788536336 F F F Sn
   0.0000000000000000    0.8671908358375973    0.4436844788536337 F F F Sn
   0.7343816716751945    0.1328091641624027    0.5354821878130329 F F F Sn
   0.7343816716751945    0.6328091641624027    0.4729821878130330 F F F Sn
   0.3974929349363022    0.3012535325318489    0.5769266417668523 T T T Zr
   0.3974929349363022    0.8012535325318489    0.6394266417668522 T T T Zr
   0.6025070650636978    0.4999999999999999    0.6770833333333333 T T T Zr
   0.6025070650636979    0.0000000000000000    0.6145833333333333 T T T Zr
   0.0000000000000000    0.1987464674681510    0.5897400248998145 T T T Zr
   0.0000000000000000    0.6987464674681511    0.6522400248998144 T T T Zr
   0.0000000000000000    0.4999999999999999    0.6770833333333333 T T T Co
   0.0000000000000000    0.0000000000000000    0.6145833333333333 T T T Co
   0.6666666666666666    0.3333333333333333    0.6354166666666667 T T T Co
   0.6666666666666666    0.8333333333333334    0.5729166666666666 T T T Co
   0.3333333333333333    0.1666666666666667    0.6562500000000000 T T T Co
   0.3333333333333333    0.6666666666666667    0.5937500000000000 T T T Co
   0.2656183283248054    0.4999999999999999    0.6145833333333333 T T T Sn
   0.2656183283248054    0.0000000000000000    0.6770833333333333 T T T Sn
   0.0000000000000000    0.3671908358375973    0.6311844788536336 T T T Sn
   0.0000000000000000    0.8671908358375973    0.5686844788536336 F F F Sn
   0.7343816716751945    0.1328091641624027    0.6604821878130329 T T T Sn
   0.7343816716751945    0.6328091641624027    0.5979821878130329 T T T Sn
