Y18 Sn18 Rh18
1.0
  13.2009665260647555    0.0000000000000000    0.0000000000000008
   0.0000000000000012    7.6215815773867241   -3.8017487059147865
   0.0000000000000000    0.0000000000000000   30.4139896473182887
Y Sn Rh Y Sn Rh Y Sn Rh
6 6 6 6 6 6 6 6 6
Selective dynamics
direct
   0.5000000000000000    0.0951214858271927    0.3695290746172879 T T T Y
   0.0000000000000000    0.5951214858271926    0.4320290746172879 F F F Y
   0.2975607429135964    0.7024392570864038    0.3204437960246893 T T T Y
   0.7975607429135962    0.2024392570864037    0.3829437960246893 T T T Y
   0.2024392570864037    0.2024392570864037    0.3829437960246893 T T T Y
   0.7024392570864038    0.7024392570864038    0.3204437960246893 T T T Y
   0.5000000000000000    0.7632578570443657    0.3905461210194345 T T T Sn
   0.0000000000000000    0.2632578570443657    0.3280461210194345 T T T Sn
   0.1316289285221829    0.8683710714778172    0.4036852728236159 T T T Sn
   0.6316289285221828    0.3683710714778172    0.3411852728236160 T T T Sn
   0.3683710714778172    0.3683710714778172    0.3411852728236160 T T T Sn
   0.8683710714778172    0.8683710714778172    0.4036852728236160 T T T Sn
   0.1666666666666667    0.5000000000000000    0.3576388888888888 T T T Rh
   0.6666666666666667    0.0000000000000000    0.4201388888888888 T T T Rh
   0.3333333333333333    0.0000000000000000    0.4201388888888888 T T T Rh
   0.8333333333333333    0.5000000000000000    0.3576388888888888 T T T Rh
   0.5000000000000000    0.5000000000000000    0.4201388888888888 T T T Rh
   0.0000000000000000    0.0000000000000000    0.3576388888888888 T T T Rh
   0.5000000000000000    0.0951214858271927    0.4945290746172879 F F F Y
   0.0000000000000000    0.5951214858271926    0.5570290746172879 F F F Y
   0.2975607429135964    0.7024392570864038    0.4454437960246893 F F F Y
   0.7975607429135962    0.2024392570864037    0.5079437960246893 F F F Y
   0.2024392570864037    0.2024392570864037    0.5079437960246893 F F F Y
   0.7024392570864038    0.7024392570864038    0.4454437960246893 F F F Y
   0.5000000000000000    0.7632578570443657    0.5155461210194345 F F F Sn
   0.0000000000000000    0.2632578570443657    0.4530461210194345 F F F Sn
   0.1316289285221829    0.8683710714778172    0.5286852728236160 F F F Sn
   0.6316289285221828    0.3683710714778172    0.4661852728236160 F F F Sn
   0.3683710714778172    0.3683710714778172    0.4661852728236160 F F F Sn
   0.8683710714778172    0.8683710714778172    0.5286852728236160 F F F Sn
   0.1666666666666667    0.5000000000000000    0.4826388888888888 F F F Rh
   0.6666666666666667    0.0000000000000000    0.5451388888888888 F F F Rh
   0.3333333333333333    0.0000000000000000    0.5451388888888888 F F F Rh
   0.8333333333333333    0.5000000000000000    0.4826388888888888 F F F Rh
   0.5000000000000000    0.5000000000000000    0.5451388888888888 F F F Rh
   0.0000000000000000    0.0000000000000000    0.4826388888888888 F F F Rh
   0.5000000000000000    0.0951214858271927    0.6195290746172879 T T T Y
   0.0000000000000000    0.5951214858271926    0.6820290746172879 T T T Y
   0.2975607429135964    0.7024392570864038    0.5704437960246893 F F F Y
   0.7975607429135962    0.2024392570864037    0.6329437960246893 T T T Y
   0.2024392570864037    0.2024392570864037    0.6329437960246893 T T T Y
   0.7024392570864038    0.7024392570864038    0.5704437960246893 F F F Y
   0.5000000000000000    0.7632578570443657    0.6405461210194345 T T T Sn
   0.0000000000000000    0.2632578570443657    0.5780461210194345 T T T Sn
   0.1316289285221829    0.8683710714778172    0.6536852728236160 T T T Sn
   0.6316289285221828    0.3683710714778172    0.5911852728236160 T T T Sn
   0.3683710714778172    0.3683710714778172    0.5911852728236160 T T T Sn
   0.8683710714778172    0.8683710714778172    0.6536852728236160 T T T Sn
   0.1666666666666667    0.5000000000000000    0.6076388888888888 T T T Rh
   0.6666666666666667    0.0000000000000000    0.6701388888888888 T T T Rh
   0.3333333333333333    0.0000000000000000    0.6701388888888888 T T T Rh
   0.8333333333333333    0.5000000000000000    0.6076388888888888 T T T Rh
   0.5000000000000000    0.5000000000000000    0.6701388888888888 T T T Rh
   0.0000000000000000    0.0000000000000000    0.6076388888888888 T T T Rh
