Ba16 In32 Rh16
1.0
   4.4922680931448147    0.0000000000000000    0.0000000000000003
  -0.0000000000000067   23.5271536666919552    8.1741198910427162
   0.0000000000000000    0.0000000000000000   32.6964795641708790
Ba In Rh Ba In Rh
8 16 8 8 16 8
Selective dynamics
direct
   0.5000000000000000    0.2245223118823106    0.3813694220294224 F F F Ba
   0.5000000000000000    0.7245223118823106    0.2563694220294223 T T T Ba
   0.0000000000000000    0.0254776881176894    0.3061305779705776 T T T Ba
   0.0000000000000000    0.5254776881176894    0.4311305779705776 F F F Ba
   0.0000000000000000    0.4745223118823106    0.3188694220294224 T T T Ba
   0.0000000000000000    0.9745223118823105    0.4438694220294224 F F F Ba
   0.5000000000000000    0.2754776881176894    0.4936305779705776 F F F Ba
   0.5000000000000001    0.7754776881176895    0.3686305779705776 F F F Ba
   0.0000000000000000    0.1663454643365157    0.3196260833921674 T T T In
   0.0000000000000000    0.6663454643365156    0.4446260833921674 F F F In
   0.5000000000000000    0.0836545356634843    0.3678739166078326 F F F In
   0.5000000000000000    0.5836545356634844    0.4928739166078326 F F F In
   0.0000000000000000    0.1663454643365157    0.4722011844395748 F F F In
   0.0000000000000000    0.6663454643365156    0.3472011844395748 T T T In
   0.5000000000000000    0.0836545356634843    0.4652988155604252 F F F In
   0.5000000000000000    0.5836545356634844    0.3402988155604251 T T T In
   0.5000000000000000    0.4163454643365156    0.2571260833921674 T T T In
   0.5000000000000000    0.9163454643365155    0.3821260833921674 F F F In
   0.0000000000000000    0.3336545356634844    0.3053739166078326 T T T In
   0.0000000000000000    0.8336545356634844    0.4303739166078326 F F F In
   0.5000000000000000    0.4163454643365156    0.4097011844395748 F F F In
   0.5000000000000000    0.9163454643365155    0.2847011844395748 T T T In
   0.0000000000000000    0.3336545356634844    0.4027988155604252 F F F In
   0.0000000000000000    0.8336545356634844    0.2777988155604251 T T T In
   0.5000000000000000    0.1413631127874169    0.2771592218031458 T T T Rh
   0.5000000000000001    0.6413631127874169    0.4021592218031457 F F F Rh
   0.0000000000000000    0.1086368872125831    0.4103407781968542 F F F Rh
   0.0000000000000000    0.6086368872125831    0.2853407781968542 T T T Rh
   0.0000000000000000    0.3913631127874168    0.4646592218031458 F F F Rh
   0.0000000000000000    0.8913631127874168    0.3396592218031458 T T T Rh
   0.5000000000000000    0.3586368872125831    0.3478407781968542 T T T Rh
   0.5000000000000000    0.8586368872125832    0.4728407781968542 F F F Rh
   0.5000000000000000    0.2245223118823106    0.6313694220294224 F F F Ba
   0.5000000000000000    0.7245223118823106    0.5063694220294224 F F F Ba
   0.0000000000000000    0.0254776881176894    0.5561305779705776 F F F Ba
   0.0000000000000000    0.5254776881176894    0.6811305779705776 T T T Ba
   0.0000000000000000    0.4745223118823106    0.5688694220294224 F F F Ba
   0.0000000000000000    0.9745223118823105    0.6938694220294224 T T T Ba
   0.5000000000000000    0.2754776881176894    0.7436305779705776 T T T Ba
   0.5000000000000001    0.7754776881176895    0.6186305779705776 F F F Ba
   0.0000000000000000    0.1663454643365157    0.5696260833921674 F F F In
   0.0000000000000000    0.6663454643365156    0.6946260833921674 T T T In
   0.5000000000000000    0.0836545356634843    0.6178739166078326 F F F In
   0.5000000000000000    0.5836545356634844    0.7428739166078326 T T T In
   0.0000000000000000    0.1663454643365157    0.7222011844395748 T T T In
   0.0000000000000000    0.6663454643365156    0.5972011844395748 F F F In
   0.5000000000000000    0.0836545356634843    0.7152988155604252 T T T In
   0.5000000000000000    0.5836545356634844    0.5902988155604252 F F F In
   0.5000000000000000    0.4163454643365156    0.5071260833921674 F F F In
   0.5000000000000000    0.9163454643365155    0.6321260833921674 F F F In
   0.0000000000000000    0.3336545356634844    0.5553739166078326 F F F In
   0.0000000000000000    0.8336545356634844    0.6803739166078326 T T T In
   0.5000000000000000    0.4163454643365156    0.6597011844395748 T T T In
   0.5000000000000000    0.9163454643365155    0.5347011844395748 F F F In
   0.0000000000000000    0.3336545356634844    0.6527988155604252 T T T In
   0.0000000000000000    0.8336545356634844    0.5277988155604252 F F F In
   0.5000000000000000    0.1413631127874169    0.5271592218031458 F F F Rh
   0.5000000000000001    0.6413631127874169    0.6521592218031458 T T T Rh
   0.0000000000000000    0.1086368872125831    0.6603407781968542 T T T Rh
   0.0000000000000000    0.6086368872125831    0.5353407781968542 F F F Rh
   0.0000000000000000    0.3913631127874168    0.7146592218031458 T T T Rh
   0.0000000000000000    0.8913631127874168    0.5896592218031458 F F F Rh
   0.5000000000000000    0.3586368872125831    0.5978407781968542 F F F Rh
   0.5000000000000000    0.8586368872125832    0.7228407781968542 T T T Rh
