Fe4 Ni4 Pt24
1.0
   3.8962536294659977    0.0000000000000000   -3.8962536294659973
  -0.0000000000000005    7.7511830833260591   -3.8962536294659995
   0.0000000000000000    0.0000000000000000   38.9625362946599836
Fe Ni Pt Fe Ni Pt Fe Ni Pt Fe Ni Pt
1 1 6 1 1 6 1 1 6 1 1 6
Selective dynamics
direct
   0.0000000000000000    0.0000000000000000    0.3625000000000000 T T T Fe
   0.0000000000000000    0.5000000000000000    0.3125000000000000 T T T Ni
   0.4999999999999999    0.0000000000000001    0.3625000000000000 T T T Pt
   0.4999999999999999    0.5000000000000001    0.3125000000000000 T T T Pt
   0.0000000000000000    0.2488651007320045    0.3373865100732005 T T T Pt
   0.0000000000000000    0.7511348992679957    0.3876134899267996 T T T Pt
   0.4999999999999999    0.2488651007320045    0.3373865100732005 T T T Pt
   0.4999999999999999    0.7511348992679957    0.3876134899267996 T T T Pt
   0.0000000000000000    0.0000000000000000    0.4625000000000000 F F F Fe
   0.0000000000000000    0.5000000000000000    0.4125000000000000 T T T Ni
   0.4999999999999999    0.0000000000000001    0.4625000000000000 F F F Pt
   0.4999999999999999    0.5000000000000001    0.4125000000000000 T T T Pt
   0.0000000000000000    0.2488651007320045    0.4373865100732005 F F F Pt
   0.0000000000000000    0.7511348992679957    0.4876134899267996 F F F Pt
   0.4999999999999999    0.2488651007320045    0.4373865100732005 F F F Pt
   0.4999999999999999    0.7511348992679957    0.4876134899267996 F F F Pt
   0.0000000000000000    0.0000000000000000    0.5625000000000000 F F F Fe
   0.0000000000000000    0.5000000000000000    0.5125000000000000 F F F Ni
   0.4999999999999999    0.0000000000000001    0.5625000000000000 F F F Pt
   0.4999999999999999    0.5000000000000001    0.5125000000000000 F F F Pt
   0.0000000000000000    0.2488651007320045    0.5373865100732005 F F F Pt
   0.0000000000000000    0.7511348992679957    0.5876134899267995 T T T Pt
   0.4999999999999999    0.2488651007320045    0.5373865100732005 F F F Pt
   0.4999999999999999    0.7511348992679957    0.5876134899267995 T T T Pt
   0.0000000000000000    0.0000000000000000    0.6625000000000000 T T T Fe
   0.0000000000000000    0.5000000000000000    0.6125000000000000 T T T Ni
   0.4999999999999999    0.0000000000000001    0.6625000000000000 T T T Pt
   0.4999999999999999    0.5000000000000001    0.6125000000000000 T T T Pt
   0.0000000000000000    0.2488651007320045    0.6373865100732005 T T T Pt
   0.0000000000000000    0.7511348992679957    0.6876134899267996 T T T Pt
   0.4999999999999999    0.2488651007320045    0.6373865100732005 T T T Pt
   0.4999999999999999    0.7511348992679957    0.6876134899267996 T T T Pt
