Fe3 Ni3 Pt18
1.0
   3.8962536294659982    0.0000000000000000    0.0000000000000002
   0.0000000000000012    7.7511830833260600    0.0000000000000005
   0.0000000000000000    0.0000000000000000   27.2737754062619864
Fe Ni Pt Fe Ni Pt Fe Ni Pt
1 1 6 1 1 6 1 1 6
Selective dynamics
direct
   0.0000000000000000    0.0000000000000000    0.3928571428571428 T T T Fe
   0.0000000000000000    0.5000000000000000    0.3928571428571428 T T T Ni
   0.4999999999999999    0.0000000000000000    0.3214285714285714 T T T Pt
   0.4999999999999999    0.5000000000000001    0.3214285714285714 T T T Pt
   0.0000000000000000    0.2488651007320044    0.3214285714285714 T T T Pt
   0.0000000000000000    0.7511348992679957    0.3214285714285714 T T T Pt
   0.4999999999999999    0.2488651007320044    0.3928571428571428 T T T Pt
   0.4999999999999999    0.7511348992679957    0.3928571428571428 T T T Pt
   0.0000000000000000    0.0000000000000000    0.5357142857142857 F F F Fe
   0.0000000000000000    0.5000000000000000    0.5357142857142857 F F F Ni
   0.4999999999999999    0.0000000000000000    0.4642857142857142 F F F Pt
   0.4999999999999999    0.5000000000000001    0.4642857142857142 F F F Pt
   0.0000000000000000    0.2488651007320044    0.4642857142857142 F F F Pt
   0.0000000000000000    0.7511348992679957    0.4642857142857142 F F F Pt
   0.4999999999999999    0.2488651007320044    0.5357142857142857 F F F Pt
   0.4999999999999999    0.7511348992679957    0.5357142857142857 F F F Pt
   0.0000000000000000    0.0000000000000000    0.6785714285714286 T T T Fe
   0.0000000000000000    0.5000000000000000    0.6785714285714286 T T T Ni
   0.4999999999999999    0.0000000000000000    0.6071428571428571 T T T Pt
   0.4999999999999999    0.5000000000000001    0.6071428571428571 T T T Pt
   0.0000000000000000    0.2488651007320044    0.6071428571428571 T T T Pt
   0.0000000000000000    0.7511348992679957    0.6071428571428571 T T T Pt
   0.4999999999999999    0.2488651007320044    0.6785714285714286 T T T Pt
   0.4999999999999999    0.7511348992679957    0.6785714285714286 T T T Pt
