Rb6 Si24 Pt24
1.0
   8.5457988582209872    0.0000000000000000    0.0000000000000005
  -0.0000000000000024    8.5457988582209872    4.6313918254273965
   0.0000000000000000    0.0000000000000000   32.4197427779917788
Rb Si Pt Rb Si Pt Rb Si Pt
2 8 8 2 8 8 2 8 8
Selective dynamics
direct
   0.0000000000000000    0.0000000000000000    0.3826456875035938 T T T Rb
   0.5000000000000000    0.5000000000000000    0.3826456875035939 T T T Rb
   0.6145369212132579    0.1132432767016951    0.4092068447090658 F F F Si
   0.3854630787867421    0.8867567232983049    0.2987049237666930 T T T Si
   0.3867567232983049    0.1145369212132579    0.3375934669216997 T T T Si
   0.6132432767016951    0.8854630787867421    0.3703183015540591 T T T Si
   0.1145369212132579    0.6132432767016951    0.4092068447090658 F F F Si
   0.8854630787867421    0.3867567232983049    0.2987049237666930 T T T Si
   0.8867567232983049    0.6145369212132579    0.3375934669216997 T T T Si
   0.1132432767016951    0.3854630787867421    0.3703183015540591 T T T Si
   0.3285119844520068    0.8244152690519968    0.3790376554502226 T T T Pt
   0.6714880155479932    0.1755847309480032    0.3288705894650788 T T T Pt
   0.6755847309480032    0.8285119844520068    0.3070238389645069 T T T Pt
   0.3244152690519967    0.1714880155479931    0.4008844059507945 T T T Pt
   0.8285119844520068    0.3244152690519968    0.3790376554502226 T T T Pt
   0.1714880155479932    0.6755847309480032    0.3288705894650788 T T T Pt
   0.1755847309480032    0.3285119844520068    0.3070238389645069 T T T Pt
   0.8244152690519968    0.6714880155479932    0.4008844059507945 T T T Pt
   0.0000000000000000    0.0000000000000000    0.5255028303607368 F F F Rb
   0.5000000000000000    0.5000000000000000    0.5255028303607368 F F F Rb
   0.6145369212132579    0.1132432767016951    0.5520639875662087 F F F Si
   0.3854630787867421    0.8867567232983049    0.4415620666238358 F F F Si
   0.3867567232983049    0.1145369212132579    0.4804506097788426 F F F Si
   0.6132432767016951    0.8854630787867421    0.5131754444112020 F F F Si
   0.1145369212132579    0.6132432767016951    0.5520639875662087 F F F Si
   0.8854630787867421    0.3867567232983049    0.4415620666238358 F F F Si
   0.8867567232983049    0.6145369212132579    0.4804506097788426 F F F Si
   0.1132432767016951    0.3854630787867421    0.5131754444112020 F F F Si
   0.3285119844520068    0.8244152690519968    0.5218947983073654 F F F Pt
   0.6714880155479932    0.1755847309480032    0.4717277323222216 F F F Pt
   0.6755847309480032    0.8285119844520068    0.4498809818216497 F F F Pt
   0.3244152690519967    0.1714880155479931    0.5437415488079373 F F F Pt
   0.8285119844520068    0.3244152690519968    0.5218947983073654 F F F Pt
   0.1714880155479932    0.6755847309480032    0.4717277323222216 F F F Pt
   0.1755847309480032    0.3285119844520068    0.4498809818216497 F F F Pt
   0.8244152690519968    0.6714880155479932    0.5437415488079373 F F F Pt
   0.0000000000000000    0.0000000000000000    0.6683599732178795 T T T Rb
   0.5000000000000000    0.5000000000000000    0.6683599732178795 T T T Rb
   0.6145369212132579    0.1132432767016951    0.6949211304233516 T T T Si
   0.3854630787867421    0.8867567232983049    0.5844192094809787 F F F Si
   0.3867567232983049    0.1145369212132579    0.6233077526359854 T T T Si
   0.6132432767016951    0.8854630787867421    0.6560325872683448 T T T Si
   0.1145369212132579    0.6132432767016951    0.6949211304233516 T T T Si
   0.8854630787867421    0.3867567232983049    0.5844192094809787 F F F Si
   0.8867567232983049    0.6145369212132579    0.6233077526359854 T T T Si
   0.1132432767016951    0.3854630787867421    0.6560325872683448 T T T Si
   0.3285119844520068    0.8244152690519968    0.6647519411645082 T T T Pt
   0.6714880155479932    0.1755847309480032    0.6145848751793646 T T T Pt
   0.6755847309480032    0.8285119844520068    0.5927381246787926 T T T Pt
   0.3244152690519967    0.1714880155479931    0.6865986916650801 T T T Pt
   0.8285119844520068    0.3244152690519968    0.6647519411645082 T T T Pt
   0.1714880155479932    0.6755847309480032    0.6145848751793646 T T T Pt
   0.1755847309480032    0.3285119844520068    0.5927381246787926 T T T Pt
   0.8244152690519968    0.6714880155479932    0.6865986916650801 T T T Pt
