Rb6 Si24 Pt24
1.0
  12.0855846466086287    0.0000000000000000    0.0000000000000007
   6.0427923233043135    6.0427923233043197    4.6313918254273947
   0.0000000000000000    0.0000000000000000   37.0511346034191789
Rb Si Pt Rb Si Pt Rb Si Pt
2 8 8 2 8 8 2 8 8
Selective dynamics
direct
   0.0000000000000000    0.0000000000000000    0.3660649765656447 T T T Rb
   0.5000000000000000    0.0000000000000000    0.4285649765656447 F F F Rb
   0.6145369212132579    0.4987063554884372    0.3411231042720899 T T T Si
   0.3854630787867421    0.5012936445115628    0.3407996931441992 T T T Si
   0.3867567232983049    0.7277801979149530    0.3749888739687754 T T T Si
   0.6132432767016951    0.2722198020850470    0.4319339234475137 F F F Si
   0.1145369212132579    0.4987063554884372    0.4036231042720899 T T T Si
   0.8854630787867421    0.5012936445115628    0.4032996931441992 T T T Si
   0.8867567232983049    0.7277801979149530    0.3124888739687754 T T T Si
   0.1132432767016951    0.2722198020850470    0.3694339234475137 T T T Si
   0.3285119844520068    0.4959032845999900    0.4039719465754457 T T T Pt
   0.6714880155479932    0.5040967154000100    0.4029477677254432 T T T Pt
   0.6755847309480032    0.1529272535040037    0.3843439504624440 T T T Pt
   0.3244152690519967    0.8470727464959964    0.4225757638384449 F F F Pt
   0.8285119844520068    0.4959032845999900    0.3414719465754457 T T T Pt
   0.1714880155479932    0.5040967154000100    0.3404477677254432 T T T Pt
   0.1755847309480032    0.1529272535040036    0.3218439504624440 T T T Pt
   0.8244152690519968    0.8470727464959964    0.3600757638384449 T T T Pt
   0.0000000000000000    0.0000000000000000    0.4910649765656447 F F F Rb
   0.5000000000000000    0.0000000000000000    0.5535649765656447 F F F Rb
   0.6145369212132579    0.4987063554884372    0.4661231042720899 F F F Si
   0.3854630787867421    0.5012936445115628    0.4657996931441992 F F F Si
   0.3867567232983049    0.7277801979149530    0.4999888739687754 F F F Si
   0.6132432767016951    0.2722198020850470    0.5569339234475137 F F F Si
   0.1145369212132579    0.4987063554884372    0.5286231042720899 F F F Si
   0.8854630787867421    0.5012936445115628    0.5282996931441992 F F F Si
   0.8867567232983049    0.7277801979149530    0.4374888739687754 F F F Si
   0.1132432767016951    0.2722198020850470    0.4944339234475137 F F F Si
   0.3285119844520068    0.4959032845999900    0.5289719465754457 F F F Pt
   0.6714880155479932    0.5040967154000100    0.5279477677254432 F F F Pt
   0.6755847309480032    0.1529272535040037    0.5093439504624440 F F F Pt
   0.3244152690519967    0.8470727464959964    0.5475757638384449 F F F Pt
   0.8285119844520068    0.4959032845999900    0.4664719465754457 F F F Pt
   0.1714880155479932    0.5040967154000100    0.4654477677254432 F F F Pt
   0.1755847309480032    0.1529272535040036    0.4468439504624440 F F F Pt
   0.8244152690519968    0.8470727464959964    0.4850757638384449 F F F Pt
   0.0000000000000000    0.0000000000000000    0.6160649765656447 T T T Rb
   0.5000000000000000    0.0000000000000000    0.6785649765656447 T T T Rb
   0.6145369212132579    0.4987063554884372    0.5911231042720899 T T T Si
   0.3854630787867421    0.5012936445115628    0.5907996931441992 T T T Si
   0.3867567232983049    0.7277801979149530    0.6249888739687754 T T T Si
   0.6132432767016951    0.2722198020850470    0.6819339234475137 T T T Si
   0.1145369212132579    0.4987063554884372    0.6536231042720899 T T T Si
   0.8854630787867421    0.5012936445115628    0.6532996931441992 T T T Si
   0.8867567232983049    0.7277801979149530    0.5624888739687754 F F F Si
   0.1132432767016951    0.2722198020850470    0.6194339234475137 T T T Si
   0.3285119844520068    0.4959032845999900    0.6539719465754457 T T T Pt
   0.6714880155479932    0.5040967154000100    0.6529477677254432 T T T Pt
   0.6755847309480032    0.1529272535040037    0.6343439504624440 T T T Pt
   0.3244152690519967    0.8470727464959964    0.6725757638384449 T T T Pt
   0.8285119844520068    0.4959032845999900    0.5914719465754457 T T T Pt
   0.1714880155479932    0.5040967154000100    0.5904477677254432 T T T Pt
   0.1755847309480032    0.1529272535040036    0.5718439504624440 F F F Pt
   0.8244152690519968    0.8470727464959964    0.6100757638384449 T T T Pt
