Mn10 Al20 Cr30
1.0
   2.9142887062239873    0.0000000000000000   -2.9142887062239868
  -0.0000000000000011   17.4216219060164086   -2.9142887062239917
   0.0000000000000000    0.0000000000000000   37.8857531809118413
Mn Al Cr Mn Al Cr Mn Al Cr Mn Al Cr Mn Al Cr
2 4 6 2 4 6 2 4 6 2 4 6 2 4 6
Selective dynamics
direct
   0.5000000000000000    0.0894569192457339    0.3113684808394154 T T T Mn
   0.5000000000000000    0.5894569192457340    0.3498300193009539 T T T Mn
   0.0000000000000000    0.0011556675903641    0.3814991537890023 T T T Al
   0.0000000000000000    0.5011556675903641    0.3430376153274639 T T T Al
   0.5000000000000000    0.2498229689250806    0.3237043308147498 T T T Al
   0.5000000000000000    0.7498229689250806    0.3621658692762882 T T T Al
   0.0000000000000000    0.3429072343877664    0.3308646589272641 T T T Cr
   0.0000000000000000    0.8429072343877664    0.3693261973888025 T T T Cr
   0.0000000000000000    0.1583908968608690    0.3166710945021181 T T T Cr
   0.0000000000000000    0.6583908968608689    0.3551326329636565 T T T Cr
   0.5000000000000000    0.4082663229901868    0.3358922811274502 T T T Cr
   0.5000000000000000    0.9082663229901868    0.3743538195889887 T T T Cr
   0.5000000000000000    0.0894569192457339    0.3882915577624924 T T T Mn
   0.5000000000000000    0.5894569192457340    0.4267530962240308 F F F Mn
   0.0000000000000000    0.0011556675903641    0.4584222307120793 F F F Al
   0.0000000000000000    0.5011556675903641    0.4199606922505408 T T T Al
   0.5000000000000000    0.2498229689250806    0.4006274077378267 T T T Al
   0.5000000000000000    0.7498229689250806    0.4390889461993652 F F F Al
   0.0000000000000000    0.3429072343877664    0.4077877358503410 T T T Cr
   0.0000000000000000    0.8429072343877664    0.4462492743118794 F F F Cr
   0.0000000000000000    0.1583908968608690    0.3935941714251950 T T T Cr
   0.0000000000000000    0.6583908968608689    0.4320557098867335 F F F Cr
   0.5000000000000000    0.4082663229901868    0.4128153580505272 T T T Cr
   0.5000000000000000    0.9082663229901868    0.4512768965120657 F F F Cr
   0.5000000000000000    0.0894569192457339    0.4652146346855693 F F F Mn
   0.5000000000000000    0.5894569192457340    0.5036761731471078 F F F Mn
   0.0000000000000000    0.0011556675903641    0.5353453076351562 F F F Al
   0.0000000000000000    0.5011556675903641    0.4968837691736178 F F F Al
   0.5000000000000000    0.2498229689250806    0.4775504846609037 F F F Al
   0.5000000000000000    0.7498229689250806    0.5160120231224421 F F F Al
   0.0000000000000000    0.3429072343877664    0.4847108127734179 F F F Cr
   0.0000000000000000    0.8429072343877664    0.5231723512349564 F F F Cr
   0.0000000000000000    0.1583908968608690    0.4705172483482720 F F F Cr
   0.0000000000000000    0.6583908968608689    0.5089787868098105 F F F Cr
   0.5000000000000000    0.4082663229901868    0.4897384349736041 F F F Cr
   0.5000000000000000    0.9082663229901868    0.5281999734351426 F F F Cr
   0.5000000000000000    0.0894569192457339    0.5421377116086462 F F F Mn
   0.5000000000000000    0.5894569192457340    0.5805992500701846 T T T Mn
   0.0000000000000000    0.0011556675903641    0.6122683845582331 T T T Al
   0.0000000000000000    0.5011556675903641    0.5738068460966947 F F F Al
   0.5000000000000000    0.2498229689250806    0.5544735615839805 F F F Al
   0.5000000000000000    0.7498229689250806    0.5929351000455190 T T T Al
   0.0000000000000000    0.3429072343877664    0.5616338896964949 F F F Cr
   0.0000000000000000    0.8429072343877664    0.6000954281580333 T T T Cr
   0.0000000000000000    0.1583908968608690    0.5474403252713489 F F F Cr
   0.0000000000000000    0.6583908968608689    0.5859018637328873 T T T Cr
   0.5000000000000000    0.4082663229901868    0.5666615118966810 F F F Cr
   0.5000000000000000    0.9082663229901868    0.6051230503582194 T T T Cr
   0.5000000000000000    0.0894569192457339    0.6190607885317232 T T T Mn
   0.5000000000000000    0.5894569192457340    0.6575223269932615 T T T Mn
   0.0000000000000000    0.0011556675903641    0.6891914614813101 T T T Al
   0.0000000000000000    0.5011556675903641    0.6507299230197716 T T T Al
   0.5000000000000000    0.2498229689250806    0.6313966385070575 T T T Al
   0.5000000000000000    0.7498229689250806    0.6698581769685960 T T T Al
   0.0000000000000000    0.3429072343877664    0.6385569666195718 T T T Cr
   0.0000000000000000    0.8429072343877664    0.6770185050811102 T T T Cr
   0.0000000000000000    0.1583908968608690    0.6243634021944258 T T T Cr
   0.0000000000000000    0.6583908968608689    0.6628249406559643 T T T Cr
   0.5000000000000000    0.4082663229901868    0.6435845888197580 T T T Cr
   0.5000000000000000    0.9082663229901868    0.6820461272812964 T T T Cr
