Mn5 Al10 Cr15
1.0
   2.9142887062239873    0.0000000000000000   -2.9142887062239868
  -0.0000000000000005    8.7108109530082025   -2.9142887062239895
   0.0000000000000000    0.0000000000000000   37.8857531809118413
Mn Al Cr Mn Al Cr Mn Al Cr Mn Al Cr Mn Al Cr
1 2 3 1 2 3 1 2 3 1 2 3 1 2 3
Selective dynamics
direct
   0.5000000000000000    0.1789138384914679    0.3535061924480616 T T T Mn
   0.0000000000000000    0.0023113351807282    0.3399213845010816 T T T Al
   0.5000000000000000    0.4996459378501613    0.3781778923987303 T T T Al
   0.0000000000000000    0.6858144687755328    0.3155754717006820 T T T Cr
   0.0000000000000000    0.3167817937217379    0.3641114197734670 T T T Cr
   0.5000000000000000    0.8165326459803737    0.3256307161010544 T T T Cr
   0.5000000000000000    0.1789138384914679    0.4304292693711385 T T T Mn
   0.0000000000000000    0.0023113351807282    0.4168444614241585 T T T Al
   0.5000000000000000    0.4996459378501613    0.4551009693218072 F F F Al
   0.0000000000000000    0.6858144687755328    0.3924985486237589 T T T Cr
   0.0000000000000000    0.3167817937217379    0.4410344966965439 F F F Cr
   0.5000000000000000    0.8165326459803737    0.4025537930241313 T T T Cr
   0.5000000000000000    0.1789138384914679    0.5073523462942154 F F F Mn
   0.0000000000000000    0.0023113351807282    0.4937675383472355 F F F Al
   0.5000000000000000    0.4996459378501613    0.5320240462448842 F F F Al
   0.0000000000000000    0.6858144687755328    0.4694216255468359 F F F Cr
   0.0000000000000000    0.3167817937217379    0.5179575736196208 F F F Cr
   0.5000000000000000    0.8165326459803737    0.4794768699472082 F F F Cr
   0.5000000000000000    0.1789138384914679    0.5842754232172924 T T T Mn
   0.0000000000000000    0.0023113351807282    0.5706906152703124 F F F Al
   0.5000000000000000    0.4996459378501613    0.6089471231679611 T T T Al
   0.0000000000000000    0.6858144687755328    0.5463447024699127 F F F Cr
   0.0000000000000000    0.3167817937217379    0.5948806505426978 T T T Cr
   0.5000000000000000    0.8165326459803737    0.5563999468702852 F F F Cr
   0.5000000000000000    0.1789138384914679    0.6611985001403693 T T T Mn
   0.0000000000000000    0.0023113351807282    0.6476136921933893 T T T Al
   0.5000000000000000    0.4996459378501613    0.6858702000910381 T T T Al
   0.0000000000000000    0.6858144687755328    0.6232677793929897 T T T Cr
   0.0000000000000000    0.3167817937217379    0.6718037274657747 T T T Cr
   0.5000000000000000    0.8165326459803737    0.6333230237933620 T T T Cr
