Al36 Si12 Pd48
1.0
   6.0306393483727296    0.0000000000000000  -10.4453737535056472
  -0.0000000000000079    8.3292108185036735   -6.9635825023370970
   0.0000000000000000    0.0000000000000000   62.6722425210338656
Al Si Pd Al Si Pd Al Si Pd Al Si Pd
9 3 12 9 3 12 9 3 12 9 3 12
Selective dynamics
direct
   0.2665559300898153    0.6172124170889908    0.2852575352561748 T T T Al
   0.9586600817036199    0.6172124170889909    0.3075166696706809 T T T Al
   0.7747839882065648    0.6172124170889908    0.3212966424361409 T T T Al
   0.5998892634231485    0.9505457504223240    0.3222945722932119 T T T Al
   0.2919934150369533    0.9505457504223240    0.3445537067077179 T T T Al
   0.1081173215398981    0.9505457504223240    0.3583336794731779 T T T Al
   0.9332225967564820    0.2838790837556573    0.3593316093302489 T T T Al
   0.6253267483702865    0.2838790837556573    0.3815907437447549 T T T Al
   0.4414506548732313    0.2838790837556573    0.2842596053991038 T T T Al
   0.0000000000000000    0.1562663632136675    0.2905110912830000 T T T Si
   0.3333333333333333    0.4895996965470009    0.3275481283200370 T T T Si
   0.6666666666666666    0.8229330298803341    0.3645851653570740 T T T Si
   0.0000000000000000    0.8572551652225637    0.3683987359506551 T T T Pd
   0.7362010956340963    0.3782800734322697    0.3714323052855035 T T T Pd
   0.0338750245357365    0.3782800734322697    0.3482541622963602 T T T Pd
   0.2299238798301673    0.3782800734322697    0.3369624874511147 T T T Pd
   0.3333333333333333    0.1905884985558970    0.2943246618765810 T T T Pd
   0.0695344289674295    0.7116134067656030    0.2973582312114293 T T T Pd
   0.3672083578690699    0.7116134067656031    0.3852911993333973 T T T Pd
   0.5632572131635005    0.7116134067656031    0.3739995244881518 T T T Pd
   0.6666666666666666    0.5239218318892305    0.3313616989136181 T T T Pd
   0.4028677623007628    0.0449467400989363    0.3343952682484664 T T T Pd
   0.7005416912024032    0.0449467400989363    0.3112171252593232 T T T Pd
   0.8965905464968338    0.0449467400989363    0.2999254504140777 T T T Pd
   0.2665559300898153    0.6172124170889908    0.3963686463672860 F F F Al
   0.9586600817036199    0.6172124170889909    0.4186277807817920 F F F Al
   0.7747839882065648    0.6172124170889908    0.4324077535472520 F F F Al
   0.5998892634231485    0.9505457504223240    0.4334056834043230 F F F Al
   0.2919934150369533    0.9505457504223240    0.4556648178188290 F F F Al
   0.1081173215398981    0.9505457504223240    0.4694447905842890 F F F Al
   0.9332225967564820    0.2838790837556573    0.4704427204413600 F F F Al
   0.6253267483702865    0.2838790837556573    0.4927018548558660 F F F Al
   0.4414506548732313    0.2838790837556573    0.3953707165102149 F F F Al
   0.0000000000000000    0.1562663632136675    0.4016222023941111 F F F Si
   0.3333333333333333    0.4895996965470009    0.4386592394311481 F F F Si
   0.6666666666666666    0.8229330298803341    0.4756962764681851 F F F Si
   0.0000000000000000    0.8572551652225637    0.4795098470617662 F F F Pd
   0.7362010956340963    0.3782800734322697    0.4825434163966146 F F F Pd
   0.0338750245357365    0.3782800734322697    0.4593652734074714 F F F Pd
   0.2299238798301673    0.3782800734322697    0.4480735985622258 F F F Pd
   0.3333333333333333    0.1905884985558970    0.4054357729876921 F F F Pd
   0.0695344289674295    0.7116134067656030    0.4084693423225405 F F F Pd
   0.3672083578690699    0.7116134067656031    0.4964023104445084 F F F Pd
   0.5632572131635005    0.7116134067656031    0.4851106355992629 F F F Pd
   0.6666666666666666    0.5239218318892305    0.4424728100247292 F F F Pd
   0.4028677623007628    0.0449467400989363    0.4455063793595775 F F F Pd
   0.7005416912024032    0.0449467400989363    0.4223282363704343 F F F Pd
   0.8965905464968338    0.0449467400989363    0.4110365615251888 F F F Pd
   0.2665559300898153    0.6172124170889908    0.5074797574783970 F F F Al
   0.9586600817036199    0.6172124170889909    0.5297388918929031 F F F Al
   0.7747839882065648    0.6172124170889908    0.5435188646583631 F F F Al
   0.5998892634231485    0.9505457504223240    0.5445167945154341 F F F Al
   0.2919934150369533    0.9505457504223240    0.5667759289299401 F F F Al
   0.1081173215398981    0.9505457504223240    0.5805559016954001 F F F Al
   0.9332225967564820    0.2838790837556573    0.5815538315524711 F F F Al
   0.6253267483702865    0.2838790837556573    0.6038129659669771 F F F Al
   0.4414506548732313    0.2838790837556573    0.5064818276213261 F F F Al
   0.0000000000000000    0.1562663632136675    0.5127333135052222 F F F Si
   0.3333333333333333    0.4895996965470009    0.5497703505422592 F F F Si
   0.6666666666666666    0.8229330298803341    0.5868073875792963 F F F Si
   0.0000000000000000    0.8572551652225637    0.5906209581728773 F F F Pd
   0.7362010956340963    0.3782800734322697    0.5936545275077256 F F F Pd
   0.0338750245357365    0.3782800734322697    0.5704763845185825 F F F Pd
   0.2299238798301673    0.3782800734322697    0.5591847096733369 F F F Pd
   0.3333333333333333    0.1905884985558970    0.5165468840988032 F F F Pd
   0.0695344289674295    0.7116134067656030    0.5195804534336516 F F F Pd
   0.3672083578690699    0.7116134067656031    0.6075134215556195 F F F Pd
   0.5632572131635005    0.7116134067656031    0.5962217467103740 F F F Pd
   0.6666666666666666    0.5239218318892305    0.5535839211358403 F F F Pd
   0.4028677623007628    0.0449467400989363    0.5566174904706886 F F F Pd
   0.7005416912024032    0.0449467400989363    0.5334393474815454 F F F Pd
   0.8965905464968338    0.0449467400989363    0.5221476726362999 F F F Pd
   0.2665559300898153    0.6172124170889908    0.6185908685895081 T T T Al
   0.9586600817036199    0.6172124170889909    0.6408500030040142 T T T Al
   0.7747839882065648    0.6172124170889908    0.6546299757694742 T T T Al
   0.5998892634231485    0.9505457504223240    0.6556279056265453 T T T Al
   0.2919934150369533    0.9505457504223240    0.6778870400410513 T T T Al
   0.1081173215398981    0.9505457504223240    0.6916670128065112 T T T Al
   0.9332225967564820    0.2838790837556573    0.6926649426635823 T T T Al
   0.6253267483702865    0.2838790837556573    0.7149240770780882 T T T Al
   0.4414506548732313    0.2838790837556573    0.6175929387324371 T T T Al
   0.0000000000000000    0.1562663632136675    0.6238444246163333 T T T Si
   0.3333333333333333    0.4895996965470009    0.6608814616533703 T T T Si
   0.6666666666666666    0.8229330298803341    0.6979184986904073 T T T Si
   0.0000000000000000    0.8572551652225637    0.7017320692839885 T T T Pd
   0.7362010956340963    0.3782800734322697    0.7047656386188368 T T T Pd
   0.0338750245357365    0.3782800734322697    0.6815874956296936 T T T Pd
   0.2299238798301673    0.3782800734322697    0.6702958207844480 T T T Pd
   0.3333333333333333    0.1905884985558970    0.6276579952099144 T T T Pd
   0.0695344289674295    0.7116134067656030    0.6306915645447626 T T T Pd
   0.3672083578690699    0.7116134067656031    0.7186245326667307 T T T Pd
   0.5632572131635005    0.7116134067656031    0.7073328578214850 T T T Pd
   0.6666666666666666    0.5239218318892305    0.6646950322469514 T T T Pd
   0.4028677623007628    0.0449467400989363    0.6677286015817997 T T T Pd
   0.7005416912024032    0.0449467400989363    0.6445504585926565 T T T Pd
   0.8965905464968338    0.0449467400989363    0.6332587837474111 T T T Pd
