Zn32 Sn32 Sb64
1.0
  12.7849359749754932    0.0000000000000000   -6.3924679874877466
  -0.0000000000000016   25.6851050053372880   -6.3924679874877519
   0.0000000000000000    0.0000000000000000   31.9623399374387347
Zn Sn Sb Zn Sn Sb
16 16 32 16 16 32
Selective dynamics
direct
   0.5000000000000000    0.5000000000000000    0.4812500000000000 F F F Zn
   0.0000000000000000    0.0000000000000000    0.4812500000000000 F F F Zn
   0.0000000000000000    0.5000000000000000    0.3812500000000000 T T T Zn
   0.5000000000000000    0.0000000000000000    0.3812500000000000 T T T Zn
   0.7500000000000000    0.6250000000000000    0.3562500000000000 T T T Zn
   0.2500000000000000    0.1250000000000000    0.3562500000000000 T T T Zn
   0.2500000000000000    0.6250000000000000    0.4562500000000000 F F F Zn
   0.7500000000000000    0.1250000000000000    0.4562499999999999 F F F Zn
   0.7500000000000000    0.7500000000000000    0.4812500000000000 F F F Zn
   0.2500000000000000    0.2500000000000000    0.4812500000000000 F F F Zn
   0.2500000000000000    0.7500000000000000    0.3812500000000000 T T T Zn
   0.7500000000000000    0.2500000000000000    0.3812500000000000 T T T Zn
   0.5000000000000000    0.8749999999999999    0.4562499999999999 F F F Zn
   0.0000000000000000    0.3750000000000000    0.4562500000000000 F F F Zn
   0.0000000000000000    0.8750000000000000    0.3562500000000000 T T T Zn
   0.5000000000000000    0.3750000000000000    0.3562500000000000 T T T Zn
   0.7500000000000000    0.5000000000000000    0.4312500000000000 F F F Sn
   0.2500000000000000    0.0000000000000000    0.4312500000000000 F F F Sn
   0.2500000000000000    0.5000000000000000    0.3312500000000000 T T T Sn
   0.7500000000000000    0.0000000000000000    0.3312500000000000 T T T Sn
   0.5000000000000000    0.6250000000000000    0.4062500000000000 T T T Sn
   0.0000000000000000    0.1250000000000000    0.4062500000000000 T T T Sn
   0.0000000000000000    0.6250000000000000    0.3062500000000000 T T T Sn
   0.5000000000000000    0.1250000000000000    0.3062500000000000 T T T Sn
   0.5000000000000000    0.7500000000000000    0.3312500000000000 T T T Sn
   0.0000000000000000    0.2500000000000000    0.3312500000000000 T T T Sn
   0.0000000000000000    0.7500000000000000    0.4312500000000000 F F F Sn
   0.5000000000000000    0.2500000000000000    0.4312500000000000 F F F Sn
   0.7500000000000000    0.8749999999999999    0.4062500000000000 T T T Sn
   0.2500000000000000    0.3750000000000000    0.4062500000000000 T T T Sn
   0.2500000000000000    0.8749999999999999    0.3062500000000000 T T T Sn
   0.7500000000000000    0.3749999999999999    0.3062500000000000 T T T Sn
   0.6380477289333123    0.6875000000000000    0.3963595457866624 T T T Sb
   0.1380477289333122    0.1875000000000000    0.3963595457866624 T T T Sb
   0.1380477289333122    0.6875000000000000    0.4963595457866624 F F F Sb
   0.6380477289333123    0.1875000000000000    0.4963595457866624 F F F Sb
   0.6250000000000001    0.5625000000000000    0.4739690915733249 F F F Sb
   0.1250000000000000    0.0625000000000000    0.4739690915733249 F F F Sb
   0.1250000000000000    0.5625000000000001    0.3739690915733249 T T T Sb
   0.6250000000000001    0.0625000000000000    0.3739690915733249 T T T Sb
   0.8750000000000000    0.5625000000000000    0.4135309084266751 T T T Sb
   0.3750000000000000    0.0625000000000000    0.4135309084266751 T T T Sb
   0.3750000000000000    0.5625000000000000    0.3135309084266751 T T T Sb
   0.8750000000000000    0.0625000000000000    0.3135309084266751 T T T Sb
   0.8619522710666879    0.6875000000000000    0.3411404542133376 T T T Sb
   0.3619522710666879    0.1875000000000000    0.3411404542133376 T T T Sb
   0.3619522710666879    0.6875000000000000    0.4411404542133376 F F F Sb
   0.8619522710666879    0.1875000000000000    0.4411404542133376 F F F Sb
   0.8880477289333122    0.9375000000000000    0.3963595457866624 T T T Sb
   0.3880477289333122    0.4375000000000001    0.3963595457866624 T T T Sb
   0.3880477289333122    0.9375000000000001    0.4963595457866624 F F F Sb
   0.8880477289333122    0.4375000000000001    0.4963595457866624 F F F Sb
   0.8750000000000000    0.8124999999999999    0.4739690915733248 F F F Sb
   0.3750000000000000    0.3125000000000000    0.4739690915733249 F F F Sb
   0.3750000000000000    0.8125000000000000    0.3739690915733249 T T T Sb
   0.8750000000000000    0.3125000000000000    0.3739690915733249 T T T Sb
   0.6250000000000001    0.8124999999999999    0.3135309084266751 T T T Sb
   0.1250000000000000    0.3125000000000001    0.3135309084266751 T T T Sb
   0.1250000000000000    0.8125000000000000    0.4135309084266751 T T T Sb
   0.6250000000000001    0.3125000000000000    0.4135309084266751 T T T Sb
   0.6119522710666879    0.9375000000000000    0.4411404542133376 F F F Sb
   0.1119522710666878    0.4375000000000001    0.4411404542133376 F F F Sb
   0.1119522710666878    0.9375000000000000    0.3411404542133376 T T T Sb
   0.6119522710666879    0.4375000000000000    0.3411404542133376 T T T Sb
   0.5000000000000000    0.5000000000000000    0.6812499999999999 T T T Zn
   0.0000000000000000    0.0000000000000000    0.6812499999999999 T T T Zn
   0.0000000000000000    0.5000000000000000    0.5812500000000000 F F F Zn
   0.5000000000000000    0.0000000000000000    0.5812500000000000 F F F Zn
   0.7500000000000000    0.6250000000000000    0.5562500000000000 F F F Zn
   0.2500000000000000    0.1250000000000000    0.5562500000000000 F F F Zn
   0.2500000000000000    0.6250000000000000    0.6562500000000000 T T T Zn
   0.7500000000000000    0.1250000000000000    0.6562500000000000 T T T Zn
   0.7500000000000000    0.7500000000000000    0.6812499999999999 T T T Zn
   0.2500000000000000    0.2500000000000000    0.6812499999999999 T T T Zn
   0.2500000000000000    0.7500000000000000    0.5812500000000000 F F F Zn
   0.7500000000000000    0.2500000000000000    0.5812500000000000 F F F Zn
   0.5000000000000000    0.8749999999999999    0.6562500000000000 T T T Zn
   0.0000000000000000    0.3750000000000000    0.6562500000000000 T T T Zn
   0.0000000000000000    0.8750000000000000    0.5562500000000000 F F F Zn
   0.5000000000000000    0.3750000000000000    0.5562500000000000 F F F Zn
   0.7500000000000000    0.5000000000000000    0.6312500000000000 T T T Sn
   0.2500000000000000    0.0000000000000000    0.6312500000000001 T T T Sn
   0.2500000000000000    0.5000000000000000    0.5312500000000000 F F F Sn
   0.7500000000000000    0.0000000000000000    0.5312500000000000 F F F Sn
   0.5000000000000000    0.6250000000000000    0.6062500000000000 T T T Sn
   0.0000000000000000    0.1250000000000000    0.6062500000000000 T T T Sn
   0.0000000000000000    0.6250000000000000    0.5062500000000000 F F F Sn
   0.5000000000000000    0.1250000000000000    0.5062500000000000 F F F Sn
   0.5000000000000000    0.7500000000000000    0.5312500000000000 F F F Sn
   0.0000000000000000    0.2500000000000000    0.5312500000000000 F F F Sn
   0.0000000000000000    0.7500000000000000    0.6312500000000001 T T T Sn
   0.5000000000000000    0.2500000000000000    0.6312500000000001 T T T Sn
   0.7500000000000000    0.8749999999999999    0.6062500000000000 T T T Sn
   0.2500000000000000    0.3750000000000000    0.6062500000000000 T T T Sn
   0.2500000000000000    0.8749999999999999    0.5062500000000000 F F F Sn
   0.7500000000000000    0.3749999999999999    0.5062500000000000 F F F Sn
   0.6380477289333123    0.6875000000000000    0.5963595457866624 T T T Sb
   0.1380477289333122    0.1875000000000000    0.5963595457866624 T T T Sb
   0.1380477289333122    0.6875000000000000    0.6963595457866625 T T T Sb
   0.6380477289333123    0.1875000000000000    0.6963595457866625 T T T Sb
   0.6250000000000001    0.5625000000000000    0.6739690915733250 T T T Sb
   0.1250000000000000    0.0625000000000000    0.6739690915733250 T T T Sb
   0.1250000000000000    0.5625000000000001    0.5739690915733249 F F F Sb
   0.6250000000000001    0.0625000000000000    0.5739690915733249 F F F Sb
   0.8750000000000000    0.5625000000000000    0.6135309084266751 T T T Sb
   0.3750000000000000    0.0625000000000000    0.6135309084266751 T T T Sb
   0.3750000000000000    0.5625000000000000    0.5135309084266751 F F F Sb
   0.8750000000000000    0.0625000000000000    0.5135309084266751 F F F Sb
   0.8619522710666879    0.6875000000000000    0.5411404542133376 F F F Sb
   0.3619522710666879    0.1875000000000000    0.5411404542133376 F F F Sb
   0.3619522710666879    0.6875000000000000    0.6411404542133377 T T T Sb
   0.8619522710666879    0.1875000000000000    0.6411404542133377 T T T Sb
   0.8880477289333122    0.9375000000000000    0.5963595457866624 T T T Sb
   0.3880477289333122    0.4375000000000001    0.5963595457866624 T T T Sb
   0.3880477289333122    0.9375000000000001    0.6963595457866625 T T T Sb
   0.8880477289333122    0.4375000000000001    0.6963595457866625 T T T Sb
   0.8750000000000000    0.8124999999999999    0.6739690915733249 T T T Sb
   0.3750000000000000    0.3125000000000000    0.6739690915733250 T T T Sb
   0.3750000000000000    0.8125000000000000    0.5739690915733249 F F F Sb
   0.8750000000000000    0.3125000000000000    0.5739690915733249 F F F Sb
   0.6250000000000001    0.8124999999999999    0.5135309084266751 F F F Sb
   0.1250000000000000    0.3125000000000001    0.5135309084266751 F F F Sb
   0.1250000000000000    0.8125000000000000    0.6135309084266751 T T T Sb
   0.6250000000000001    0.3125000000000000    0.6135309084266751 T T T Sb
   0.6119522710666879    0.9375000000000000    0.6411404542133377 T T T Sb
   0.1119522710666878    0.4375000000000001    0.6411404542133377 T T T Sb
   0.1119522710666878    0.9375000000000000    0.5411404542133376 F F F Sb
   0.6119522710666879    0.4375000000000000    0.5411404542133376 F F F Sb
