Na9 Zn36 As27
1.0
   3.6286506831010699    0.0000000000000000   -2.0950024486835210
   0.0000000000000053   33.2285702960736558    8.3800097947340877
   0.0000000000000000    0.0000000000000000   33.5200391789363508
Na Zn As Na Zn As Na Zn As
3 12 9 3 12 9 3 12 9
Selective dynamics
direct
   0.6666666666666665    0.1666666666666667    0.4062499999999999 T T T Na
   0.9999999999999998    0.5000000000000000    0.4062499999999999 T T T Na
   0.3333333333333330    0.8333333333333333    0.4062499999999999 T T T Na
   0.0000000000000000    0.0913460804671995    0.3834134798832001 T T T Zn
   0.3333333333333333    0.2419872528661338    0.4290865201167998 T T T Zn
   0.0000000000000000    0.3004706059271290    0.3311323485182177 T T T Zn
   0.3333333333333333    0.0328627274062043    0.3563676514817822 T T T Zn
   0.3333333333333333    0.4246794138005328    0.3834134798832001 T T T Zn
   0.6666666666666665    0.5753205861994671    0.4290865201167998 T T T Zn
   0.3333333333333333    0.6338039392604623    0.3311323485182177 T T T Zn
   0.6666666666666665    0.3661960607395376    0.3563676514817822 T T T Zn
   0.6666666666666666    0.7580127471338661    0.3834134798832001 T T T Zn
   0.0000000000000000    0.9086539195328005    0.4290865201167998 T T T Zn
   0.6666666666666666    0.9671372725937957    0.3311323485182177 T T T Zn
   0.0000000000000000    0.6995293940728710    0.3563676514817822 T T T Zn
   0.0000000000000000    0.2257937925760961    0.3498015518559759 T T T As
   0.3333333333333333    0.1075395407572373    0.3376984481440239 T T T As
   0.0000000000000000    0.0000000000000000    0.4062499999999999 T T T As
   0.3333333333333333    0.5591271259094294    0.3498015518559759 T T T As
   0.6666666666666665    0.4408728740905706    0.3376984481440239 T T T As
   0.3333333333333333    0.3333333333333333    0.4062500000000000 T T T As
   0.6666666666666666    0.8924604592427627    0.3498015518559759 T T T As
   0.0000000000000000    0.7742062074239039    0.3376984481440240 T T T As
   0.6666666666666666    0.6666666666666666    0.4062500000000000 T T T As
   0.6666666666666665    0.1666666666666667    0.5312500000000000 F F F Na
   0.9999999999999998    0.5000000000000000    0.5312499999999999 F F F Na
   0.3333333333333330    0.8333333333333333    0.5312500000000000 F F F Na
   0.0000000000000000    0.0913460804671995    0.5084134798832001 F F F Zn
   0.3333333333333333    0.2419872528661338    0.5540865201167998 F F F Zn
   0.0000000000000000    0.3004706059271290    0.4561323485182177 F F F Zn
   0.3333333333333333    0.0328627274062043    0.4813676514817822 F F F Zn
   0.3333333333333333    0.4246794138005328    0.5084134798832001 F F F Zn
   0.6666666666666665    0.5753205861994671    0.5540865201167998 F F F Zn
   0.3333333333333333    0.6338039392604623    0.4561323485182177 F F F Zn
   0.6666666666666665    0.3661960607395376    0.4813676514817822 F F F Zn
   0.6666666666666666    0.7580127471338661    0.5084134798832001 F F F Zn
   0.0000000000000000    0.9086539195328005    0.5540865201167998 F F F Zn
   0.6666666666666666    0.9671372725937957    0.4561323485182177 F F F Zn
   0.0000000000000000    0.6995293940728710    0.4813676514817822 F F F Zn
   0.0000000000000000    0.2257937925760961    0.4748015518559759 F F F As
   0.3333333333333333    0.1075395407572373    0.4626984481440239 F F F As
   0.0000000000000000    0.0000000000000000    0.5312500000000000 F F F As
   0.3333333333333333    0.5591271259094294    0.4748015518559759 F F F As
   0.6666666666666665    0.4408728740905706    0.4626984481440239 F F F As
   0.3333333333333333    0.3333333333333333    0.5312500000000000 F F F As
   0.6666666666666666    0.8924604592427627    0.4748015518559759 F F F As
   0.0000000000000000    0.7742062074239039    0.4626984481440240 F F F As
   0.6666666666666666    0.6666666666666666    0.5312500000000000 F F F As
   0.6666666666666665    0.1666666666666667    0.6562500000000000 T T T Na
   0.9999999999999998    0.5000000000000000    0.6562499999999999 T T T Na
   0.3333333333333330    0.8333333333333333    0.6562500000000000 T T T Na
   0.0000000000000000    0.0913460804671995    0.6334134798832001 T T T Zn
   0.3333333333333333    0.2419872528661338    0.6790865201167998 T T T Zn
   0.0000000000000000    0.3004706059271290    0.5811323485182177 T T T Zn
   0.3333333333333333    0.0328627274062043    0.6063676514817822 T T T Zn
   0.3333333333333333    0.4246794138005328    0.6334134798832001 T T T Zn
   0.6666666666666665    0.5753205861994671    0.6790865201167998 T T T Zn
   0.3333333333333333    0.6338039392604623    0.5811323485182177 T T T Zn
   0.6666666666666665    0.3661960607395376    0.6063676514817822 T T T Zn
   0.6666666666666666    0.7580127471338661    0.6334134798832001 T T T Zn
   0.0000000000000000    0.9086539195328005    0.6790865201167998 T T T Zn
   0.6666666666666666    0.9671372725937957    0.5811323485182177 T T T Zn
   0.0000000000000000    0.6995293940728710    0.6063676514817822 T T T Zn
   0.0000000000000000    0.2257937925760961    0.5998015518559759 T T T As
   0.3333333333333333    0.1075395407572373    0.5876984481440239 T T T As
   0.0000000000000000    0.0000000000000000    0.6562500000000000 T T T As
   0.3333333333333333    0.5591271259094294    0.5998015518559759 T T T As
   0.6666666666666665    0.4408728740905706    0.5876984481440239 T T T As
   0.3333333333333333    0.3333333333333333    0.6562500000000000 T T T As
   0.6666666666666666    0.8924604592427627    0.5998015518559759 T T T As
   0.0000000000000000    0.7742062074239039    0.5876984481440239 T T T As
   0.6666666666666666    0.6666666666666666    0.6562500000000000 T T T As
