Al20 Fe10 Ni10
1.0
   2.9016855284199665    0.0000000000000000    2.9016855284199665
   2.9016855284199656   11.3248172924486443    0.0000000000000007
   0.0000000000000000    0.0000000000000000   37.7219118694595679
Al Fe Ni Al Fe Ni Al Fe Ni Al Fe Ni Al Fe Ni
4 2 2 4 2 2 4 2 2 4 2 2 4 2 2
Selective dynamics
direct
   0.1298529365506837    0.8701470634493161    0.3602036202653320 T T T Al
   0.6298529365506838    0.3701470634493162    0.3217420818037935 T T T Al
   0.3701470634493161    0.6298529365506838    0.3417194566577449 T T T Al
   0.8701470634493162    0.1298529365506838    0.3801809951192833 T T T Al
   0.7499999999999998    0.7500000000000000    0.3509615384615384 T T T Fe
   0.2500000000000000    0.2500000000000000    0.3125000000000000 T T T Fe
   0.9999999999999998    0.5000000000000000    0.3317307692307692 T T T Ni
   0.5000000000000000    0.0000000000000000    0.3701923076923077 T T T Ni
   0.1298529365506837    0.8701470634493161    0.4371266971884089 F F F Al
   0.6298529365506838    0.3701470634493162    0.3986651587268705 T T T Al
   0.3701470634493161    0.6298529365506838    0.4186425335808218 T T T Al
   0.8701470634493162    0.1298529365506838    0.4571040720423603 F F F Al
   0.7499999999999998    0.7500000000000000    0.4278846153846154 F F F Fe
   0.2500000000000000    0.2500000000000000    0.3894230769230769 T T T Fe
   0.9999999999999998    0.5000000000000000    0.4086538461538461 T T T Ni
   0.5000000000000000    0.0000000000000000    0.4471153846153846 F F F Ni
   0.1298529365506837    0.8701470634493161    0.5140497741114858 F F F Al
   0.6298529365506838    0.3701470634493162    0.4755882356499474 F F F Al
   0.3701470634493161    0.6298529365506838    0.4955656105038987 F F F Al
   0.8701470634493162    0.1298529365506838    0.5340271489654371 F F F Al
   0.7499999999999998    0.7500000000000000    0.5048076923076923 F F F Fe
   0.2500000000000000    0.2500000000000000    0.4663461538461539 F F F Fe
   0.9999999999999998    0.5000000000000000    0.4855769230769231 F F F Ni
   0.5000000000000000    0.0000000000000000    0.5240384615384615 F F F Ni
   0.1298529365506837    0.8701470634493161    0.5909728510345628 T T T Al
   0.6298529365506838    0.3701470634493162    0.5525113125730243 F F F Al
   0.3701470634493161    0.6298529365506838    0.5724886874269757 F F F Al
   0.8701470634493162    0.1298529365506838    0.6109502258885141 T T T Al
   0.7499999999999998    0.7500000000000000    0.5817307692307692 T T T Fe
   0.2500000000000000    0.2500000000000000    0.5432692307692307 F F F Fe
   0.9999999999999998    0.5000000000000000    0.5625000000000000 F F F Ni
   0.5000000000000000    0.0000000000000000    0.6009615384615384 T T T Ni
   0.1298529365506837    0.8701470634493161    0.6678959279576397 T T T Al
   0.6298529365506838    0.3701470634493162    0.6294343894961012 T T T Al
   0.3701470634493161    0.6298529365506838    0.6494117643500525 T T T Al
   0.8701470634493162    0.1298529365506838    0.6878733028115911 T T T Al
   0.7499999999999998    0.7500000000000000    0.6586538461538461 T T T Fe
   0.2500000000000000    0.2500000000000000    0.6201923076923077 T T T Fe
   0.9999999999999998    0.5000000000000000    0.6394230769230769 T T T Ni
   0.5000000000000000    0.0000000000000000    0.6778846153846154 T T T Ni
