Sr6 Ag12 Ge12
1.0
   4.5207406013261640    0.0000000000000000    0.0000000000000003
  -0.0000000000000007   10.8210239650687150   -9.0414812026523297
   0.0000000000000000    0.0000000000000000   36.1659248106093116
Sr Ag Ge Sr Ag Ge Sr Ag Ge
2 4 4 2 4 4 2 4 4
Selective dynamics
direct
   0.0000000000000000    0.0000000000000000    0.4062500000000000 T T T Sr
   0.5000000000000000    0.5000000000000000    0.3437500000000000 T T T Sr
   0.5000000000000000    0.2500000000000000    0.3437500000000000 T T T Ag
   0.0000000000000000    0.2500000000000000    0.4062500000000000 T T T Ag
   0.0000000000000000    0.7500000000000000    0.4062500000000000 T T T Ag
   0.5000000000000000    0.7500000000000000    0.3437500000000000 T T T Ag
   0.5000000000000000    0.1150207348945820    0.3725051837236455 T T T Ge
   0.0000000000000000    0.3849792651054180    0.3774948162763545 T T T Ge
   0.0000000000000000    0.6150207348945820    0.4350051837236455 F F F Ge
   0.5000000000000000    0.8849792651054180    0.3149948162763545 T T T Ge
   0.0000000000000000    0.0000000000000000    0.5312500000000000 F F F Sr
   0.5000000000000000    0.5000000000000000    0.4687500000000000 F F F Sr
   0.5000000000000000    0.2500000000000000    0.4687500000000000 F F F Ag
   0.0000000000000000    0.2500000000000000    0.5312500000000000 F F F Ag
   0.0000000000000000    0.7500000000000000    0.5312500000000000 F F F Ag
   0.5000000000000000    0.7500000000000000    0.4687500000000000 F F F Ag
   0.5000000000000000    0.1150207348945820    0.4975051837236455 F F F Ge
   0.0000000000000000    0.3849792651054180    0.5024948162763545 F F F Ge
   0.0000000000000000    0.6150207348945820    0.5600051837236455 F F F Ge
   0.5000000000000000    0.8849792651054180    0.4399948162763545 F F F Ge
   0.0000000000000000    0.0000000000000000    0.6562500000000000 T T T Sr
   0.5000000000000000    0.5000000000000000    0.5937500000000000 T T T Sr
   0.5000000000000000    0.2500000000000000    0.5937500000000000 T T T Ag
   0.0000000000000000    0.2500000000000000    0.6562500000000000 T T T Ag
   0.0000000000000000    0.7500000000000000    0.6562500000000000 T T T Ag
   0.5000000000000000    0.7500000000000000    0.5937500000000000 T T T Ag
   0.5000000000000000    0.1150207348945820    0.6225051837236455 T T T Ge
   0.0000000000000000    0.3849792651054180    0.6274948162763545 T T T Ge
   0.0000000000000000    0.6150207348945820    0.6850051837236455 T T T Ge
   0.5000000000000000    0.8849792651054180    0.5649948162763545 F F F Ge
