Rb3 Zn12 As9
1.0
   4.2100828964454315    0.0000000000000000    0.0000000000000003
   0.0000000000000017   10.5195989515194892   -4.2100828964454315
   0.0000000000000000    0.0000000000000000   29.4705802751180208
Rb Zn As Rb Zn As Rb Zn As
1 4 3 1 4 3 1 4 3
Selective dynamics
direct
   0.0000000000000000    0.5000000000000000    0.3124999999999999 T T T Rb
   0.5000000000000000    0.1574554673831215    0.4064222096261602 F F F Zn
   0.5000000000000000    0.8425445326168786    0.3614349332309826 T T T Zn
   0.0000000000000000    0.8425445326168786    0.2900063618024112 T T T Zn
   0.0000000000000000    0.1574554673831215    0.3349936381975888 T T T Zn
   0.0000000000000000    0.0000000000000000    0.3839285714285714 T T T As
   0.5000000000000000    0.2902021826974763    0.3539574546710680 T T T As
   0.5000000000000000    0.7097978173025238    0.4138996881860748 F F F As
   0.0000000000000000    0.5000000000000000    0.4553571428571428 F F F Rb
   0.5000000000000000    0.1574554673831215    0.5492793524833031 F F F Zn
   0.5000000000000000    0.8425445326168786    0.5042920760881255 F F F Zn
   0.0000000000000000    0.8425445326168786    0.4328635046595540 F F F Zn
   0.0000000000000000    0.1574554673831215    0.4778507810547316 F F F Zn
   0.0000000000000000    0.0000000000000000    0.5267857142857142 F F F As
   0.5000000000000000    0.2902021826974763    0.4968145975282108 F F F As
   0.5000000000000000    0.7097978173025238    0.5567568310432176 F F F As
   0.0000000000000000    0.5000000000000000    0.5982142857142856 T T T Rb
   0.5000000000000000    0.1574554673831215    0.6921364953404459 T T T Zn
   0.5000000000000000    0.8425445326168786    0.6471492189452683 T T T Zn
   0.0000000000000000    0.8425445326168786    0.5757206475166969 F F F Zn
   0.0000000000000000    0.1574554673831215    0.6207079239118745 T T T Zn
   0.0000000000000000    0.0000000000000000    0.6696428571428571 T T T As
   0.5000000000000000    0.2902021826974763    0.6396717403853537 T T T As
   0.5000000000000000    0.7097978173025238    0.6996139739003605 T T T As
