Y24 Ga12 Co24
1.0
   5.4275420205715026    0.0000000000000000    0.0000000000000003
   0.0000000000000027   16.6987186543562593   -4.0650923650453317
   0.0000000000000000    0.0000000000000000   28.4556465553173226
Y Ga Co Y Ga Co Y Ga Co
8 4 8 8 4 8 8 4 8
Selective dynamics
direct
   0.5000000000000000    0.1469611546049094    0.3674230220864156 T T T Y
   0.5000000000000000    0.6469611546049093    0.2959944506578442 T T T Y
   0.5000000000000000    0.3530388453950906    0.3968626921992987 T T T Y
   0.5000000000000000    0.8530388453950906    0.3254341207707273 T T T Y
   0.0000000000000000    0.3969611546049094    0.3317087363721299 T T T Y
   0.0000000000000000    0.8969611546049093    0.4031373078007013 F F F Y
   0.0000000000000000    0.1030388453950906    0.2897198350564415 T T T Y
   0.0000000000000000    0.6030388453950905    0.3611484064850129 T T T Y
   0.5000000000000000    0.0000000000000000    0.4178571428571429 F F F Ga
   0.5000000000000000    0.4999999999999999    0.3464285714285714 T T T Ga
   0.0000000000000000    0.2500000000000000    0.3821428571428571 T T T Ga
   0.0000000000000000    0.7500000000000000    0.3107142857142857 T T T Ga
   0.2135749072342357    0.0000000000000000    0.3464285714285714 T T T Co
   0.2135749072342357    0.4999999999999999    0.4178571428571428 F F F Co
   0.7864250927657643    0.0000000000000000    0.3464285714285714 T T T Co
   0.7864250927657643    0.4999999999999999    0.4178571428571429 F F F Co
   0.7135749072342357    0.2500000000000000    0.3107142857142857 T T T Co
   0.7135749072342357    0.7500000000000000    0.3821428571428571 T T T Co
   0.2864250927657644    0.2500000000000000    0.3107142857142857 T T T Co
   0.2864250927657644    0.7500000000000000    0.3821428571428571 T T T Co
   0.5000000000000000    0.1469611546049094    0.5102801649435584 F F F Y
   0.5000000000000000    0.6469611546049093    0.4388515935149870 F F F Y
   0.5000000000000000    0.3530388453950906    0.5397198350564415 F F F Y
   0.5000000000000000    0.8530388453950906    0.4682912636278701 F F F Y
   0.0000000000000000    0.3969611546049094    0.4745658792292727 F F F Y
   0.0000000000000000    0.8969611546049093    0.5459944506578442 F F F Y
   0.0000000000000000    0.1030388453950906    0.4325769779135844 F F F Y
   0.0000000000000000    0.6030388453950905    0.5040055493421558 F F F Y
   0.5000000000000000    0.0000000000000000    0.5607142857142857 F F F Ga
   0.5000000000000000    0.4999999999999999    0.4892857142857143 F F F Ga
   0.0000000000000000    0.2500000000000000    0.5250000000000000 F F F Ga
   0.0000000000000000    0.7500000000000000    0.4535714285714286 F F F Ga
   0.2135749072342357    0.0000000000000000    0.4892857142857143 F F F Co
   0.2135749072342357    0.4999999999999999    0.5607142857142857 F F F Co
   0.7864250927657643    0.0000000000000000    0.4892857142857143 F F F Co
   0.7864250927657643    0.4999999999999999    0.5607142857142857 F F F Co
   0.7135749072342357    0.2500000000000000    0.4535714285714286 F F F Co
   0.7135749072342357    0.7500000000000000    0.5250000000000000 F F F Co
   0.2864250927657644    0.2500000000000000    0.4535714285714286 F F F Co
   0.2864250927657644    0.7500000000000000    0.5250000000000000 F F F Co
   0.5000000000000000    0.1469611546049094    0.6531373078007013 T T T Y
   0.5000000000000000    0.6469611546049093    0.5817087363721298 F F F Y
   0.5000000000000000    0.3530388453950906    0.6825769779135844 T T T Y
   0.5000000000000000    0.8530388453950906    0.6111484064850130 T T T Y
   0.0000000000000000    0.3969611546049094    0.6174230220864156 T T T Y
   0.0000000000000000    0.8969611546049093    0.6888515935149870 T T T Y
   0.0000000000000000    0.1030388453950906    0.5754341207707272 F F F Y
   0.0000000000000000    0.6030388453950905    0.6468626921992986 T T T Y
   0.5000000000000000    0.0000000000000000    0.7035714285714285 T T T Ga
   0.5000000000000000    0.4999999999999999    0.6321428571428571 T T T Ga
   0.0000000000000000    0.2500000000000000    0.6678571428571428 T T T Ga
   0.0000000000000000    0.7500000000000000    0.5964285714285714 T T T Ga
   0.2135749072342357    0.0000000000000000    0.6321428571428571 T T T Co
   0.2135749072342357    0.4999999999999999    0.7035714285714285 T T T Co
   0.7864250927657643    0.0000000000000000    0.6321428571428571 T T T Co
   0.7864250927657643    0.4999999999999999    0.7035714285714285 T T T Co
   0.7135749072342357    0.2500000000000000    0.5964285714285714 T T T Co
   0.7135749072342357    0.7500000000000000    0.6678571428571428 T T T Co
   0.2864250927657644    0.2500000000000000    0.5964285714285714 T T T Co
   0.2864250927657644    0.7500000000000000    0.6678571428571428 T T T Co
