Sc16 Al16 Ge16
1.0
   9.9381058717973740    0.0000000000000000    0.0000000000000006
   0.0000000000000009    5.5468735477819662   -3.9561525386533609
   0.0000000000000000    0.0000000000000000   35.6053728478802398
Sc Al Ge Sc Al Ge Sc Al Ge Sc Al Ge
4 4 4 4 4 4 4 4 4 4 4 4
Selective dynamics
direct
   0.3125111094363550    0.7500000000000000    0.3518518518518519 T T T Sc
   0.1874888905636449    0.2500000000000000    0.3518518518518519 T T T Sc
   0.8125111094363551    0.7500000000000001    0.2962962962962963 T T T Sc
   0.6874888905636449    0.2500000000000000    0.2962962962962963 T T T Sc
   0.0000000000000000    0.0000000000000000    0.3796296296296297 T T T Al
   0.0000000000000000    0.5000000000000000    0.3240740740740741 T T T Al
   0.4999999999999999    0.0000000000000000    0.3240740740740741 T T T Al
   0.4999999999999999    0.5000000000000000    0.3796296296296297 T T T Al
   0.1154753075385250    0.7500000000000000    0.2962962962962963 T T T Ge
   0.3845246924614750    0.2500000000000000    0.2962962962962963 T T T Ge
   0.6154753075385250    0.7499999999999999    0.3518518518518519 T T T Ge
   0.8845246924614749    0.2500000000000000    0.3518518518518519 T T T Ge
   0.3125111094363550    0.7500000000000000    0.4629629629629630 F F F Sc
   0.1874888905636449    0.2500000000000000    0.4629629629629630 F F F Sc
   0.8125111094363551    0.7500000000000001    0.4074074074074074 F F F Sc
   0.6874888905636449    0.2500000000000000    0.4074074074074074 F F F Sc
   0.0000000000000000    0.0000000000000000    0.4907407407407408 F F F Al
   0.0000000000000000    0.5000000000000000    0.4351851851851852 F F F Al
   0.4999999999999999    0.0000000000000000    0.4351851851851852 F F F Al
   0.4999999999999999    0.5000000000000000    0.4907407407407408 F F F Al
   0.1154753075385250    0.7500000000000000    0.4074074074074074 F F F Ge
   0.3845246924614750    0.2500000000000000    0.4074074074074074 F F F Ge
   0.6154753075385250    0.7499999999999999    0.4629629629629630 F F F Ge
   0.8845246924614749    0.2500000000000000    0.4629629629629630 F F F Ge
   0.3125111094363550    0.7500000000000000    0.5740740740740741 F F F Sc
   0.1874888905636449    0.2500000000000000    0.5740740740740741 F F F Sc
   0.8125111094363551    0.7500000000000001    0.5185185185185186 F F F Sc
   0.6874888905636449    0.2500000000000000    0.5185185185185186 F F F Sc
   0.0000000000000000    0.0000000000000000    0.6018518518518519 F F F Al
   0.0000000000000000    0.5000000000000000    0.5462962962962963 F F F Al
   0.4999999999999999    0.0000000000000000    0.5462962962962963 F F F Al
   0.4999999999999999    0.5000000000000000    0.6018518518518519 F F F Al
   0.1154753075385250    0.7500000000000000    0.5185185185185186 F F F Ge
   0.3845246924614750    0.2500000000000000    0.5185185185185186 F F F Ge
   0.6154753075385250    0.7499999999999999    0.5740740740740741 F F F Ge
   0.8845246924614749    0.2500000000000000    0.5740740740740741 F F F Ge
   0.3125111094363550    0.7500000000000000    0.6851851851851852 T T T Sc
   0.1874888905636449    0.2500000000000000    0.6851851851851852 T T T Sc
   0.8125111094363551    0.7500000000000001    0.6296296296296297 T T T Sc
   0.6874888905636449    0.2500000000000000    0.6296296296296297 T T T Sc
   0.0000000000000000    0.0000000000000000    0.7129629629629630 T T T Al
   0.0000000000000000    0.5000000000000000    0.6574074074074074 T T T Al
   0.4999999999999999    0.0000000000000000    0.6574074074074074 T T T Al
   0.4999999999999999    0.5000000000000000    0.7129629629629630 T T T Al
   0.1154753075385250    0.7500000000000000    0.6296296296296297 T T T Ge
   0.3845246924614750    0.2500000000000000    0.6296296296296297 T T T Ge
   0.6154753075385250    0.7499999999999999    0.6851851851851851 T T T Ge
   0.8845246924614749    0.2500000000000000    0.6851851851851852 T T T Ge
