Sc8 Al8 Ge8
1.0
   3.9561525386533600    0.0000000000000000    0.0000000000000002
   0.0000000000000009    5.5468735477819671    0.0000000000000003
   0.0000000000000000    0.0000000000000000   39.7524234871894961
Sc Al Ge Sc Al Ge
4 4 4 4 4 4
Selective dynamics
direct
   0.0000000000000000    0.2500000000000000    0.3802055559742445 F F F Sc
   0.5000000000000000    0.7500000000000000    0.4114611106924221 F F F Sc
   0.5000000000000000    0.2500000000000000    0.2552055559742445 T T T Sc
   0.0000000000000000    0.7500000000000000    0.2864611106924221 T T T Sc
   0.0000000000000000    0.0000000000000000    0.4583333333333333 F F F Al
   0.0000000000000000    0.5000000000000000    0.4583333333333333 F F F Al
   0.5000000000000000    0.0000000000000000    0.3333333333333333 F F F Al
   0.5000000000000000    0.5000000000000000    0.3333333333333333 F F F Al
   0.4999999999999999    0.2500000000000000    0.4294645064487020 F F F Ge
   0.0000000000000000    0.7500000000000000    0.3622021602179646 F F F Ge
   0.0000000000000000    0.2500000000000001    0.3044645064487020 T T T Ge
   0.5000000000000000    0.7500000000000000    0.4872021602179646 F F F Ge
   0.0000000000000000    0.2500000000000000    0.6302055559742445 F F F Sc
   0.5000000000000000    0.7500000000000000    0.6614611106924221 F F F Sc
   0.5000000000000000    0.2500000000000000    0.5052055559742445 F F F Sc
   0.0000000000000000    0.7500000000000000    0.5364611106924221 F F F Sc
   0.0000000000000000    0.0000000000000000    0.7083333333333333 T T T Al
   0.0000000000000000    0.5000000000000000    0.7083333333333333 T T T Al
   0.5000000000000000    0.0000000000000000    0.5833333333333333 F F F Al
   0.5000000000000000    0.5000000000000000    0.5833333333333333 F F F Al
   0.4999999999999999    0.2500000000000000    0.6794645064487020 T T T Ge
   0.0000000000000000    0.7500000000000000    0.6122021602179646 F F F Ge
   0.0000000000000000    0.2500000000000001    0.5544645064487020 F F F Ge
   0.5000000000000000    0.7500000000000000    0.7372021602179646 T T T Ge
