Li32 Mg32 Cd64
1.0
  13.7261137699473270    0.0000000000000000   -6.8630568849736635
  -0.0000000000000039   13.7261137699473270   -6.8630568849736635
   0.0000000000000000    0.0000000000000000   34.3152844248683166
Li Mg Cd Li Mg Cd
16 16 32 16 16 32
Selective dynamics
direct
   0.5000000000000000    0.5000000000000000    0.3750000000000000 T T T Li
   0.0000000000000000    0.0000000000000000    0.3750000000000000 T T T Li
   0.0000000000000000    0.5000000000000001    0.4750000000000000 F F F Li
   0.5000000000000000    0.0000000000000001    0.4750000000000000 F F F Li
   0.7500000000000001    0.7500000000000001    0.4750000000000000 F F F Li
   0.2500000000000000    0.2500000000000001    0.4750000000000000 F F F Li
   0.2500000000000000    0.7500000000000001    0.3750000000000000 T T T Li
   0.7500000000000001    0.2500000000000001    0.3750000000000000 T T T Li
   0.5000000000000000    0.7500000000000000    0.3250000000000000 T T T Li
   0.0000000000000000    0.2500000000000000    0.3250000000000000 T T T Li
   0.0000000000000000    0.7500000000000001    0.4250000000000000 T T T Li
   0.5000000000000000    0.2500000000000001    0.4250000000000000 T T T Li
   0.7500000000000001    0.5000000000000000    0.3250000000000000 T T T Li
   0.2500000000000000    0.0000000000000000    0.3250000000000000 T T T Li
   0.2500000000000000    0.5000000000000000    0.4250000000000000 T T T Li
   0.7500000000000001    0.0000000000000001    0.4250000000000000 T T T Li
   0.5000000000000000    0.5000000000000000    0.4750000000000000 F F F Mg
   0.0000000000000000    0.0000000000000000    0.4750000000000000 F F F Mg
   0.0000000000000000    0.5000000000000000    0.3750000000000000 T T T Mg
   0.5000000000000000    0.0000000000000000    0.3750000000000000 T T T Mg
   0.7500000000000001    0.7500000000000000    0.3750000000000000 T T T Mg
   0.2500000000000000    0.2500000000000000    0.3750000000000000 T T T Mg
   0.2500000000000000    0.7500000000000001    0.4750000000000000 F F F Mg
   0.7500000000000001    0.2500000000000001    0.4750000000000000 F F F Mg
   0.5000000000000000    0.7500000000000001    0.4250000000000000 T T T Mg
   0.0000000000000000    0.2500000000000001    0.4250000000000000 T T T Mg
   0.0000000000000000    0.7500000000000001    0.3250000000000000 T T T Mg
   0.5000000000000000    0.2500000000000001    0.3250000000000000 T T T Mg
   0.7500000000000001    0.5000000000000000    0.4250000000000000 T T T Mg
   0.2500000000000000    0.0000000000000001    0.4250000000000000 T T T Mg
   0.2500000000000000    0.5000000000000001    0.3250000000000000 T T T Mg
   0.7500000000000001    0.0000000000000001    0.3250000000000000 T T T Mg
   0.6250000000000000    0.8750000000000000    0.4250000000000000 T T T Cd
   0.1250000000000000    0.3750000000000001    0.4250000000000000 T T T Cd
   0.1250000000000000    0.8750000000000000    0.3250000000000000 T T T Cd
   0.6250000000000000    0.3750000000000001    0.3250000000000000 T T T Cd
   0.8750000000000000    0.8750000000000000    0.4750000000000000 F F F Cd
   0.3750000000000001    0.3750000000000001    0.4750000000000000 F F F Cd
   0.3750000000000001    0.8750000000000000    0.3750000000000000 T T T Cd
   0.8750000000000000    0.3750000000000001    0.3750000000000000 T T T Cd
   0.8750000000000000    0.6250000000000000    0.4250000000000000 T T T Cd
   0.3750000000000001    0.1250000000000001    0.4250000000000000 T T T Cd
   0.3750000000000001    0.6250000000000000    0.3250000000000000 T T T Cd
   0.8750000000000000    0.1250000000000001    0.3250000000000000 T T T Cd
   0.6250000000000000    0.6250000000000000    0.3750000000000000 T T T Cd
   0.1250000000000000    0.1250000000000000    0.3750000000000000 T T T Cd
   0.1250000000000000    0.6250000000000000    0.4750000000000000 F F F Cd
   0.6250000000000000    0.1250000000000001    0.4750000000000000 F F F Cd
   0.6250000000000000    0.6250000000000000    0.4750000000000000 F F F Cd
   0.1250000000000000    0.1250000000000001    0.4750000000000000 F F F Cd
   0.1250000000000000    0.6250000000000001    0.3750000000000000 T T T Cd
   0.6250000000000000    0.1250000000000001    0.3750000000000000 T T T Cd
   0.8750000000000000    0.6250000000000001    0.3250000000000000 T T T Cd
   0.3750000000000001    0.1250000000000001    0.3250000000000000 T T T Cd
   0.3750000000000001    0.6250000000000002    0.4250000000000000 T T T Cd
   0.8750000000000000    0.1250000000000002    0.4250000000000000 T T T Cd
   0.8750000000000000    0.8750000000000000    0.3750000000000000 T T T Cd
   0.3750000000000001    0.3750000000000001    0.3750000000000000 T T T Cd
   0.3750000000000001    0.8750000000000001    0.4750000000000001 F F F Cd
   0.8750000000000000    0.3750000000000001    0.4750000000000001 F F F Cd
   0.6250000000000000    0.8750000000000000    0.3250000000000000 T T T Cd
   0.1250000000000000    0.3750000000000001    0.3250000000000000 T T T Cd
   0.1250000000000000    0.8750000000000000    0.4250000000000000 T T T Cd
   0.6250000000000000    0.3750000000000001    0.4250000000000000 T T T Cd
   0.5000000000000000    0.5000000000000000    0.5750000000000000 T T T Li
   0.0000000000000000    0.0000000000000000    0.5750000000000000 T T T Li
   0.0000000000000000    0.5000000000000001    0.6750000000000000 T T T Li
   0.5000000000000000    0.0000000000000001    0.6750000000000000 T T T Li
   0.7500000000000001    0.7500000000000001    0.6750000000000000 T T T Li
   0.2500000000000000    0.2500000000000001    0.6750000000000000 T T T Li
   0.2500000000000000    0.7500000000000001    0.5750000000000001 T T T Li
   0.7500000000000001    0.2500000000000001    0.5750000000000001 T T T Li
   0.5000000000000000    0.7500000000000000    0.5250000000000000 F F F Li
   0.0000000000000000    0.2500000000000000    0.5250000000000000 F F F Li
   0.0000000000000000    0.7500000000000001    0.6250000000000000 T T T Li
   0.5000000000000000    0.2500000000000001    0.6250000000000000 T T T Li
   0.7500000000000001    0.5000000000000000    0.5250000000000000 F F F Li
   0.2500000000000000    0.0000000000000000    0.5250000000000000 F F F Li
   0.2500000000000000    0.5000000000000000    0.6250000000000000 T T T Li
   0.7500000000000001    0.0000000000000001    0.6250000000000000 T T T Li
   0.5000000000000000    0.5000000000000000    0.6750000000000000 T T T Mg
   0.0000000000000000    0.0000000000000000    0.6750000000000000 T T T Mg
   0.0000000000000000    0.5000000000000000    0.5750000000000000 T T T Mg
   0.5000000000000000    0.0000000000000000    0.5750000000000000 T T T Mg
   0.7500000000000001    0.7500000000000000    0.5750000000000001 T T T Mg
   0.2500000000000000    0.2500000000000000    0.5750000000000000 T T T Mg
   0.2500000000000000    0.7500000000000001    0.6750000000000000 T T T Mg
   0.7500000000000001    0.2500000000000001    0.6750000000000000 T T T Mg
   0.5000000000000000    0.7500000000000001    0.6250000000000000 T T T Mg
   0.0000000000000000    0.2500000000000001    0.6250000000000000 T T T Mg
   0.0000000000000000    0.7500000000000001    0.5250000000000000 F F F Mg
   0.5000000000000000    0.2500000000000001    0.5250000000000000 F F F Mg
   0.7500000000000001    0.5000000000000000    0.6250000000000000 T T T Mg
   0.2500000000000000    0.0000000000000001    0.6250000000000000 T T T Mg
   0.2500000000000000    0.5000000000000001    0.5250000000000000 F F F Mg
   0.7500000000000001    0.0000000000000001    0.5250000000000000 F F F Mg
   0.6250000000000000    0.8750000000000000    0.6250000000000000 T T T Cd
   0.1250000000000000    0.3750000000000001    0.6250000000000000 T T T Cd
   0.1250000000000000    0.8750000000000000    0.5250000000000000 F F F Cd
   0.6250000000000000    0.3750000000000001    0.5250000000000000 F F F Cd
   0.8750000000000000    0.8750000000000000    0.6750000000000000 T T T Cd
   0.3750000000000001    0.3750000000000001    0.6750000000000000 T T T Cd
   0.3750000000000001    0.8750000000000000    0.5750000000000001 T T T Cd
   0.8750000000000000    0.3750000000000001    0.5750000000000001 T T T Cd
   0.8750000000000000    0.6250000000000000    0.6250000000000000 T T T Cd
   0.3750000000000001    0.1250000000000001    0.6250000000000000 T T T Cd
   0.3750000000000001    0.6250000000000000    0.5250000000000000 F F F Cd
   0.8750000000000000    0.1250000000000001    0.5250000000000000 F F F Cd
   0.6250000000000000    0.6250000000000000    0.5750000000000000 T T T Cd
   0.1250000000000000    0.1250000000000000    0.5750000000000000 T T T Cd
   0.1250000000000000    0.6250000000000000    0.6750000000000000 T T T Cd
   0.6250000000000000    0.1250000000000001    0.6750000000000000 T T T Cd
   0.6250000000000000    0.6250000000000000    0.6750000000000000 T T T Cd
   0.1250000000000000    0.1250000000000001    0.6750000000000000 T T T Cd
   0.1250000000000000    0.6250000000000001    0.5750000000000001 T T T Cd
   0.6250000000000000    0.1250000000000001    0.5750000000000001 T T T Cd
   0.8750000000000000    0.6250000000000001    0.5250000000000000 F F F Cd
   0.3750000000000001    0.1250000000000001    0.5250000000000000 F F F Cd
   0.3750000000000001    0.6250000000000002    0.6250000000000001 T T T Cd
   0.8750000000000000    0.1250000000000002    0.6250000000000000 T T T Cd
   0.8750000000000000    0.8750000000000000    0.5750000000000001 T T T Cd
   0.3750000000000001    0.3750000000000001    0.5750000000000001 T T T Cd
   0.3750000000000001    0.8750000000000001    0.6750000000000000 T T T Cd
   0.8750000000000000    0.3750000000000001    0.6750000000000000 T T T Cd
   0.6250000000000000    0.8750000000000000    0.5250000000000000 F F F Cd
   0.1250000000000000    0.3750000000000001    0.5250000000000000 F F F Cd
   0.1250000000000000    0.8750000000000000    0.6250000000000000 T T T Cd
   0.6250000000000000    0.3750000000000001    0.6250000000000000 T T T Cd
