Ca12 Zn18 Ga6
1.0
  10.6514467529143033    0.0000000000000000   -4.5115312997360517
   5.5997681759311213    5.3447007588111601    0.0000000000000005
   0.0000000000000000    0.0000000000000000   31.5807190981523611
Ca Zn Ga Ca Zn Ga Ca Zn Ga
4 6 2 4 6 2 4 6 2
Selective dynamics
direct
   0.7508358504028292    0.2047322330797814    0.3929765741051656 T T T Ca
   0.2480648505658819    0.7968882162399069    0.3211521455570303 T T T Ca
   0.2508358504028293    0.2047322330797814    0.3929765741051657 T T T Ca
   0.7480648505658819    0.7968882162399069    0.3211521455570303 T T T Ca
   0.5513546261309408    0.6109475213576303    0.2930506849234673 T T T Zn
   0.4468973478306210    0.2180702980797022    0.3495567880234216 T T T Zn
   0.5606621853123599    0.7749865995509424    0.3658089076636700 T T T Zn
   0.0513546261309408    0.6109475213576303    0.2930506849234673 T T T Zn
   0.9468973478306211    0.2180702980797022    0.3495567880234216 T T T Zn
   0.0606621853123599    0.7749865995509424    0.3658089076636700 T T T Zn
   0.4421841297573862    0.3943751416920166    0.4203120425843881 F F F Ga
   0.9421841297573862    0.3943751416920166    0.4203120425843881 F F F Ga
   0.7508358504028292    0.2047322330797814    0.5358337169623085 F F F Ca
   0.2480648505658819    0.7968882162399069    0.4640092884141732 F F F Ca
   0.2508358504028293    0.2047322330797814    0.5358337169623085 F F F Ca
   0.7480648505658819    0.7968882162399069    0.4640092884141732 F F F Ca
   0.5513546261309408    0.6109475213576303    0.4359078277806102 F F F Zn
   0.4468973478306210    0.2180702980797022    0.4924139308805645 F F F Zn
   0.5606621853123599    0.7749865995509424    0.5086660505208129 F F F Zn
   0.0513546261309408    0.6109475213576303    0.4359078277806102 F F F Zn
   0.9468973478306211    0.2180702980797022    0.4924139308805645 F F F Zn
   0.0606621853123599    0.7749865995509424    0.5086660505208129 F F F Zn
   0.4421841297573862    0.3943751416920166    0.5631691854415309 F F F Ga
   0.9421841297573862    0.3943751416920166    0.5631691854415309 F F F Ga
   0.7508358504028292    0.2047322330797814    0.6786908598194513 T T T Ca
   0.2480648505658819    0.7968882162399069    0.6068664312713160 T T T Ca
   0.2508358504028293    0.2047322330797814    0.6786908598194514 T T T Ca
   0.7480648505658819    0.7968882162399069    0.6068664312713160 T T T Ca
   0.5513546261309408    0.6109475213576303    0.5787649706377530 F F F Zn
   0.4468973478306210    0.2180702980797022    0.6352710737377073 T T T Zn
   0.5606621853123599    0.7749865995509424    0.6515231933779557 T T T Zn
   0.0513546261309408    0.6109475213576303    0.5787649706377530 F F F Zn
   0.9468973478306211    0.2180702980797022    0.6352710737377073 T T T Zn
   0.0606621853123599    0.7749865995509424    0.6515231933779557 T T T Zn
   0.4421841297573862    0.3943751416920166    0.7060263282986738 T T T Ga
   0.9421841297573862    0.3943751416920166    0.7060263282986738 T T T Ga
