Y18 Mg18 Pd18
1.0
   6.4449654744866560    0.0000000000000000   11.1630076548381449
   6.4449654744866551    8.2185001315089536    3.7210025516127145
   0.0000000000000000    0.0000000000000000   59.5360408258034468
Y Mg Pd Y Mg Pd Y Mg Pd
6 6 6 6 6 6 6 6 6
Selective dynamics
direct
   0.8380392283368036    0.7500000000000002    0.3668790818046878 T T T Y
   0.3380392283368036    0.2500000000000002    0.4293790818046878 T T T Y
   0.2499999999999996    0.7500000000000001    0.3373937924309893 T T T Y
   0.7499999999999998    0.2500000000000001    0.3998937924309893 T T T Y
   0.6619607716631959    0.7500000000000001    0.3373937924309893 T T T Y
   0.1619607716631959    0.2500000000000001    0.3998937924309893 T T T Y
   0.7442273417978380    0.5000000000000003    0.4215820534394292 T T T Mg
   0.2442273417978380    0.0000000000000002    0.3590820534394292 T T T Mg
   0.2557726582021614    0.5000000000000001    0.3881673066136186 T T T Mg
   0.7557726582021616    0.0000000000000000    0.3256673066136186 T T T Mg
   0.4999999999999999    0.5000000000000001    0.3881673066136186 T T T Mg
   0.0000000000000000    0.0000000000000000    0.3256673066136186 T T T Mg
   0.8333333333333330    0.5000000000000002    0.3576388888888888 T T T Pd
   0.3333333333333331    0.0000000000000001    0.4201388888888888 T T T Pd
   0.1666666666666664    0.5000000000000002    0.3576388888888888 T T T Pd
   0.6666666666666664    0.0000000000000001    0.4201388888888888 T T T Pd
   0.2499999999999999    0.7500000000000000    0.3888888888888888 T T T Pd
   0.7500000000000000    0.2500000000000001    0.3263888888888888 T T T Pd
   0.8380392283368036    0.7500000000000002    0.4918790818046878 F F F Y
   0.3380392283368036    0.2500000000000002    0.5543790818046879 F F F Y
   0.2499999999999996    0.7500000000000001    0.4623937924309893 F F F Y
   0.7499999999999998    0.2500000000000001    0.5248937924309893 F F F Y
   0.6619607716631959    0.7500000000000001    0.4623937924309893 F F F Y
   0.1619607716631959    0.2500000000000001    0.5248937924309893 F F F Y
   0.7442273417978380    0.5000000000000003    0.5465820534394292 F F F Mg
   0.2442273417978380    0.0000000000000002    0.4840820534394292 F F F Mg
   0.2557726582021614    0.5000000000000001    0.5131673066136186 F F F Mg
   0.7557726582021616    0.0000000000000000    0.4506673066136186 F F F Mg
   0.4999999999999999    0.5000000000000001    0.5131673066136186 F F F Mg
   0.0000000000000000    0.0000000000000000    0.4506673066136186 F F F Mg
   0.8333333333333330    0.5000000000000002    0.4826388888888888 F F F Pd
   0.3333333333333331    0.0000000000000001    0.5451388888888888 F F F Pd
   0.1666666666666664    0.5000000000000002    0.4826388888888888 F F F Pd
   0.6666666666666664    0.0000000000000001    0.5451388888888888 F F F Pd
   0.2499999999999999    0.7500000000000000    0.5138888888888888 F F F Pd
   0.7500000000000000    0.2500000000000001    0.4513888888888888 F F F Pd
   0.8380392283368036    0.7500000000000002    0.6168790818046879 T T T Y
   0.3380392283368036    0.2500000000000002    0.6793790818046879 T T T Y
   0.2499999999999996    0.7500000000000001    0.5873937924309893 T T T Y
   0.7499999999999998    0.2500000000000001    0.6498937924309893 T T T Y
   0.6619607716631959    0.7500000000000001    0.5873937924309893 T T T Y
   0.1619607716631959    0.2500000000000001    0.6498937924309893 T T T Y
   0.7442273417978380    0.5000000000000003    0.6715820534394292 T T T Mg
   0.2442273417978380    0.0000000000000002    0.6090820534394292 T T T Mg
   0.2557726582021614    0.5000000000000001    0.6381673066136186 T T T Mg
   0.7557726582021616    0.0000000000000000    0.5756673066136186 T T T Mg
   0.4999999999999999    0.5000000000000001    0.6381673066136186 T T T Mg
   0.0000000000000000    0.0000000000000000    0.5756673066136186 T T T Mg
   0.8333333333333330    0.5000000000000002    0.6076388888888888 T T T Pd
   0.3333333333333331    0.0000000000000001    0.6701388888888888 T T T Pd
   0.1666666666666664    0.5000000000000002    0.6076388888888888 T T T Pd
   0.6666666666666664    0.0000000000000001    0.6701388888888888 T T T Pd
   0.2499999999999999    0.7500000000000000    0.6388888888888888 T T T Pd
   0.7500000000000000    0.2500000000000001    0.5763888888888888 T T T Pd
