Y16 Ga32 Ni16
1.0
  10.1956691112592175    0.0000000000000000    0.0000000000000006
  -0.0000000000000023    8.2140187993073379    6.6954724269550630
   0.0000000000000000    0.0000000000000000   33.4773621347753121
Y Ga Ni Y Ga Ni
8 16 8 8 16 8
Selective dynamics
direct
   0.0690969587494923    0.5000000000000000    0.3375000000000000 T T T Y
   0.0690969587494923    0.0000000000000000    0.4375000000000000 F F F Y
   0.4309030412505077    0.2500000000000000    0.4875000000000000 F F F Y
   0.4309030412505077    0.7500000000000000    0.3875000000000000 T T T Y
   0.5690969587494923    0.2500000000000000    0.3875000000000000 T T T Y
   0.5690969587494923    0.7500000000000000    0.4874999999999999 F F F Y
   0.9309030412505078    0.4999999999999999    0.4375000000000000 F F F Y
   0.9309030412505078    0.0000000000000000    0.3375000000000000 T T T Y
   0.3528730392658570    0.4999999999999999    0.3767397590033880 T T T Ga
   0.3528730392658570    0.0000000000000000    0.4767397590033880 F F F Ga
   0.3528730392658570    0.4999999999999999    0.2982602409966120 T T T Ga
   0.3528730392658570    0.0000000000000000    0.3982602409966119 T T T Ga
   0.1471269607341430    0.2500000000000000    0.4482602409966120 F F F Ga
   0.1471269607341430    0.7500000000000000    0.3482602409966120 T T T Ga
   0.1471269607341430    0.2500000000000000    0.3267397590033880 T T T Ga
   0.1471269607341430    0.7500000000000000    0.4267397590033880 F F F Ga
   0.8528730392658571    0.2500000000000000    0.4267397590033880 F F F Ga
   0.8528730392658571    0.7500000000000000    0.3267397590033880 T T T Ga
   0.8528730392658571    0.2500000000000000    0.3482602409966119 T T T Ga
   0.8528730392658571    0.7500000000000000    0.4482602409966119 F F F Ga
   0.6471269607341430    0.5000000000000000    0.3982602409966119 T T T Ga
   0.6471269607341430    0.0000000000000000    0.2982602409966120 T T T Ga
   0.6471269607341430    0.5000000000000000    0.4767397590033880 F F F Ga
   0.6471269607341430    0.0000000000000000    0.3767397590033880 T T T Ga
   0.2880838383626081    0.2500000000000000    0.3875000000000000 T T T Ni
   0.2880838383626081    0.7500000000000000    0.4874999999999999 F F F Ni
   0.2119161616373919    0.5000000000000000    0.4375000000000000 F F F Ni
   0.2119161616373919    0.0000000000000000    0.3375000000000000 T T T Ni
   0.7880838383626082    0.5000000000000000    0.3375000000000000 T T T Ni
   0.7880838383626082    0.0000000000000000    0.4375000000000000 F F F Ni
   0.7119161616373920    0.2500000000000000    0.4875000000000000 F F F Ni
   0.7119161616373920    0.7500000000000000    0.3875000000000000 T T T Ni
   0.0690969587494923    0.5000000000000000    0.5375000000000000 F F F Y
   0.0690969587494923    0.0000000000000000    0.6375000000000000 T T T Y
   0.4309030412505077    0.2500000000000000    0.6875000000000000 T T T Y
   0.4309030412505077    0.7500000000000000    0.5874999999999999 T T T Y
   0.5690969587494923    0.2500000000000000    0.5874999999999999 T T T Y
   0.5690969587494923    0.7500000000000000    0.6875000000000000 T T T Y
   0.9309030412505078    0.4999999999999999    0.6375000000000000 T T T Y
   0.9309030412505078    0.0000000000000000    0.5375000000000000 F F F Y
   0.3528730392658570    0.4999999999999999    0.5767397590033880 T T T Ga
   0.3528730392658570    0.0000000000000000    0.6767397590033880 T T T Ga
   0.3528730392658570    0.4999999999999999    0.4982602409966120 F F F Ga
   0.3528730392658570    0.0000000000000000    0.5982602409966120 T T T Ga
   0.1471269607341430    0.2500000000000000    0.6482602409966121 T T T Ga
   0.1471269607341430    0.7500000000000000    0.5482602409966120 F F F Ga
   0.1471269607341430    0.2500000000000000    0.5267397590033880 F F F Ga
   0.1471269607341430    0.7500000000000000    0.6267397590033881 T T T Ga
   0.8528730392658571    0.2500000000000000    0.6267397590033881 T T T Ga
   0.8528730392658571    0.7500000000000000    0.5267397590033880 F F F Ga
   0.8528730392658571    0.2500000000000000    0.5482602409966120 F F F Ga
   0.8528730392658571    0.7500000000000000    0.6482602409966119 T T T Ga
   0.6471269607341430    0.5000000000000000    0.5982602409966120 T T T Ga
   0.6471269607341430    0.0000000000000000    0.4982602409966120 F F F Ga
   0.6471269607341430    0.5000000000000000    0.6767397590033880 T T T Ga
   0.6471269607341430    0.0000000000000000    0.5767397590033880 T T T Ga
   0.2880838383626081    0.2500000000000000    0.5874999999999999 T T T Ni
   0.2880838383626081    0.7500000000000000    0.6875000000000000 T T T Ni
   0.2119161616373919    0.5000000000000000    0.6375000000000000 T T T Ni
   0.2119161616373919    0.0000000000000000    0.5375000000000000 F F F Ni
   0.7880838383626082    0.5000000000000000    0.5375000000000000 F F F Ni
   0.7880838383626082    0.0000000000000000    0.6375000000000000 T T T Ni
   0.7119161616373920    0.2500000000000000    0.6875000000000000 T T T Ni
   0.7119161616373920    0.7500000000000000    0.5874999999999999 T T T Ni
