Y36 In36 Rh36
1.0
  13.0344844244215086    0.0000000000000000  -15.0509261823754859
  -0.0000000000000022    7.8861498328371527   -7.5254630911877429
   0.0000000000000000    0.0000000000000000   52.6782416383141978
Y In Rh Y In Rh Y In Rh
12 12 12 12 12 12 12 12 12
Selective dynamics
direct
   0.7968176331383532    0.7500000000000000    0.3439898206070663 T T T Y
   0.2968176331383532    0.2500000000000000    0.3439898206070663 T T T Y
   0.2968176331383532    0.7500000000000000    0.4154183920356378 F F F Y
   0.7968176331383532    0.2500000000000001    0.4154183920356378 F F F Y
   0.7031823668616468    0.7500000000000000    0.3886654588137216 T T T Y
   0.2031823668616468    0.2500000000000000    0.3886654588137216 T T T Y
   0.2031823668616468    0.7500000000000000    0.3172368873851502 T T T Y
   0.7031823668616468    0.2500000000000001    0.3172368873851502 T T T Y
   0.5000000000000000    0.7500000000000000    0.3863923396268311 T T T Y
   0.0000000000000000    0.2500000000000000    0.3863923396268311 T T T Y
   0.0000000000000000    0.7500000000000000    0.3149637681982597 T T T Y
   0.5000000000000000    0.2500000000000001    0.3149637681982597 T T T Y
   0.6283211489067710    0.5000000000000000    0.4270617514311260 F F F In
   0.1283211489067710    0.0000000000000000    0.4270617514311260 F F F In
   0.1283211489067710    0.5000000000000000    0.3556331800025546 T T T In
   0.6283211489067712    0.0000000000000000    0.3556331800025546 T T T In
   0.4999999999999999    0.5000000000000000    0.3025362012749505 T T T In
   0.0000000000000000    0.0000000000000000    0.3025362012749505 T T T In
   0.0000000000000000    0.5000000000000000    0.3739647727035219 T T T In
   0.5000000000000001    0.0000000000000000    0.3739647727035219 T T T In
   0.8716788510932290    0.5000000000000000    0.4251639520558283 F F F In
   0.3716788510932290    0.0000000000000000    0.4251639520558283 F F F In
   0.3716788510932290    0.5000000000000000    0.3537353806272568 T T T In
   0.8716788510932291    0.0000000000000000    0.3537353806272568 T T T In
   0.8333333333333333    0.5000000000000000    0.3611111111111111 T T T Rh
   0.3333333333333333    0.0000000000000000    0.3611111111111111 T T T Rh
   0.3333333333333333    0.5000000000000000    0.2896825396825397 T T T Rh
   0.8333333333333334    0.0000000000000000    0.2896825396825397 T T T Rh
   0.5000000000000000    0.7500000000000000    0.3015873015873016 T T T Rh
   0.0000000000000000    0.2500000000000000    0.3015873015873016 T T T Rh
   0.0000000000000000    0.7500000000000000    0.3730158730158730 T T T Rh
   0.5000000000000000    0.2500000000000000    0.3730158730158730 T T T Rh
   0.6666666666666666    0.5000000000000000    0.3849206349206349 T T T Rh
   0.1666666666666667    0.0000000000000000    0.3849206349206349 T T T Rh
   0.1666666666666667    0.5000000000000000    0.3134920634920635 T T T Rh
   0.6666666666666666    0.0000000000000000    0.3134920634920634 T T T Rh
   0.7968176331383532    0.7500000000000000    0.4868469634642092 F F F Y
   0.2968176331383532    0.2500000000000000    0.4868469634642092 F F F Y
   0.2968176331383532    0.7500000000000000    0.5582755348927806 F F F Y
   0.7968176331383532    0.2500000000000001    0.5582755348927806 F F F Y
   0.7031823668616468    0.7500000000000000    0.5315226016708645 F F F Y
   0.2031823668616468    0.2500000000000000    0.5315226016708645 F F F Y
   0.2031823668616468    0.7500000000000000    0.4600940302422931 F F F Y
   0.7031823668616468    0.2500000000000001    0.4600940302422930 F F F Y
   0.5000000000000000    0.7500000000000000    0.5292494824839740 F F F Y
   0.0000000000000000    0.2500000000000000    0.5292494824839740 F F F Y
   0.0000000000000000    0.7500000000000000    0.4578209110554025 F F F Y
   0.5000000000000000    0.2500000000000001    0.4578209110554025 F F F Y
   0.6283211489067710    0.5000000000000000    0.5699188942882689 F F F In
   0.1283211489067710    0.0000000000000000    0.5699188942882689 F F F In
   0.1283211489067710    0.5000000000000000    0.4984903228596975 F F F In
   0.6283211489067712    0.0000000000000000    0.4984903228596975 F F F In
   0.4999999999999999    0.5000000000000000    0.4453933441320933 F F F In
   0.0000000000000000    0.0000000000000000    0.4453933441320933 F F F In
   0.0000000000000000    0.5000000000000000    0.5168219155606648 F F F In
   0.5000000000000001    0.0000000000000000    0.5168219155606648 F F F In
   0.8716788510932290    0.5000000000000000    0.5680210949129711 F F F In
   0.3716788510932290    0.0000000000000000    0.5680210949129711 F F F In
   0.3716788510932290    0.5000000000000000    0.4965925234843997 F F F In
   0.8716788510932291    0.0000000000000000    0.4965925234843997 F F F In
   0.8333333333333333    0.5000000000000000    0.5039682539682540 F F F Rh
   0.3333333333333333    0.0000000000000000    0.5039682539682540 F F F Rh
   0.3333333333333333    0.5000000000000000    0.4325396825396826 F F F Rh
   0.8333333333333334    0.0000000000000000    0.4325396825396826 F F F Rh
   0.5000000000000000    0.7500000000000000    0.4444444444444444 F F F Rh
   0.0000000000000000    0.2500000000000000    0.4444444444444444 F F F Rh
   0.0000000000000000    0.7500000000000000    0.5158730158730158 F F F Rh
   0.5000000000000000    0.2500000000000000    0.5158730158730158 F F F Rh
   0.6666666666666666    0.5000000000000000    0.5277777777777778 F F F Rh
   0.1666666666666667    0.0000000000000000    0.5277777777777778 F F F Rh
   0.1666666666666667    0.5000000000000000    0.4563492063492063 F F F Rh
   0.6666666666666666    0.0000000000000000    0.4563492063492063 F F F Rh
   0.7968176331383532    0.7500000000000000    0.6297041063213520 T T T Y
   0.2968176331383532    0.2500000000000000    0.6297041063213520 T T T Y
   0.2968176331383532    0.7500000000000000    0.7011326777499235 T T T Y
   0.7968176331383532    0.2500000000000001    0.7011326777499235 T T T Y
   0.7031823668616468    0.7500000000000000    0.6743797445280073 T T T Y
   0.2031823668616468    0.2500000000000000    0.6743797445280073 T T T Y
   0.2031823668616468    0.7500000000000000    0.6029511730994359 F F F Y
   0.7031823668616468    0.2500000000000001    0.6029511730994359 F F F Y
   0.5000000000000000    0.7500000000000000    0.6721066253411168 T T T Y
   0.0000000000000000    0.2500000000000000    0.6721066253411168 T T T Y
   0.0000000000000000    0.7500000000000000    0.6006780539125454 F F F Y
   0.5000000000000000    0.2500000000000001    0.6006780539125454 F F F Y
   0.6283211489067710    0.5000000000000000    0.7127760371454117 T T T In
   0.1283211489067710    0.0000000000000000    0.7127760371454117 T T T In
   0.1283211489067710    0.5000000000000000    0.6413474657168403 T T T In
   0.6283211489067712    0.0000000000000000    0.6413474657168403 T T T In
   0.4999999999999999    0.5000000000000000    0.5882504869892362 F F F In
   0.0000000000000000    0.0000000000000000    0.5882504869892362 F F F In
   0.0000000000000000    0.5000000000000000    0.6596790584178076 T T T In
   0.5000000000000001    0.0000000000000000    0.6596790584178076 T T T In
   0.8716788510932290    0.5000000000000000    0.7108782377701139 T T T In
   0.3716788510932290    0.0000000000000000    0.7108782377701139 T T T In
   0.3716788510932290    0.5000000000000000    0.6394496663415425 T T T In
   0.8716788510932291    0.0000000000000000    0.6394496663415425 T T T In
   0.8333333333333333    0.5000000000000000    0.6468253968253967 T T T Rh
   0.3333333333333333    0.0000000000000000    0.6468253968253967 T T T Rh
   0.3333333333333333    0.5000000000000000    0.5753968253968254 F F F Rh
   0.8333333333333334    0.0000000000000000    0.5753968253968254 F F F Rh
   0.5000000000000000    0.7500000000000000    0.5873015873015872 F F F Rh
   0.0000000000000000    0.2500000000000000    0.5873015873015872 F F F Rh
   0.0000000000000000    0.7500000000000000    0.6587301587301587 T T T Rh
   0.5000000000000000    0.2500000000000000    0.6587301587301587 T T T Rh
   0.6666666666666666    0.5000000000000000    0.6706349206349206 T T T Rh
   0.1666666666666667    0.0000000000000000    0.6706349206349206 T T T Rh
   0.1666666666666667    0.5000000000000000    0.5992063492063492 F F F Rh
   0.6666666666666666    0.0000000000000000    0.5992063492063491 F F F Rh
