Ca32 Ge16 Pd32
1.0
  10.0451650334557385    0.0000000000000000    0.0000000000000006
   0.0000000000000025   15.6085667468938709   -5.6064655979733748
   0.0000000000000000    0.0000000000000000   28.0323279898668716
Ca Ge Pd Ca Ge Pd
16 8 16 16 8 16
Selective dynamics
direct
   0.1657762579044615    0.9535201942774310    0.3803415171190241 T T T Ca
   0.3342237420955385    0.5464798057225694    0.2989334394080518 T T T Ca
   0.0842237420955385    0.7035201942774307    0.4803415171190241 F F F Ca
   0.4157762579044615    0.7964798057225694    0.2989334394080518 T T T Ca
   0.1657762579044615    0.4535201942774308    0.3803415171190241 T T T Ca
   0.3342237420955385    0.0464798057225693    0.2989334394080518 T T T Ca
   0.0842237420955385    0.2035201942774308    0.4803415171190241 F F F Ca
   0.4157762579044615    0.2964798057225693    0.2989334394080518 T T T Ca
   0.6657762579044615    0.9535201942774308    0.4803415171190241 F F F Ca
   0.8342237420955385    0.5464798057225694    0.3989334394080518 T T T Ca
   0.5842237420955385    0.7035201942774308    0.3803415171190241 T T T Ca
   0.9157762579044616    0.7964798057225693    0.3989334394080518 T T T Ca
   0.6657762579044615    0.4535201942774308    0.4803415171190241 F F F Ca
   0.8342237420955385    0.0464798057225693    0.3989334394080518 T T T Ca
   0.5842237420955385    0.2035201942774308    0.3803415171190241 T T T Ca
   0.9157762579044616    0.2964798057225693    0.3989334394080518 T T T Ca
   0.2500000000000000    0.7500000000000000    0.3914731573531017 T T T Ge
   0.0000000000000000    0.0000000000000000    0.4914731573531017 F F F Ge
   0.2500000000000000    0.2500000000000001    0.3914731573531017 T T T Ge
   0.0000000000000000    0.5000000000000001    0.4914731573531017 F F F Ge
   0.7500000000000000    0.7500000000000000    0.4914731573531017 F F F Ge
   0.5000000000000000    0.0000000000000001    0.3914731573531017 T T T Ge
   0.7500000000000000    0.2500000000000000    0.4914731573531017 F F F Ge
   0.5000000000000000    0.5000000000000000    0.3914731573531017 T T T Ge
   0.1610194363578827    0.8760768355289771    0.4648413101657065 F F F Pd
   0.3389805636421173    0.6239231644710231    0.4144105759541158 F F F Pd
   0.0889805636421173    0.6260768355289771    0.3648413101657065 T T T Pd
   0.4110194363578827    0.8739231644710231    0.4144105759541158 F F F Pd
   0.1610194363578827    0.3760768355289771    0.4648413101657065 F F F Pd
   0.3389805636421173    0.1239231644710231    0.4144105759541158 F F F Pd
   0.0889805636421173    0.1260768355289770    0.3648413101657065 T T T Pd
   0.4110194363578827    0.3739231644710231    0.4144105759541158 F F F Pd
   0.6610194363578827    0.8760768355289771    0.3648413101657065 T T T Pd
   0.8389805636421174    0.6239231644710231    0.3144105759541158 T T T Pd
   0.5889805636421173    0.6260768355289771    0.4648413101657065 F F F Pd
   0.9110194363578827    0.8739231644710231    0.3144105759541158 T T T Pd
   0.6610194363578827    0.3760768355289770    0.3648413101657065 T T T Pd
   0.8389805636421174    0.1239231644710231    0.3144105759541158 T T T Pd
   0.5889805636421173    0.1260768355289770    0.4648413101657065 F F F Pd
   0.9110194363578827    0.3739231644710230    0.3144105759541158 T T T Pd
   0.1657762579044615    0.9535201942774310    0.5803415171190240 T T T Ca
   0.3342237420955385    0.5464798057225694    0.4989334394080518 F F F Ca
   0.0842237420955385    0.7035201942774307    0.6803415171190241 T T T Ca
   0.4157762579044615    0.7964798057225694    0.4989334394080518 F F F Ca
   0.1657762579044615    0.4535201942774308    0.5803415171190240 T T T Ca
   0.3342237420955385    0.0464798057225693    0.4989334394080518 F F F Ca
   0.0842237420955385    0.2035201942774308    0.6803415171190241 T T T Ca
   0.4157762579044615    0.2964798057225693    0.4989334394080518 F F F Ca
   0.6657762579044615    0.9535201942774308    0.6803415171190241 T T T Ca
   0.8342237420955385    0.5464798057225694    0.5989334394080519 T T T Ca
   0.5842237420955385    0.7035201942774308    0.5803415171190240 T T T Ca
   0.9157762579044616    0.7964798057225693    0.5989334394080519 T T T Ca
   0.6657762579044615    0.4535201942774308    0.6803415171190241 T T T Ca
   0.8342237420955385    0.0464798057225693    0.5989334394080519 T T T Ca
   0.5842237420955385    0.2035201942774308    0.5803415171190240 T T T Ca
   0.9157762579044616    0.2964798057225693    0.5989334394080519 T T T Ca
   0.2500000000000000    0.7500000000000000    0.5914731573531018 T T T Ge
   0.0000000000000000    0.0000000000000000    0.6914731573531017 T T T Ge
   0.2500000000000000    0.2500000000000001    0.5914731573531018 T T T Ge
   0.0000000000000000    0.5000000000000001    0.6914731573531017 T T T Ge
   0.7500000000000000    0.7500000000000000    0.6914731573531017 T T T Ge
   0.5000000000000000    0.0000000000000001    0.5914731573531018 T T T Ge
   0.7500000000000000    0.2500000000000000    0.6914731573531017 T T T Ge
   0.5000000000000000    0.5000000000000000    0.5914731573531018 T T T Ge
   0.1610194363578827    0.8760768355289771    0.6648413101657065 T T T Pd
   0.3389805636421173    0.6239231644710231    0.6144105759541159 T T T Pd
   0.0889805636421173    0.6260768355289771    0.5648413101657066 F F F Pd
   0.4110194363578827    0.8739231644710231    0.6144105759541159 T T T Pd
   0.1610194363578827    0.3760768355289771    0.6648413101657065 T T T Pd
   0.3389805636421173    0.1239231644710231    0.6144105759541159 T T T Pd
   0.0889805636421173    0.1260768355289770    0.5648413101657066 F F F Pd
   0.4110194363578827    0.3739231644710231    0.6144105759541159 T T T Pd
   0.6610194363578827    0.8760768355289771    0.5648413101657066 F F F Pd
   0.8389805636421174    0.6239231644710231    0.5144105759541158 F F F Pd
   0.5889805636421173    0.6260768355289771    0.6648413101657065 T T T Pd
   0.9110194363578827    0.8739231644710231    0.5144105759541158 F F F Pd
   0.6610194363578827    0.3760768355289770    0.5648413101657066 F F F Pd
   0.8389805636421174    0.1239231644710231    0.5144105759541158 F F F Pd
   0.5889805636421173    0.1260768355289770    0.6648413101657065 T T T Pd
   0.9110194363578827    0.3739231644710230    0.5144105759541158 F F F Pd
