Hf6 Co12 Si12
1.0
   3.7269982522794738    0.0000000000000000    0.0000000000000002
   0.0000000000000015    9.6060855247624968   -3.7269982522794751
   0.0000000000000000    0.0000000000000000   29.8159860182357903
Hf Co Si Hf Co Si Hf Co Si
2 4 4 2 4 4 2 4 4
Selective dynamics
direct
   0.0000000000000000    0.0000000000000000    0.3750000000000000 T T T Hf
   0.5000000000000000    0.5000000000000000    0.3750000000000000 T T T Hf
   0.5000000000000000    0.2500000000000000    0.4062500000000000 T T T Co
   0.0000000000000000    0.2500000000000000    0.3437500000000000 T T T Co
   0.0000000000000000    0.7500000000000001    0.4062500000000000 T T T Co
   0.5000000000000000    0.7500000000000000    0.3437500000000000 T T T Co
   0.0000000000000000    0.3788308789429919    0.4223538598678740 T T T Si
   0.5000000000000000    0.1211691210570081    0.3276461401321260 T T T Si
   0.5000000000000000    0.8788308789429919    0.4223538598678740 T T T Si
   0.0000000000000000    0.6211691210570081    0.3276461401321260 T T T Si
   0.0000000000000000    0.0000000000000000    0.5000000000000000 F F F Hf
   0.5000000000000000    0.5000000000000000    0.5000000000000000 F F F Hf
   0.5000000000000000    0.2500000000000000    0.5312500000000000 F F F Co
   0.0000000000000000    0.2500000000000000    0.4687500000000000 F F F Co
   0.0000000000000000    0.7500000000000001    0.5312500000000000 F F F Co
   0.5000000000000000    0.7500000000000000    0.4687500000000000 F F F Co
   0.0000000000000000    0.3788308789429919    0.5473538598678740 F F F Si
   0.5000000000000000    0.1211691210570081    0.4526461401321260 F F F Si
   0.5000000000000000    0.8788308789429919    0.5473538598678740 F F F Si
   0.0000000000000000    0.6211691210570081    0.4526461401321260 F F F Si
   0.0000000000000000    0.0000000000000000    0.6250000000000000 T T T Hf
   0.5000000000000000    0.5000000000000000    0.6250000000000000 T T T Hf
   0.5000000000000000    0.2500000000000000    0.6562500000000000 T T T Co
   0.0000000000000000    0.2500000000000000    0.5937500000000000 T T T Co
   0.0000000000000000    0.7500000000000001    0.6562500000000000 T T T Co
   0.5000000000000000    0.7500000000000000    0.5937500000000000 T T T Co
   0.0000000000000000    0.3788308789429919    0.6723538598678740 T T T Si
   0.5000000000000000    0.1211691210570081    0.5776461401321260 T T T Si
   0.5000000000000000    0.8788308789429919    0.6723538598678740 T T T Si
   0.0000000000000000    0.6211691210570081    0.5776461401321260 T T T Si
