Zn2 In4 Te8
1.0
   6.2537340234770440    0.0000000000000000    0.0000000000000004
   0.0000000000000010    6.2537340234770440    0.0000000000000004
   0.0000000000000000    0.0000000000000000   37.9016233646287759
Zn In Te
2 4 8
Selective dynamics
direct
   0.0000000000000000    0.0000000000000000    0.6428571428571428 T T T Zn
   0.5000000000000000    0.5000000000000000    0.4761904761904762 F F F Zn
   0.5000000000000000    0.5000000000000000    0.6428571428571428 T T T In
   0.5000000000000000    0.0000000000000000    0.3928571428571428 T T T In
   0.0000000000000000    0.0000000000000000    0.4761904761904762 F F F In
   0.0000000000000000    0.5000000000000000    0.5595238095238095 F F F In
   0.7850413292391921    0.2635252310128352    0.3533001502245381 T T T Te
   0.7635252310128352    0.7149586707608081    0.4324141354897476 T T T Te
   0.2364747689871648    0.2850413292391921    0.4324141354897475 T T T Te
   0.2149586707608080    0.7364747689871649    0.3533001502245381 T T T Te
   0.2850413292391920    0.7635252310128352    0.5199668168912047 F F F Te
   0.2635252310128351    0.2149586707608080    0.5990808021564142 T T T Te
   0.7364747689871649    0.7850413292391921    0.5990808021564142 T T T Te
   0.7149586707608081    0.2364747689871649    0.5199668168912047 F F F Te
