Ni8 Ge8 Pd8
1.0
   3.6441253314269511    0.0000000000000000    0.0000000000000002
   0.0000000000000010    6.2910377186412587   -3.6441253314269524
   0.0000000000000000    0.0000000000000000   32.7971279828425608
Ni Ge Pd Ni Ge Pd Ni Ge Pd Ni Ge Pd
2 2 2 2 2 2 2 2 2 2 2 2
Selective dynamics
direct
   0.5000000000000000    0.0000000000000000    0.3240740740740741 T T T Ni
   0.0000000000000000    0.0000000000000000    0.3796296296296297 T T T Ni
   0.0000000000000000    0.2449428223439654    0.3512899432234036 T T T Ge
   0.5000000000000000    0.7550571776560346    0.3524137604803002 T T T Ge
   0.0000000000000000    0.6398280976251699    0.2840549738102041 T T T Pd
   0.5000000000000000    0.3601719023748302    0.3085376187823886 T T T Pd
   0.5000000000000000    0.0000000000000000    0.4351851851851852 F F F Ni
   0.0000000000000000    0.0000000000000000    0.4907407407407408 F F F Ni
   0.0000000000000000    0.2449428223439654    0.4624010543345147 F F F Ge
   0.5000000000000000    0.7550571776560346    0.4635248715914113 F F F Ge
   0.0000000000000000    0.6398280976251699    0.3951660849213152 F F F Pd
   0.5000000000000000    0.3601719023748302    0.4196487298934997 F F F Pd
   0.5000000000000000    0.0000000000000000    0.5462962962962963 F F F Ni
   0.0000000000000000    0.0000000000000000    0.6018518518518519 F F F Ni
   0.0000000000000000    0.2449428223439654    0.5735121654456259 F F F Ge
   0.5000000000000000    0.7550571776560346    0.5746359827025225 F F F Ge
   0.0000000000000000    0.6398280976251699    0.5062771960324263 F F F Pd
   0.5000000000000000    0.3601719023748302    0.5307598410046108 F F F Pd
   0.5000000000000000    0.0000000000000000    0.6574074074074074 T T T Ni
   0.0000000000000000    0.0000000000000000    0.7129629629629630 T T T Ni
   0.0000000000000000    0.2449428223439654    0.6846232765567369 T T T Ge
   0.5000000000000000    0.7550571776560346    0.6857470938136335 T T T Ge
   0.0000000000000000    0.6398280976251699    0.6173883071435374 T T T Pd
   0.5000000000000000    0.3601719023748302    0.6418709521157219 T T T Pd
