Hf48 Al16 Co8
1.0
   7.8582126790822873    0.0000000000000000    0.0000000000000005
   7.8582126790822908   13.6108236168524659    3.2882298128713234
   0.0000000000000000    0.0000000000000000   29.5940683158419375
Hf Al Co Hf Al Co Hf Al Co Hf Al Co
12 4 2 12 4 2 12 4 2 12 4 2
Selective dynamics
direct
   0.0000000000000001    0.3010355814296624    0.2782799971250992 T T T Hf
   0.0000000000000000    0.8010355814296624    0.3338355526806548 T T T Hf
   0.3979288371406753    0.5000000000000000    0.3672839506172839 T T T Hf
   0.3979288371406752    0.0000000000000000    0.3117283950617284 T T T Hf
   0.6020711628593247    0.1989644185703376    0.2896212374428020 T T T Hf
   0.6020711628593246    0.6989644185703376    0.3451767929983575 T T T Hf
   0.0000000000000000    0.1252597126125359    0.3533662047714466 T T T Hf
   0.0000000000000000    0.6252597126125359    0.2978106492158911 T T T Hf
   0.7494805747749282    0.4999999999999999    0.3117283950617284 T T T Hf
   0.7494805747749281    0.0000000000000000    0.3672839506172839 T T T Hf
   0.2505194252250718    0.3747402873874641    0.3256461409075657 T T T Hf
   0.2505194252250717    0.8747402873874641    0.3812016964631212 T T T Hf
   0.6666666666666666    0.3333333333333333    0.3302469135802469 T T T Al
   0.6666666666666665    0.8333333333333334    0.3858024691358025 F F F Al
   0.3333333333333333    0.1666666666666667    0.3487654320987654 T T T Al
   0.3333333333333333    0.6666666666666667    0.2932098765432098 T T T Al
   0.0000000000000001    0.5000000000000000    0.3672839506172839 T T T Co
   0.0000000000000000    0.0000000000000000    0.3117283950617284 T T T Co
   0.0000000000000001    0.3010355814296624    0.3893911082362103 F F F Hf
   0.0000000000000000    0.8010355814296624    0.4449466637917659 F F F Hf
   0.3979288371406753    0.5000000000000000    0.4783950617283951 F F F Hf
   0.3979288371406752    0.0000000000000000    0.4228395061728395 F F F Hf
   0.6020711628593247    0.1989644185703376    0.4007323485539131 F F F Hf
   0.6020711628593246    0.6989644185703376    0.4562879041094686 F F F Hf
   0.0000000000000000    0.1252597126125359    0.4644773158825577 F F F Hf
   0.0000000000000000    0.6252597126125359    0.4089217603270022 F F F Hf
   0.7494805747749282    0.4999999999999999    0.4228395061728395 F F F Hf
   0.7494805747749281    0.0000000000000000    0.4783950617283951 F F F Hf
   0.2505194252250718    0.3747402873874641    0.4367572520186768 F F F Hf
   0.2505194252250717    0.8747402873874641    0.4923128075742323 F F F Hf
   0.6666666666666666    0.3333333333333333    0.4413580246913580 F F F Al
   0.6666666666666665    0.8333333333333334    0.4969135802469136 F F F Al
   0.3333333333333333    0.1666666666666667    0.4598765432098765 F F F Al
   0.3333333333333333    0.6666666666666667    0.4043209876543210 F F F Al
   0.0000000000000001    0.5000000000000000    0.4783950617283951 F F F Co
   0.0000000000000000    0.0000000000000000    0.4228395061728395 F F F Co
   0.0000000000000001    0.3010355814296624    0.5005022193473214 F F F Hf
   0.0000000000000000    0.8010355814296624    0.5560577749028770 F F F Hf
   0.3979288371406753    0.5000000000000000    0.5895061728395061 F F F Hf
   0.3979288371406752    0.0000000000000000    0.5339506172839505 F F F Hf
   0.6020711628593247    0.1989644185703376    0.5118434596650242 F F F Hf
   0.6020711628593246    0.6989644185703376    0.5673990152205797 F F F Hf
   0.0000000000000000    0.1252597126125359    0.5755884269936689 F F F Hf
   0.0000000000000000    0.6252597126125359    0.5200328714381133 F F F Hf
   0.7494805747749282    0.4999999999999999    0.5339506172839505 F F F Hf
   0.7494805747749281    0.0000000000000000    0.5895061728395061 F F F Hf
   0.2505194252250718    0.3747402873874641    0.5478683631297879 F F F Hf
   0.2505194252250717    0.8747402873874641    0.6034239186853434 F F F Hf
   0.6666666666666666    0.3333333333333333    0.5524691358024691 F F F Al
   0.6666666666666665    0.8333333333333334    0.6080246913580247 F F F Al
   0.3333333333333333    0.1666666666666667    0.5709876543209876 F F F Al
   0.3333333333333333    0.6666666666666667    0.5154320987654321 F F F Al
   0.0000000000000001    0.5000000000000000    0.5895061728395061 F F F Co
   0.0000000000000000    0.0000000000000000    0.5339506172839505 F F F Co
   0.0000000000000001    0.3010355814296624    0.6116133304584326 F F F Hf
   0.0000000000000000    0.8010355814296624    0.6671688860139882 T T T Hf
   0.3979288371406753    0.5000000000000000    0.7006172839506173 T T T Hf
   0.3979288371406752    0.0000000000000000    0.6450617283950617 T T T Hf
   0.6020711628593247    0.1989644185703376    0.6229545707761353 T T T Hf
   0.6020711628593246    0.6989644185703376    0.6785101263316908 T T T Hf
   0.0000000000000000    0.1252597126125359    0.6866995381047799 T T T Hf
   0.0000000000000000    0.6252597126125359    0.6311439825492244 T T T Hf
   0.7494805747749282    0.4999999999999999    0.6450617283950617 T T T Hf
   0.7494805747749281    0.0000000000000000    0.7006172839506173 T T T Hf
   0.2505194252250718    0.3747402873874641    0.6589794742408990 T T T Hf
   0.2505194252250717    0.8747402873874641    0.7145350297964546 T T T Hf
   0.6666666666666666    0.3333333333333333    0.6635802469135802 T T T Al
   0.6666666666666665    0.8333333333333334    0.7191358024691358 T T T Al
   0.3333333333333333    0.1666666666666667    0.6820987654320987 T T T Al
   0.3333333333333333    0.6666666666666667    0.6265432098765431 T T T Al
   0.0000000000000001    0.5000000000000000    0.7006172839506173 T T T Co
   0.0000000000000000    0.0000000000000000    0.6450617283950617 T T T Co
