Hf36 Al12 Co6
1.0
  13.6108236168524659    0.0000000000000000    0.0000000000000008
   6.8054118084262329    3.9291063395411467    6.5764596257426522
   0.0000000000000000    0.0000000000000000   49.3234471930698959
Hf Al Co Hf Al Co Hf Al Co Hf Al Co Hf Al Co Hf Al Co
6 2 1 6 2 1 6 2 1 6 2 1 6 2 1 6 2 1
Selective dynamics
direct
   0.0000000000000000    0.6020711628593247    0.3086127338409789 T T T Hf
   0.3979288371406752    0.6020711628593247    0.3086127338409789 T T T Hf
   0.6020711628593246    0.7958576742813503    0.3494411989847088 T T T Hf
   0.0000000000000000    0.2505194252250716    0.3221529655255460 T T T Hf
   0.7494805747749281    0.2505194252250716    0.3221529655255460 T T T Hf
   0.2505194252250717    0.4989611495498565    0.3556940689489080 T T T Hf
   0.6666666666666665    0.0000000000000000    0.3555555555555555 T T T Al
   0.3333333333333333    0.0000000000000000    0.3555555555555555 T T T Al
   0.0000000000000000    0.0000000000000000    0.3222222222222222 T T T Co
   0.0000000000000000    0.6020711628593247    0.3752794005076456 T T T Hf
   0.3979288371406752    0.6020711628593247    0.3752794005076456 T T T Hf
   0.6020711628593246    0.7958576742813503    0.4161078656513755 T T T Hf
   0.0000000000000000    0.2505194252250716    0.3888196321922126 T T T Hf
   0.7494805747749281    0.2505194252250716    0.3888196321922126 T T T Hf
   0.2505194252250717    0.4989611495498565    0.4223607356155746 T T T Hf
   0.6666666666666665    0.0000000000000000    0.4222222222222222 T T T Al
   0.3333333333333333    0.0000000000000000    0.4222222222222222 T T T Al
   0.0000000000000000    0.0000000000000000    0.3888888888888888 T T T Co
   0.0000000000000000    0.6020711628593247    0.4419460671743122 F F F Hf
   0.3979288371406752    0.6020711628593247    0.4419460671743122 F F F Hf
   0.6020711628593246    0.7958576742813503    0.4827745323180421 F F F Hf
   0.0000000000000000    0.2505194252250716    0.4554862988588793 F F F Hf
   0.7494805747749281    0.2505194252250716    0.4554862988588793 F F F Hf
   0.2505194252250717    0.4989611495498565    0.4890274022822413 F F F Hf
   0.6666666666666665    0.0000000000000000    0.4888888888888888 F F F Al
   0.3333333333333333    0.0000000000000000    0.4888888888888888 F F F Al
   0.0000000000000000    0.0000000000000000    0.4555555555555555 F F F Co
   0.0000000000000000    0.6020711628593247    0.5086127338409789 F F F Hf
   0.3979288371406752    0.6020711628593247    0.5086127338409789 F F F Hf
   0.6020711628593246    0.7958576742813503    0.5494411989847088 F F F Hf
   0.0000000000000000    0.2505194252250716    0.5221529655255459 F F F Hf
   0.7494805747749281    0.2505194252250716    0.5221529655255459 F F F Hf
   0.2505194252250717    0.4989611495498565    0.5556940689489080 F F F Hf
   0.6666666666666665    0.0000000000000000    0.5555555555555556 F F F Al
   0.3333333333333333    0.0000000000000000    0.5555555555555556 F F F Al
   0.0000000000000000    0.0000000000000000    0.5222222222222221 F F F Co
   0.0000000000000000    0.6020711628593247    0.5752794005076456 T T T Hf
   0.3979288371406752    0.6020711628593247    0.5752794005076456 T T T Hf
   0.6020711628593246    0.7958576742813503    0.6161078656513754 T T T Hf
   0.0000000000000000    0.2505194252250716    0.5888196321922126 T T T Hf
   0.7494805747749281    0.2505194252250716    0.5888196321922126 T T T Hf
   0.2505194252250717    0.4989611495498565    0.6223607356155747 T T T Hf
   0.6666666666666665    0.0000000000000000    0.6222222222222222 T T T Al
   0.3333333333333333    0.0000000000000000    0.6222222222222222 T T T Al
   0.0000000000000000    0.0000000000000000    0.5888888888888888 T T T Co
   0.0000000000000000    0.6020711628593247    0.6419460671743122 T T T Hf
   0.3979288371406752    0.6020711628593247    0.6419460671743122 T T T Hf
   0.6020711628593246    0.7958576742813503    0.6827745323180421 T T T Hf
   0.0000000000000000    0.2505194252250716    0.6554862988588792 T T T Hf
   0.7494805747749281    0.2505194252250716    0.6554862988588792 T T T Hf
   0.2505194252250717    0.4989611495498565    0.6890274022822414 T T T Hf
   0.6666666666666665    0.0000000000000000    0.6888888888888889 T T T Al
   0.3333333333333333    0.0000000000000000    0.6888888888888889 T T T Al
   0.0000000000000000    0.0000000000000000    0.6555555555555554 T T T Co
