Ca8 Si16 Rh16
1.0
   4.1026424717370258    0.0000000000000000    4.1026424717370249
   8.2052849434740480   10.0434697777764956   -0.0000000000000021
   0.0000000000000000    0.0000000000000000   41.0264247173702614
Ca Si Rh Ca Si Rh Ca Si Rh Ca Si Rh
2 4 4 2 4 4 2 4 4 2 4 4
Selective dynamics
direct
   0.0000000000000000    0.0000000000000000    0.3700000000000000 T T T Ca
   0.5000000000000000    0.4999999999999999    0.3700000000000000 T T T Ca
   0.2461230533545091    0.1269384733227454    0.2953876946645491 T T T Si
   0.2538769466454909    0.3730615266772545    0.3446123053354509 T T T Si
   0.7461230533545091    0.6269384733227453    0.2953876946645491 T T T Si
   0.7538769466454909    0.8730615266772545    0.3446123053354509 T T T Si
   0.5000000000000000    0.2500000000000000    0.3700000000000000 T T T Rh
   0.0000000000000000    0.2499999999999999    0.3700000000000000 T T T Rh
   0.0000000000000000    0.7499999999999999    0.3700000000000000 T T T Rh
   0.4999999999999998    0.7500000000000000    0.3700000000000000 T T T Rh
   0.0000000000000000    0.0000000000000000    0.4700000000000000 F F F Ca
   0.5000000000000000    0.4999999999999999    0.4700000000000000 F F F Ca
   0.2461230533545091    0.1269384733227454    0.3953876946645491 T T T Si
   0.2538769466454909    0.3730615266772545    0.4446123053354509 F F F Si
   0.7461230533545091    0.6269384733227453    0.3953876946645491 T T T Si
   0.7538769466454909    0.8730615266772545    0.4446123053354509 F F F Si
   0.5000000000000000    0.2500000000000000    0.4700000000000000 F F F Rh
   0.0000000000000000    0.2499999999999999    0.4700000000000000 F F F Rh
   0.0000000000000000    0.7499999999999999    0.4700000000000000 F F F Rh
   0.4999999999999998    0.7500000000000000    0.4700000000000000 F F F Rh
   0.0000000000000000    0.0000000000000000    0.5700000000000001 T T T Ca
   0.5000000000000000    0.4999999999999999    0.5700000000000001 T T T Ca
   0.2461230533545091    0.1269384733227454    0.4953876946645491 F F F Si
   0.2538769466454909    0.3730615266772545    0.5446123053354509 F F F Si
   0.7461230533545091    0.6269384733227453    0.4953876946645491 F F F Si
   0.7538769466454909    0.8730615266772545    0.5446123053354509 F F F Si
   0.5000000000000000    0.2500000000000000    0.5700000000000001 T T T Rh
   0.0000000000000000    0.2499999999999999    0.5700000000000001 T T T Rh
   0.0000000000000000    0.7499999999999999    0.5700000000000001 T T T Rh
   0.4999999999999998    0.7500000000000000    0.5700000000000001 T T T Rh
   0.0000000000000000    0.0000000000000000    0.6699999999999999 T T T Ca
   0.5000000000000000    0.4999999999999999    0.6699999999999999 T T T Ca
   0.2461230533545091    0.1269384733227454    0.5953876946645491 T T T Si
   0.2538769466454909    0.3730615266772545    0.6446123053354509 T T T Si
   0.7461230533545091    0.6269384733227453    0.5953876946645491 T T T Si
   0.7538769466454909    0.8730615266772545    0.6446123053354509 T T T Si
   0.5000000000000000    0.2500000000000000    0.6699999999999999 T T T Rh
   0.0000000000000000    0.2499999999999999    0.6699999999999999 T T T Rh
   0.0000000000000000    0.7499999999999999    0.6699999999999999 T T T Rh
   0.4999999999999998    0.7500000000000000    0.6699999999999999 T T T Rh
