Mg9 Ga9 Au9
1.0
   3.4550663874944836    0.0000000000000000    0.0000000000000002
  -0.0000000000000004    6.4232875001579952   11.1254603018957248
   0.0000000000000000    0.0000000000000000   59.3357882767772082
Mg Ga Au Mg Ga Au Mg Ga Au
3 3 3 3 3 3 3 3 3
Selective dynamics
direct
   0.0000000000000000    0.3841078954673983    0.3206396927998172 T T T Mg
   0.0000000000000000    0.6158921045326018    0.3396801536000915 T T T Mg
   0.0000000000000000    0.0000000000000000    0.3396801536000915 T T T Mg
   0.5000000000000000    0.7192998363584557    0.3618417075770528 T T T Ga
   0.5000000000000000    0.2807001636415443    0.3815791462114737 T T T Ga
   0.5000000000000000    0.0000000000000000    0.3815791462114737 T T T Ga
   0.0000000000000000    0.0000000000000000    0.4166666666666667 T T T Au
   0.5000000000000000    0.6666666666666666    0.4166666666666667 T T T Au
   0.5000000000000000    0.3333333333333333    0.4166666666666667 T T T Au
   0.0000000000000000    0.3841078954673983    0.4456396927998172 F F F Mg
   0.0000000000000000    0.6158921045326018    0.4646801536000915 F F F Mg
   0.0000000000000000    0.0000000000000000    0.4646801536000915 F F F Mg
   0.5000000000000000    0.7192998363584557    0.4868417075770528 F F F Ga
   0.5000000000000000    0.2807001636415443    0.5065791462114737 F F F Ga
   0.5000000000000000    0.0000000000000000    0.5065791462114737 F F F Ga
   0.0000000000000000    0.0000000000000000    0.5416666666666667 F F F Au
   0.5000000000000000    0.6666666666666666    0.5416666666666667 F F F Au
   0.5000000000000000    0.3333333333333333    0.5416666666666667 F F F Au
   0.0000000000000000    0.3841078954673983    0.5706396927998172 T T T Mg
   0.0000000000000000    0.6158921045326018    0.5896801536000915 T T T Mg
   0.0000000000000000    0.0000000000000000    0.5896801536000915 T T T Mg
   0.5000000000000000    0.7192998363584557    0.6118417075770528 T T T Ga
   0.5000000000000000    0.2807001636415443    0.6315791462114737 T T T Ga
   0.5000000000000000    0.0000000000000000    0.6315791462114737 T T T Ga
   0.0000000000000000    0.0000000000000000    0.6666666666666667 T T T Au
   0.5000000000000000    0.6666666666666666    0.6666666666666667 T T T Au
   0.5000000000000000    0.3333333333333333    0.6666666666666667 T T T Au
