Mg12 Ga12 Au12
1.0
  12.8465750003159851    0.0000000000000000    0.0000000000000008
   6.4232875001579917    3.7084867672985782    3.4550663874944822
   0.0000000000000000    0.0000000000000000   34.5506638749448385
Mg Ga Au Mg Ga Au Mg Ga Au Mg Ga Au
3 3 3 3 3 3 3 3 3 3 3 3
Selective dynamics
direct
   0.3841078954673983    0.2317842090652035    0.3768215790934797 T T T Mg
   0.0000000000000000    0.3841078954673982    0.3615892104532602 T T T Mg
   0.6158921045326018    0.3841078954673982    0.3615892104532602 T T T Mg
   0.7192998363584557    0.5614003272830885    0.2938599672716912 T T T Ga
   0.0000000000000000    0.7192998363584557    0.3780700163641544 T T T Ga
   0.2807001636415443    0.7192998363584557    0.3780700163641544 T T T Ga
   0.0000000000000000    0.0000000000000000    0.3000000000000000 T T T Au
   0.3333333333333333    0.0000000000000001    0.3500000000000000 T T T Au
   0.6666666666666666    0.0000000000000001    0.3500000000000000 T T T Au
   0.3841078954673983    0.2317842090652035    0.4768215790934797 F F F Mg
   0.0000000000000000    0.3841078954673982    0.4615892104532602 F F F Mg
   0.6158921045326018    0.3841078954673982    0.4615892104532602 F F F Mg
   0.7192998363584557    0.5614003272830885    0.3938599672716911 T T T Ga
   0.0000000000000000    0.7192998363584557    0.4780700163641544 F F F Ga
   0.2807001636415443    0.7192998363584557    0.4780700163641544 F F F Ga
   0.0000000000000000    0.0000000000000000    0.4000000000000000 T T T Au
   0.3333333333333333    0.0000000000000001    0.4500000000000000 F F F Au
   0.6666666666666666    0.0000000000000001    0.4500000000000000 F F F Au
   0.3841078954673983    0.2317842090652035    0.5768215790934796 T T T Mg
   0.0000000000000000    0.3841078954673982    0.5615892104532602 T T T Mg
   0.6158921045326018    0.3841078954673982    0.5615892104532602 T T T Mg
   0.7192998363584557    0.5614003272830885    0.4938599672716911 F F F Ga
   0.0000000000000000    0.7192998363584557    0.5780700163641544 T T T Ga
   0.2807001636415443    0.7192998363584557    0.5780700163641544 T T T Ga
   0.0000000000000000    0.0000000000000000    0.5000000000000000 F F F Au
   0.3333333333333333    0.0000000000000001    0.5500000000000000 F F F Au
   0.6666666666666666    0.0000000000000001    0.5500000000000000 F F F Au
   0.3841078954673983    0.2317842090652035    0.6768215790934796 T T T Mg
   0.0000000000000000    0.3841078954673982    0.6615892104532601 T T T Mg
   0.6158921045326018    0.3841078954673982    0.6615892104532601 T T T Mg
   0.7192998363584557    0.5614003272830885    0.5938599672716911 T T T Ga
   0.0000000000000000    0.7192998363584557    0.6780700163641544 T T T Ga
   0.2807001636415443    0.7192998363584557    0.6780700163641544 T T T Ga
   0.0000000000000000    0.0000000000000000    0.6000000000000000 T T T Au
   0.3333333333333333    0.0000000000000001    0.6500000000000000 T T T Au
   0.6666666666666666    0.0000000000000001    0.6500000000000000 T T T Au
