Zr60 Co10 Sn20
1.0
  21.1450480706502653    0.0000000000000000    0.0000000000000013
   6.0414423059000759    5.2320425124075030    7.0004861610380118
   0.0000000000000000    0.0000000000000000   45.5031600467470696
Zr Co Sn Zr Co Sn Zr Co Sn Zr Co Sn Zr Co Sn
12 2 4 12 2 4 12 2 4 12 2 4 12 2 4
Selective dynamics
direct
   0.4999999999999999    0.2590405911424014    0.3746775158926220 T T T Zr
   0.0000000000000000    0.7590405911424014    0.3746775158926220 T T T Zr
   0.6204797044287993    0.3795202955712007    0.3561421767497298 T T T Zr
   0.1204797044287993    0.8795202955712007    0.3561421767497298 T T T Zr
   0.8795202955712006    0.3614391132863979    0.3589238971012379 T T T Zr
   0.3795202955712006    0.8614391132863979    0.3589238971012379 T T T Zr
   0.4999999999999999    0.8962470807292036    0.3151072867254217 T T T Zr
   0.0000000000000000    0.3962470807292036    0.3151072867254217 T T T Zr
   0.8018764596353982    0.1981235403646018    0.3455878313968989 T T T Zr
   0.3018764596353982    0.6981235403646018    0.3455878313968989 T T T Zr
   0.6981235403646018    0.9056293789061947    0.3136638562366538 T T T Zr
   0.1981235403646018    0.4056293789061947    0.3136638562366538 T T T Zr
   0.5000000000000000    0.5000000000000000    0.3760683760683761 T T T Co
   0.0000000000000000    0.0000000000000000    0.3760683760683761 T T T Co
   0.8333333333333333    0.8333333333333333    0.3632478632478632 T T T Sn
   0.3333333333333333    0.3333333333333334    0.3632478632478632 T T T Sn
   0.6666666666666666    0.6666666666666666    0.3119658119658119 T T T Sn
   0.1666666666666667    0.1666666666666666    0.3119658119658119 T T T Sn
   0.4999999999999999    0.2590405911424014    0.4516005928156989 F F F Zr
   0.0000000000000000    0.7590405911424014    0.4516005928156989 F F F Zr
   0.6204797044287993    0.3795202955712007    0.4330652536728067 F F F Zr
   0.1204797044287993    0.8795202955712007    0.4330652536728067 F F F Zr
   0.8795202955712006    0.3614391132863979    0.4358469740243148 F F F Zr
   0.3795202955712006    0.8614391132863979    0.4358469740243148 F F F Zr
   0.4999999999999999    0.8962470807292036    0.3920303636484986 T T T Zr
   0.0000000000000000    0.3962470807292036    0.3920303636484986 T T T Zr
   0.8018764596353982    0.1981235403646018    0.4225109083199757 F F F Zr
   0.3018764596353982    0.6981235403646018    0.4225109083199758 F F F Zr
   0.6981235403646018    0.9056293789061947    0.3905869331597307 T T T Zr
   0.1981235403646018    0.4056293789061947    0.3905869331597307 T T T Zr
   0.5000000000000000    0.5000000000000000    0.4529914529914529 F F F Co
   0.0000000000000000    0.0000000000000000    0.4529914529914529 F F F Co
   0.8333333333333333    0.8333333333333333    0.4401709401709402 F F F Sn
   0.3333333333333333    0.3333333333333334    0.4401709401709402 F F F Sn
   0.6666666666666666    0.6666666666666666    0.3888888888888888 T T T Sn
   0.1666666666666667    0.1666666666666666    0.3888888888888888 T T T Sn
   0.4999999999999999    0.2590405911424014    0.5285236697387758 F F F Zr
   0.0000000000000000    0.7590405911424014    0.5285236697387758 F F F Zr
   0.6204797044287993    0.3795202955712007    0.5099883305958837 F F F Zr
   0.1204797044287993    0.8795202955712007    0.5099883305958837 F F F Zr
   0.8795202955712006    0.3614391132863979    0.5127700509473918 F F F Zr
   0.3795202955712006    0.8614391132863979    0.5127700509473918 F F F Zr
   0.4999999999999999    0.8962470807292036    0.4689534405715755 F F F Zr
   0.0000000000000000    0.3962470807292036    0.4689534405715755 F F F Zr
   0.8018764596353982    0.1981235403646018    0.4994339852430527 F F F Zr
   0.3018764596353982    0.6981235403646018    0.4994339852430527 F F F Zr
   0.6981235403646018    0.9056293789061947    0.4675100100828077 F F F Zr
   0.1981235403646018    0.4056293789061947    0.4675100100828077 F F F Zr
   0.5000000000000000    0.5000000000000000    0.5299145299145299 F F F Co
   0.0000000000000000    0.0000000000000000    0.5299145299145299 F F F Co
   0.8333333333333333    0.8333333333333333    0.5170940170940170 F F F Sn
   0.3333333333333333    0.3333333333333334    0.5170940170940170 F F F Sn
   0.6666666666666666    0.6666666666666666    0.4658119658119658 F F F Sn
   0.1666666666666667    0.1666666666666666    0.4658119658119658 F F F Sn
   0.4999999999999999    0.2590405911424014    0.6054467466618527 T T T Zr
   0.0000000000000000    0.7590405911424014    0.6054467466618527 T T T Zr
   0.6204797044287993    0.3795202955712007    0.5869114075189605 T T T Zr
   0.1204797044287993    0.8795202955712007    0.5869114075189605 T T T Zr
   0.8795202955712006    0.3614391132863979    0.5896931278704687 T T T Zr
   0.3795202955712006    0.8614391132863979    0.5896931278704687 T T T Zr
   0.4999999999999999    0.8962470807292036    0.5458765174946525 F F F Zr
   0.0000000000000000    0.3962470807292036    0.5458765174946525 F F F Zr
   0.8018764596353982    0.1981235403646018    0.5763570621661296 T T T Zr
   0.3018764596353982    0.6981235403646018    0.5763570621661296 T T T Zr
   0.6981235403646018    0.9056293789061947    0.5444330870058846 F F F Zr
   0.1981235403646018    0.4056293789061947    0.5444330870058846 F F F Zr
   0.5000000000000000    0.5000000000000000    0.6068376068376069 T T T Co
   0.0000000000000000    0.0000000000000000    0.6068376068376069 T T T Co
   0.8333333333333333    0.8333333333333333    0.5940170940170940 T T T Sn
   0.3333333333333333    0.3333333333333334    0.5940170940170940 T T T Sn
   0.6666666666666666    0.6666666666666666    0.5427350427350427 F F F Sn
   0.1666666666666667    0.1666666666666666    0.5427350427350427 F F F Sn
   0.4999999999999999    0.2590405911424014    0.6823698235849296 T T T Zr
   0.0000000000000000    0.7590405911424014    0.6823698235849297 T T T Zr
   0.6204797044287993    0.3795202955712007    0.6638344844420374 T T T Zr
   0.1204797044287993    0.8795202955712007    0.6638344844420374 T T T Zr
   0.8795202955712006    0.3614391132863979    0.6666162047935456 T T T Zr
   0.3795202955712006    0.8614391132863979    0.6666162047935456 T T T Zr
   0.4999999999999999    0.8962470807292036    0.6227995944177294 T T T Zr
   0.0000000000000000    0.3962470807292036    0.6227995944177294 T T T Zr
   0.8018764596353982    0.1981235403646018    0.6532801390892066 T T T Zr
   0.3018764596353982    0.6981235403646018    0.6532801390892066 T T T Zr
   0.6981235403646018    0.9056293789061947    0.6213561639289615 T T T Zr
   0.1981235403646018    0.4056293789061947    0.6213561639289615 T T T Zr
   0.5000000000000000    0.5000000000000000    0.6837606837606838 T T T Co
   0.0000000000000000    0.0000000000000000    0.6837606837606838 T T T Co
   0.8333333333333333    0.8333333333333333    0.6709401709401710 T T T Sn
   0.3333333333333333    0.3333333333333334    0.6709401709401710 T T T Sn
   0.6666666666666666    0.6666666666666666    0.6196581196581197 T T T Sn
   0.1666666666666667    0.1666666666666666    0.6196581196581197 T T T Sn
