Zr48 Co8 Te16
1.0
  13.4933799029672503    0.0000000000000000    0.0000000000000008
   0.0000000000000013    7.7904065192560292   -3.6354653972650097
   0.0000000000000000    0.0000000000000000   32.7191885753850968
Zr Co Te Zr Co Te Zr Co Te Zr Co Te
12 2 4 12 2 4 12 2 4 12 2 4
Selective dynamics
direct
   0.3808535473527144    0.3808535473527144    0.2861442213107954 T T T Zr
   0.8808535473527144    0.8808535473527144    0.3416997768663509 T T T Zr
   0.5000000000000000    0.7382929052945713    0.3258597055265573 T T T Zr
   0.0000000000000000    0.2382929052945711    0.3814152610821128 T T T Zr
   0.1191464526472856    0.8808535473527145    0.3416997768663510 T T T Zr
   0.6191464526472856    0.3808535473527144    0.2861442213107954 T T T Zr
   0.2024258868310334    0.2024258868310334    0.3218744812528309 T T T Zr
   0.7024258868310334    0.7024258868310334    0.3774300368083864 T T T Zr
   0.5000000000000000    0.0951482263379333    0.3099547411980419 T T T Zr
   0.0000000000000000    0.5951482263379333    0.3655102967535975 T T T Zr
   0.2975741131689667    0.7024258868310335    0.3774300368083864 T T T Zr
   0.7975741131689666    0.2024258868310334    0.3218744812528309 T T T Zr
   0.5000000000000000    0.5000000000000000    0.3549382716049382 T T T Co
   0.0000000000000000    0.0000000000000000    0.2993827160493827 T T T Co
   0.3333333333333333    0.0000000000000000    0.3549382716049382 T T T Te
   0.8333333333333333    0.5000000000000000    0.2993827160493827 T T T Te
   0.1666666666666667    0.5000000000000000    0.2993827160493827 T T T Te
   0.6666666666666667    0.0000000000000000    0.3549382716049382 T T T Te
   0.3808535473527144    0.3808535473527144    0.3972553324219065 F F F Zr
   0.8808535473527144    0.8808535473527144    0.4528108879774621 F F F Zr
   0.5000000000000000    0.7382929052945713    0.4369708166376684 F F F Zr
   0.0000000000000000    0.2382929052945711    0.4925263721932239 F F F Zr
   0.1191464526472856    0.8808535473527145    0.4528108879774621 F F F Zr
   0.6191464526472856    0.3808535473527144    0.3972553324219065 F F F Zr
   0.2024258868310334    0.2024258868310334    0.4329855923639420 F F F Zr
   0.7024258868310334    0.7024258868310334    0.4885411479194975 F F F Zr
   0.5000000000000000    0.0951482263379333    0.4210658523091531 F F F Zr
   0.0000000000000000    0.5951482263379333    0.4766214078647086 F F F Zr
   0.2975741131689667    0.7024258868310335    0.4885411479194975 F F F Zr
   0.7975741131689666    0.2024258868310334    0.4329855923639420 F F F Zr
   0.5000000000000000    0.5000000000000000    0.4660493827160493 F F F Co
   0.0000000000000000    0.0000000000000000    0.4104938271604938 F F F Co
   0.3333333333333333    0.0000000000000000    0.4660493827160493 F F F Te
   0.8333333333333333    0.5000000000000000    0.4104938271604938 F F F Te
   0.1666666666666667    0.5000000000000000    0.4104938271604938 F F F Te
   0.6666666666666667    0.0000000000000000    0.4660493827160493 F F F Te
   0.3808535473527144    0.3808535473527144    0.5083664435330176 F F F Zr
   0.8808535473527144    0.8808535473527144    0.5639219990885731 F F F Zr
   0.5000000000000000    0.7382929052945713    0.5480819277487795 F F F Zr
   0.0000000000000000    0.2382929052945711    0.6036374833043350 F F F Zr
   0.1191464526472856    0.8808535473527145    0.5639219990885732 F F F Zr
   0.6191464526472856    0.3808535473527144    0.5083664435330176 F F F Zr
   0.2024258868310334    0.2024258868310334    0.5440967034750530 F F F Zr
   0.7024258868310334    0.7024258868310334    0.5996522590306086 F F F Zr
   0.5000000000000000    0.0951482263379333    0.5321769634202642 F F F Zr
   0.0000000000000000    0.5951482263379333    0.5877325189758198 F F F Zr
   0.2975741131689667    0.7024258868310335    0.5996522590306086 F F F Zr
   0.7975741131689666    0.2024258868310334    0.5440967034750530 F F F Zr
   0.5000000000000000    0.5000000000000000    0.5771604938271604 F F F Co
   0.0000000000000000    0.0000000000000000    0.5216049382716049 F F F Co
   0.3333333333333333    0.0000000000000000    0.5771604938271604 F F F Te
   0.8333333333333333    0.5000000000000000    0.5216049382716049 F F F Te
   0.1666666666666667    0.5000000000000000    0.5216049382716049 F F F Te
   0.6666666666666667    0.0000000000000000    0.5771604938271604 F F F Te
   0.3808535473527144    0.3808535473527144    0.6194775546441287 T T T Zr
   0.8808535473527144    0.8808535473527144    0.6750331101996843 T T T Zr
   0.5000000000000000    0.7382929052945713    0.6591930388598906 T T T Zr
   0.0000000000000000    0.2382929052945711    0.7147485944154461 T T T Zr
   0.1191464526472856    0.8808535473527145    0.6750331101996843 T T T Zr
   0.6191464526472856    0.3808535473527144    0.6194775546441287 T T T Zr
   0.2024258868310334    0.2024258868310334    0.6552078145861642 T T T Zr
   0.7024258868310334    0.7024258868310334    0.7107633701417198 T T T Zr
   0.5000000000000000    0.0951482263379333    0.6432880745313753 T T T Zr
   0.0000000000000000    0.5951482263379333    0.6988436300869308 T T T Zr
   0.2975741131689667    0.7024258868310335    0.7107633701417198 T T T Zr
   0.7975741131689666    0.2024258868310334    0.6552078145861642 T T T Zr
   0.5000000000000000    0.5000000000000000    0.6882716049382716 T T T Co
   0.0000000000000000    0.0000000000000000    0.6327160493827160 T T T Co
   0.3333333333333333    0.0000000000000000    0.6882716049382716 T T T Te
   0.8333333333333333    0.5000000000000000    0.6327160493827160 T T T Te
   0.1666666666666667    0.5000000000000000    0.6327160493827160 T T T Te
   0.6666666666666667    0.0000000000000000    0.6882716049382716 T T T Te
