Sr8 Zn16 Sn16
1.0
   4.7222300737173342    0.0000000000000000    4.6543101780800473
   9.6155009101538749   11.4361622119684032    0.0000000000000009
   0.0000000000000000    0.0000000000000000   46.5431017808004697
Sr Zn Sn Sr Zn Sn Sr Zn Sn Sr Zn Sn
2 4 4 2 4 4 2 4 4 2 4 4
Selective dynamics
direct
   0.7747463510175467    0.2438635203062553    0.3375253648982454 T T T Sr
   0.2252536489824535    0.7561364796937445    0.3424746351017547 T T T Sr
   0.9768818229249896    0.6383460974459888    0.3173118177075011 T T T Zn
   0.0231181770750104    0.3616539025540110    0.3626881822924990 T T T Zn
   0.7191141048876060    0.9995355784795678    0.3430885895112394 T T T Zn
   0.2808858951123940    0.0004644215204321    0.3369114104887606 T T T Zn
   0.4785817051799670    0.8697108760531908    0.3671418294820033 T T T Sn
   0.5214182948200332    0.1302891239468091    0.4128581705179967 T T T Sn
   0.7539183369354912    0.5007250334605317    0.3396081663064509 T T T Sn
   0.2460816630645091    0.4992749665394681    0.3403918336935491 T T T Sn
   0.7747463510175467    0.2438635203062553    0.4375253648982453 F F F Sr
   0.2252536489824535    0.7561364796937445    0.4424746351017547 F F F Sr
   0.9768818229249896    0.6383460974459888    0.4173118177075010 T T T Zn
   0.0231181770750104    0.3616539025540110    0.4626881822924990 F F F Zn
   0.7191141048876060    0.9995355784795678    0.4430885895112394 F F F Zn
   0.2808858951123940    0.0004644215204321    0.4369114104887606 F F F Zn
   0.4785817051799670    0.8697108760531908    0.4671418294820033 F F F Sn
   0.5214182948200332    0.1302891239468091    0.5128581705179966 F F F Sn
   0.7539183369354912    0.5007250334605317    0.4396081663064509 F F F Sn
   0.2460816630645091    0.4992749665394681    0.4403918336935491 F F F Sn
   0.7747463510175467    0.2438635203062553    0.5375253648982453 F F F Sr
   0.2252536489824535    0.7561364796937445    0.5424746351017546 F F F Sr
   0.9768818229249896    0.6383460974459888    0.5173118177075011 F F F Zn
   0.0231181770750104    0.3616539025540110    0.5626881822924990 F F F Zn
   0.7191141048876060    0.9995355784795678    0.5430885895112394 F F F Zn
   0.2808858951123940    0.0004644215204321    0.5369114104887606 F F F Zn
   0.4785817051799670    0.8697108760531908    0.5671418294820033 F F F Sn
   0.5214182948200332    0.1302891239468091    0.6128581705179967 T T T Sn
   0.7539183369354912    0.5007250334605317    0.5396081663064509 F F F Sn
   0.2460816630645091    0.4992749665394681    0.5403918336935492 F F F Sn
   0.7747463510175467    0.2438635203062553    0.6375253648982453 T T T Sr
   0.2252536489824535    0.7561364796937445    0.6424746351017547 T T T Sr
   0.9768818229249896    0.6383460974459888    0.6173118177075010 T T T Zn
   0.0231181770750104    0.3616539025540110    0.6626881822924990 T T T Zn
   0.7191141048876060    0.9995355784795678    0.6430885895112395 T T T Zn
   0.2808858951123940    0.0004644215204321    0.6369114104887605 T T T Zn
   0.4785817051799670    0.8697108760531908    0.6671418294820033 T T T Sn
   0.5214182948200332    0.1302891239468091    0.7128581705179966 T T T Sn
   0.7539183369354912    0.5007250334605317    0.6396081663064509 T T T Sn
   0.2460816630645091    0.4992749665394681    0.6403918336935490 T T T Sn
