Ta20 As16
1.0
   3.4464305136752982    0.0000000000000000    0.0000000000000002
   0.0000000000000016    9.9002476389626430   -9.9002476389626413
   0.0000000000000000    0.0000000000000000   49.5012381948132116
Ta As Ta As
10 8 10 8
Selective dynamics
direct
   0.0000000000000000    0.3686103615163958    0.3014707253337665 T T T Ta
   0.5000000000000000    0.8057011792920079    0.4237511970505697 F F F Ta
   0.5000000000000000    0.1942988207079921    0.3540265807272082 T T T Ta
   0.0000000000000000    0.6313896384836042    0.4763070524440114 F F F Ta
   0.0000000000000000    0.0000000000000000    0.4888888888888889 F F F Ta
   0.5000000000000000    0.8686103615163958    0.3014707253337665 T T T Ta
   0.0000000000000000    0.3057011792920079    0.4237511970505697 F F F Ta
   0.0000000000000000    0.6942988207079921    0.3540265807272082 T T T Ta
   0.5000000000000000    0.1313896384836042    0.4763070524440114 F F F Ta
   0.5000000000000000    0.5000000000000000    0.4888888888888889 F F F Ta
   0.0000000000000000    0.2845914646952750    0.3353721143631834 T T T As
   0.5000000000000000    0.5521753373238028    0.3562422492927045 T T T As
   0.5000000000000000    0.4478246626761972    0.4215355284850734 F F F As
   0.0000000000000000    0.7154085353047250    0.4424056634145945 F F F As
   0.5000000000000000    0.7845914646952750    0.3353721143631834 T T T As
   0.0000000000000000    0.0521753373238028    0.3562422492927045 T T T As
   0.0000000000000000    0.9478246626761972    0.4215355284850734 F F F As
   0.5000000000000000    0.2154085353047250    0.4424056634145945 F F F As
   0.0000000000000000    0.3686103615163958    0.5014707253337666 F F F Ta
   0.5000000000000000    0.8057011792920079    0.6237511970505697 T T T Ta
   0.5000000000000000    0.1942988207079921    0.5540265807272082 F F F Ta
   0.0000000000000000    0.6313896384836042    0.6763070524440113 T T T Ta
   0.0000000000000000    0.0000000000000000    0.6888888888888890 T T T Ta
   0.5000000000000000    0.8686103615163958    0.5014707253337666 F F F Ta
   0.0000000000000000    0.3057011792920079    0.6237511970505697 T T T Ta
   0.0000000000000000    0.6942988207079921    0.5540265807272082 F F F Ta
   0.5000000000000000    0.1313896384836042    0.6763070524440113 T T T Ta
   0.5000000000000000    0.5000000000000000    0.6888888888888890 T T T Ta
   0.0000000000000000    0.2845914646952750    0.5353721143631834 F F F As
   0.5000000000000000    0.5521753373238028    0.5562422492927045 F F F As
   0.5000000000000000    0.4478246626761972    0.6215355284850734 T T T As
   0.0000000000000000    0.7154085353047250    0.6424056634145945 T T T As
   0.5000000000000000    0.7845914646952750    0.5353721143631834 F F F As
   0.0000000000000000    0.0521753373238028    0.5562422492927045 F F F As
   0.0000000000000000    0.9478246626761972    0.6215355284850734 T T T As
   0.5000000000000000    0.2154085353047250    0.6424056634145945 T T T As
