Mn24 Fe48 Si24
1.0
   5.5834994620812735    0.0000000000000000    0.0000000000000003
   0.0000000000000018   11.1669989241625451   -5.5834994620812726
   0.0000000000000000    0.0000000000000000   39.0844962345689169
Mn Fe Si Mn Fe Si Mn Fe Si
8 16 8 8 16 8 8 16 8
Selective dynamics
direct
   0.0000000000000000    0.5000000000000000    0.3482142857142857 T T T Mn
   0.0000000000000000    0.0000000000000000    0.4196428571428571 F F F Mn
   0.5000000000000000    0.2500000000000000    0.3125000000000000 T T T Mn
   0.5000000000000000    0.7500000000000000    0.3839285714285714 F F F Mn
   0.5000000000000000    0.5000000000000000    0.4196428571428571 F F F Mn
   0.5000000000000000    0.0000000000000000    0.3482142857142857 T T T Mn
   0.0000000000000000    0.2500000000000000    0.3839285714285714 F F F Mn
   0.0000000000000000    0.7500000000000000    0.3125000000000000 T T T Mn
   0.2499999999999999    0.1250000000000000    0.4017857142857143 F F F Fe
   0.2499999999999999    0.6250000000000000    0.3303571428571428 T T T Fe
   0.2500000000000000    0.3750000000000000    0.2946428571428572 T T T Fe
   0.2500000000000000    0.8750000000000000    0.3660714285714285 T T T Fe
   0.7500000000000000    0.3750000000000000    0.2946428571428572 T T T Fe
   0.7500000000000000    0.8750000000000000    0.3660714285714285 T T T Fe
   0.7500000000000000    0.1250000000000000    0.4017857142857143 F F F Fe
   0.7500000000000000    0.6250000000000000    0.3303571428571428 T T T Fe
   0.7500000000000000    0.1250000000000000    0.3303571428571428 T T T Fe
   0.7500000000000000    0.6250000000000000    0.4017857142857143 F F F Fe
   0.7500000000000000    0.3750000000000000    0.3660714285714286 T T T Fe
   0.7500000000000000    0.8750000000000000    0.2946428571428572 T T T Fe
   0.2499999999999999    0.3750000000000000    0.3660714285714286 T T T Fe
   0.2499999999999999    0.8750000000000000    0.2946428571428572 T T T Fe
   0.2499999999999999    0.1250000000000000    0.3303571428571428 T T T Fe
   0.2500000000000000    0.6250000000000000    0.4017857142857143 F F F Fe
   0.0000000000000000    0.5000000000000000    0.4196428571428571 F F F Si
   0.0000000000000000    0.0000000000000000    0.3482142857142857 T T T Si
   0.5000000000000000    0.2500000000000000    0.3839285714285714 F F F Si
   0.5000000000000000    0.7500000000000000    0.3125000000000000 T T T Si
   0.5000000000000000    0.5000000000000000    0.3482142857142857 T T T Si
   0.5000000000000000    0.0000000000000000    0.4196428571428571 F F F Si
   0.0000000000000000    0.2500000000000000    0.3125000000000000 T T T Si
   0.0000000000000000    0.7500000000000000    0.3839285714285714 F F F Si
   0.0000000000000000    0.5000000000000000    0.4910714285714285 F F F Mn
   0.0000000000000000    0.0000000000000000    0.5625000000000000 F F F Mn
   0.5000000000000000    0.2500000000000000    0.4553571428571428 F F F Mn
   0.5000000000000000    0.7500000000000000    0.5267857142857142 F F F Mn
   0.5000000000000000    0.5000000000000000    0.5625000000000000 F F F Mn
   0.5000000000000000    0.0000000000000000    0.4910714285714285 F F F Mn
   0.0000000000000000    0.2500000000000000    0.5267857142857142 F F F Mn
   0.0000000000000000    0.7500000000000000    0.4553571428571428 F F F Mn
   0.2499999999999999    0.1250000000000000    0.5446428571428571 F F F Fe
   0.2499999999999999    0.6250000000000000    0.4732142857142857 F F F Fe
   0.2500000000000000    0.3750000000000000    0.4375000000000000 F F F Fe
   0.2500000000000000    0.8750000000000000    0.5089285714285714 F F F Fe
   0.7500000000000000    0.3750000000000000    0.4375000000000000 F F F Fe
   0.7500000000000000    0.8750000000000000    0.5089285714285714 F F F Fe
   0.7500000000000000    0.1250000000000000    0.5446428571428571 F F F Fe
   0.7500000000000000    0.6250000000000000    0.4732142857142857 F F F Fe
   0.7500000000000000    0.1250000000000000    0.4732142857142857 F F F Fe
   0.7500000000000000    0.6250000000000000    0.5446428571428571 F F F Fe
   0.7500000000000000    0.3750000000000000    0.5089285714285714 F F F Fe
   0.7500000000000000    0.8750000000000000    0.4375000000000000 F F F Fe
   0.2499999999999999    0.3750000000000000    0.5089285714285714 F F F Fe
   0.2499999999999999    0.8750000000000000    0.4375000000000000 F F F Fe
   0.2499999999999999    0.1250000000000000    0.4732142857142857 F F F Fe
   0.2500000000000000    0.6250000000000000    0.5446428571428571 F F F Fe
   0.0000000000000000    0.5000000000000000    0.5625000000000000 F F F Si
   0.0000000000000000    0.0000000000000000    0.4910714285714285 F F F Si
   0.5000000000000000    0.2500000000000000    0.5267857142857142 F F F Si
   0.5000000000000000    0.7500000000000000    0.4553571428571428 F F F Si
   0.5000000000000000    0.5000000000000000    0.4910714285714285 F F F Si
   0.5000000000000000    0.0000000000000000    0.5625000000000000 F F F Si
   0.0000000000000000    0.2500000000000000    0.4553571428571428 F F F Si
   0.0000000000000000    0.7500000000000000    0.5267857142857142 F F F Si
   0.0000000000000000    0.5000000000000000    0.6339285714285714 T T T Mn
   0.0000000000000000    0.0000000000000000    0.7053571428571428 T T T Mn
   0.5000000000000000    0.2500000000000000    0.5982142857142857 F F F Mn
   0.5000000000000000    0.7500000000000000    0.6696428571428571 T T T Mn
   0.5000000000000000    0.5000000000000000    0.7053571428571428 T T T Mn
   0.5000000000000000    0.0000000000000000    0.6339285714285714 T T T Mn
   0.0000000000000000    0.2500000000000000    0.6696428571428571 T T T Mn
   0.0000000000000000    0.7500000000000000    0.5982142857142857 F F F Mn
   0.2499999999999999    0.1250000000000000    0.6875000000000000 T T T Fe
   0.2499999999999999    0.6250000000000000    0.6160714285714286 F F F Fe
   0.2500000000000000    0.3750000000000000    0.5803571428571428 F F F Fe
   0.2500000000000000    0.8750000000000000    0.6517857142857142 T T T Fe
   0.7500000000000000    0.3750000000000000    0.5803571428571428 F F F Fe
   0.7500000000000000    0.8750000000000000    0.6517857142857142 T T T Fe
   0.7500000000000000    0.1250000000000000    0.6875000000000000 T T T Fe
   0.7500000000000000    0.6250000000000000    0.6160714285714286 F F F Fe
   0.7500000000000000    0.1250000000000000    0.6160714285714286 F F F Fe
   0.7500000000000000    0.6250000000000000    0.6875000000000000 T T T Fe
   0.7500000000000000    0.3750000000000000    0.6517857142857143 T T T Fe
   0.7500000000000000    0.8750000000000000    0.5803571428571428 F F F Fe
   0.2499999999999999    0.3750000000000000    0.6517857142857143 T T T Fe
   0.2499999999999999    0.8750000000000000    0.5803571428571428 F F F Fe
   0.2499999999999999    0.1250000000000000    0.6160714285714286 F F F Fe
   0.2500000000000000    0.6250000000000000    0.6875000000000000 T T T Fe
   0.0000000000000000    0.5000000000000000    0.7053571428571428 T T T Si
   0.0000000000000000    0.0000000000000000    0.6339285714285714 T T T Si
   0.5000000000000000    0.2500000000000000    0.6696428571428571 T T T Si
   0.5000000000000000    0.7500000000000000    0.5982142857142857 F F F Si
   0.5000000000000000    0.5000000000000000    0.6339285714285714 T T T Si
   0.5000000000000000    0.0000000000000000    0.7053571428571428 T T T Si
   0.0000000000000000    0.2500000000000000    0.5982142857142857 F F F Si
   0.0000000000000000    0.7500000000000000    0.6696428571428571 T T T Si
