Ca16 Zn8 Ga24
1.0
   7.3834156422786315    0.0000000000000000    0.0000000000000005
   7.3518092634492520    7.7301827932906360    9.0314577633913480
   0.0000000000000000    0.0000000000000000   45.1572888169567364
Ca Zn Ga Ca Zn Ga Ca Zn Ga Ca Zn Ga
4 2 6 4 2 6 4 2 6 4 2 6
Selective dynamics
direct
   0.2073260997744445    0.0425580147486777    0.3164883973835979 T T T Ca
   0.7927878530551170    0.9561345627974503    0.3337730877738435 T T T Ca
   0.2073260997744445    0.5425580147486777    0.3664883973835980 T T T Ca
   0.7927878530551170    0.4561345627974505    0.3837730877738434 T T T Ca
   0.3932795126557410    0.1665216409855406    0.3416956721362254 T T T Zn
   0.3932795126557410    0.6665216409855406    0.3916956721362254 T T T Zn
   0.6035791038998221    0.8404919633563203    0.3069016076620694 T T T Ga
   0.2206716479264539    0.3346211926986893    0.3580757617935956 T T T Ga
   0.7823557826884215    0.6596726354133257    0.3930654732506683 T T T Ga
   0.6035791038998221    0.3404919633563202    0.3569016076620695 T T T Ga
   0.2206716479264539    0.8346211926986893    0.3080757617935956 T T T Ga
   0.7823557826884215    0.1596726354133257    0.3430654732506683 T T T Ga
   0.2073260997744445    0.0425580147486777    0.4164883973835979 F F F Ca
   0.7927878530551170    0.9561345627974503    0.4337730877738434 F F F Ca
   0.2073260997744445    0.5425580147486777    0.4664883973835979 F F F Ca
   0.7927878530551170    0.4561345627974505    0.4837730877738434 F F F Ca
   0.3932795126557410    0.1665216409855406    0.4416956721362254 F F F Zn
   0.3932795126557410    0.6665216409855406    0.4916956721362254 F F F Zn
   0.6035791038998221    0.8404919633563203    0.4069016076620695 T T T Ga
   0.2206716479264539    0.3346211926986893    0.4580757617935957 F F F Ga
   0.7823557826884215    0.6596726354133257    0.4930654732506684 F F F Ga
   0.6035791038998221    0.3404919633563202    0.4569016076620694 F F F Ga
   0.2206716479264539    0.8346211926986893    0.4080757617935956 T T T Ga
   0.7823557826884215    0.1596726354133257    0.4430654732506684 F F F Ga
   0.2073260997744445    0.0425580147486777    0.5164883973835980 F F F Ca
   0.7927878530551170    0.9561345627974503    0.5337730877738435 F F F Ca
   0.2073260997744445    0.5425580147486777    0.5664883973835979 F F F Ca
   0.7927878530551170    0.4561345627974505    0.5837730877738434 F F F Ca
   0.3932795126557410    0.1665216409855406    0.5416956721362254 F F F Zn
   0.3932795126557410    0.6665216409855406    0.5916956721362254 T T T Zn
   0.6035791038998221    0.8404919633563203    0.5069016076620694 F F F Ga
   0.2206716479264539    0.3346211926986893    0.5580757617935956 F F F Ga
   0.7823557826884215    0.6596726354133257    0.5930654732506684 T T T Ga
   0.6035791038998221    0.3404919633563202    0.5569016076620694 F F F Ga
   0.2206716479264539    0.8346211926986893    0.5080757617935956 F F F Ga
   0.7823557826884215    0.1596726354133257    0.5430654732506683 F F F Ga
   0.2073260997744445    0.0425580147486777    0.6164883973835980 T T T Ca
   0.7927878530551170    0.9561345627974503    0.6337730877738434 T T T Ca
   0.2073260997744445    0.5425580147486777    0.6664883973835980 T T T Ca
   0.7927878530551170    0.4561345627974505    0.6837730877738434 T T T Ca
   0.3932795126557410    0.1665216409855406    0.6416956721362254 T T T Zn
   0.3932795126557410    0.6665216409855406    0.6916956721362253 T T T Zn
   0.6035791038998221    0.8404919633563203    0.6069016076620695 T T T Ga
   0.2206716479264539    0.3346211926986893    0.6580757617935956 T T T Ga
   0.7823557826884215    0.6596726354133257    0.6930654732506684 T T T Ga
   0.6035791038998221    0.3404919633563202    0.6569016076620695 T T T Ga
   0.2206716479264539    0.8346211926986893    0.6080757617935957 T T T Ga
   0.7823557826884215    0.1596726354133257    0.6430654732506683 T T T Ga
