Sc24 Zn24 Pt24
1.0
   9.2715508282936572    0.0000000000000000    0.0000000000000006
   0.0000000000000017   10.5658395829242426   -4.2838719008587702
   0.0000000000000000    0.0000000000000000   29.9871033060113987
Sc Zn Pt Sc Zn Pt Sc Zn Pt
8 8 8 8 8 8 8 8 8
Selective dynamics
direct
   0.2898863231683392    0.3750000000000000    0.3333333333333333 T T T Sc
   0.2898863231683392    0.8750000000000000    0.4047619047619048 T T T Sc
   0.2101136768316608    0.1250000000000000    0.3690476190476190 T T T Sc
   0.2101136768316608    0.6250000000000001    0.2976190476190476 T T T Sc
   0.7898863231683393    0.3750000000000001    0.4047619047619048 T T T Sc
   0.7898863231683393    0.8750000000000000    0.3333333333333333 T T T Sc
   0.7101136768316607    0.1250000000000000    0.2976190476190476 T T T Sc
   0.7101136768316607    0.6250000000000000    0.3690476190476190 T T T Sc
   0.0000000000000000    0.0000000000000000    0.4226190476190476 F F F Zn
   0.0000000000000000    0.5000000000000000    0.3511904761904762 T T T Zn
   0.0000000000000000    0.2500000000000000    0.3154761904761905 T T T Zn
   0.0000000000000000    0.7500000000000001    0.3869047619047619 T T T Zn
   0.5000000000000000    0.0000000000000000    0.3511904761904762 T T T Zn
   0.5000000000000000    0.5000000000000000    0.4226190476190476 F F F Zn
   0.5000000000000000    0.2500000000000001    0.3869047619047619 T T T Zn
   0.5000000000000000    0.7500000000000000    0.3154761904761905 T T T Zn
   0.1000572204673133    0.3750000000000001    0.4047619047619048 T T T Pt
   0.1000572204673133    0.8750000000000000    0.3333333333333333 T T T Pt
   0.3999427795326867    0.1250000000000000    0.2976190476190476 T T T Pt
   0.3999427795326867    0.6250000000000000    0.3690476190476190 T T T Pt
   0.6000572204673134    0.3750000000000000    0.3333333333333333 T T T Pt
   0.6000572204673134    0.8750000000000000    0.4047619047619048 T T T Pt
   0.8999427795326866    0.1250000000000000    0.3690476190476190 T T T Pt
   0.8999427795326866    0.6250000000000000    0.2976190476190476 T T T Pt
   0.2898863231683392    0.3750000000000000    0.4761904761904762 F F F Sc
   0.2898863231683392    0.8750000000000000    0.5476190476190476 F F F Sc
   0.2101136768316608    0.1250000000000000    0.5119047619047619 F F F Sc
   0.2101136768316608    0.6250000000000001    0.4404761904761905 F F F Sc
   0.7898863231683393    0.3750000000000001    0.5476190476190477 F F F Sc
   0.7898863231683393    0.8750000000000000    0.4761904761904762 F F F Sc
   0.7101136768316607    0.1250000000000000    0.4404761904761905 F F F Sc
   0.7101136768316607    0.6250000000000000    0.5119047619047619 F F F Sc
   0.0000000000000000    0.0000000000000000    0.5654761904761905 F F F Zn
   0.0000000000000000    0.5000000000000000    0.4940476190476190 F F F Zn
   0.0000000000000000    0.2500000000000000    0.4583333333333333 F F F Zn
   0.0000000000000000    0.7500000000000001    0.5297619047619048 F F F Zn
   0.5000000000000000    0.0000000000000000    0.4940476190476190 F F F Zn
   0.5000000000000000    0.5000000000000000    0.5654761904761905 F F F Zn
   0.5000000000000000    0.2500000000000001    0.5297619047619047 F F F Zn
   0.5000000000000000    0.7500000000000000    0.4583333333333333 F F F Zn
   0.1000572204673133    0.3750000000000001    0.5476190476190476 F F F Pt
   0.1000572204673133    0.8750000000000000    0.4761904761904762 F F F Pt
   0.3999427795326867    0.1250000000000000    0.4404761904761905 F F F Pt
   0.3999427795326867    0.6250000000000000    0.5119047619047619 F F F Pt
   0.6000572204673134    0.3750000000000000    0.4761904761904762 F F F Pt
   0.6000572204673134    0.8750000000000000    0.5476190476190476 F F F Pt
   0.8999427795326866    0.1250000000000000    0.5119047619047619 F F F Pt
   0.8999427795326866    0.6250000000000000    0.4404761904761905 F F F Pt
   0.2898863231683392    0.3750000000000000    0.6190476190476191 T T T Sc
   0.2898863231683392    0.8750000000000000    0.6904761904761905 T T T Sc
   0.2101136768316608    0.1250000000000000    0.6547619047619047 T T T Sc
   0.2101136768316608    0.6250000000000001    0.5833333333333333 F F F Sc
   0.7898863231683393    0.3750000000000001    0.6904761904761905 T T T Sc
   0.7898863231683393    0.8750000000000000    0.6190476190476191 T T T Sc
   0.7101136768316607    0.1250000000000000    0.5833333333333333 F F F Sc
   0.7101136768316607    0.6250000000000000    0.6547619047619047 T T T Sc
   0.0000000000000000    0.0000000000000000    0.7083333333333333 T T T Zn
   0.0000000000000000    0.5000000000000000    0.6369047619047619 T T T Zn
   0.0000000000000000    0.2500000000000000    0.6011904761904762 T T T Zn
   0.0000000000000000    0.7500000000000001    0.6726190476190476 T T T Zn
   0.5000000000000000    0.0000000000000000    0.6369047619047619 T T T Zn
   0.5000000000000000    0.5000000000000000    0.7083333333333333 T T T Zn
   0.5000000000000000    0.2500000000000001    0.6726190476190476 T T T Zn
   0.5000000000000000    0.7500000000000000    0.6011904761904762 T T T Zn
   0.1000572204673133    0.3750000000000001    0.6904761904761905 T T T Pt
   0.1000572204673133    0.8750000000000000    0.6190476190476191 T T T Pt
   0.3999427795326867    0.1250000000000000    0.5833333333333333 F F F Pt
   0.3999427795326867    0.6250000000000000    0.6547619047619047 T T T Pt
   0.6000572204673134    0.3750000000000000    0.6190476190476191 T T T Pt
   0.6000572204673134    0.8750000000000000    0.6904761904761905 T T T Pt
   0.8999427795326866    0.1250000000000000    0.6547619047619047 T T T Pt
   0.8999427795326866    0.6250000000000000    0.5833333333333333 F F F Pt
