Ba24 As48 Rh48
1.0
   8.1861899114247088    0.0000000000000000   -4.0930949557123544
   0.0000000000000042   25.9994189061340499   -4.0930949557123535
   0.0000000000000000    0.0000000000000000   32.7447596456988350
Ba As Rh Ba As Rh Ba As Rh
8 16 16 8 16 16 8 16 16
Selective dynamics
direct
   0.5000000000000000    0.5000000000000000    0.4187500000000000 T T T Ba
   0.0000000000000000    0.0000000000000000    0.4187500000000000 T T T Ba
   0.0000000000000000    0.5000000000000000    0.3562500000000000 T T T Ba
   0.5000000000000000    0.0000000000000000    0.3562500000000000 T T T Ba
   0.7500000000000000    0.7500000000000000    0.4187500000000000 T T T Ba
   0.2500000000000000    0.2500000000000001    0.4187500000000000 T T T Ba
   0.2500000000000000    0.7500000000000001    0.3562500000000000 T T T Ba
   0.7500000000000000    0.2500000000000001    0.3562500000000000 T T T Ba
   0.5000000000000000    0.6781110572173255    0.3160138821521656 T T T As
   0.0000000000000000    0.1781110572173255    0.3160138821521656 T T T As
   0.0000000000000000    0.6781110572173256    0.3785138821521656 T T T As
   0.5000000000000000    0.1781110572173255    0.3785138821521656 T T T As
   0.7500000000000000    0.5718889427826745    0.3964861178478343 T T T As
   0.2500000000000000    0.0718889427826746    0.3964861178478343 T T T As
   0.2500000000000000    0.5718889427826747    0.3339861178478343 T T T As
   0.7500000000000000    0.0718889427826746    0.3339861178478343 T T T As
   0.7500000000000000    0.9281110572173256    0.3160138821521656 T T T As
   0.2500000000000000    0.4281110572173255    0.3160138821521656 T T T As
   0.2500000000000000    0.9281110572173257    0.3785138821521656 T T T As
   0.7500000000000000    0.4281110572173256    0.3785138821521656 T T T As
   0.5000000000000000    0.8218889427826744    0.3339861178478343 T T T As
   0.0000000000000000    0.3218889427826746    0.3339861178478343 T T T As
   0.0000000000000000    0.8218889427826745    0.3964861178478343 T T T As
   0.5000000000000000    0.3218889427826746    0.3964861178478343 T T T As
   0.7500000000000000    0.6250000000000000    0.3406250000000000 T T T Rh
   0.2500000000000000    0.1250000000000000    0.3406250000000000 T T T Rh
   0.2500000000000000    0.6250000000000001    0.4031250000000000 T T T Rh
   0.7500000000000000    0.1250000000000001    0.4031250000000000 T T T Rh
   0.5000000000000000    0.6250000000000000    0.3718750000000000 T T T Rh
   0.0000000000000000    0.1250000000000001    0.3718750000000000 T T T Rh
   0.0000000000000000    0.6250000000000001    0.4343750000000000 F F F Rh
   0.5000000000000000    0.1250000000000001    0.4343750000000000 F F F Rh
   0.5000000000000000    0.8750000000000000    0.4031250000000000 T T T Rh
   0.0000000000000000    0.3750000000000001    0.4031250000000000 T T T Rh
   0.0000000000000000    0.8750000000000001    0.3406250000000000 T T T Rh
   0.5000000000000000    0.3750000000000001    0.3406250000000000 T T T Rh
   0.7500000000000000    0.8750000000000000    0.3718750000000000 T T T Rh
   0.2500000000000000    0.3750000000000001    0.3718750000000000 T T T Rh
   0.2500000000000000    0.8750000000000001    0.4343750000000000 F F F Rh
   0.7500000000000000    0.3750000000000001    0.4343750000000000 F F F Rh
   0.5000000000000000    0.5000000000000000    0.5437500000000000 F F F Ba
   0.0000000000000000    0.0000000000000000    0.5437500000000000 F F F Ba
   0.0000000000000000    0.5000000000000000    0.4812500000000000 F F F Ba
   0.5000000000000000    0.0000000000000000    0.4812500000000000 F F F Ba
   0.7500000000000000    0.7500000000000000    0.5437500000000000 F F F Ba
   0.2500000000000000    0.2500000000000001    0.5437500000000000 F F F Ba
   0.2500000000000000    0.7500000000000001    0.4812500000000000 F F F Ba
   0.7500000000000000    0.2500000000000001    0.4812500000000000 F F F Ba
   0.5000000000000000    0.6781110572173255    0.4410138821521656 F F F As
   0.0000000000000000    0.1781110572173255    0.4410138821521656 F F F As
   0.0000000000000000    0.6781110572173256    0.5035138821521656 F F F As
   0.5000000000000000    0.1781110572173255    0.5035138821521656 F F F As
   0.7500000000000000    0.5718889427826745    0.5214861178478343 F F F As
   0.2500000000000000    0.0718889427826746    0.5214861178478343 F F F As
   0.2500000000000000    0.5718889427826747    0.4589861178478343 F F F As
   0.7500000000000000    0.0718889427826746    0.4589861178478343 F F F As
   0.7500000000000000    0.9281110572173256    0.4410138821521656 F F F As
   0.2500000000000000    0.4281110572173255    0.4410138821521656 F F F As
   0.2500000000000000    0.9281110572173257    0.5035138821521656 F F F As
   0.7500000000000000    0.4281110572173256    0.5035138821521656 F F F As
   0.5000000000000000    0.8218889427826744    0.4589861178478343 F F F As
   0.0000000000000000    0.3218889427826746    0.4589861178478343 F F F As
   0.0000000000000000    0.8218889427826745    0.5214861178478343 F F F As
   0.5000000000000000    0.3218889427826746    0.5214861178478343 F F F As
   0.7500000000000000    0.6250000000000000    0.4656250000000000 F F F Rh
   0.2500000000000000    0.1250000000000000    0.4656250000000000 F F F Rh
   0.2500000000000000    0.6250000000000001    0.5281250000000000 F F F Rh
   0.7500000000000000    0.1250000000000001    0.5281250000000000 F F F Rh
   0.5000000000000000    0.6250000000000000    0.4968750000000000 F F F Rh
   0.0000000000000000    0.1250000000000001    0.4968750000000000 F F F Rh
   0.0000000000000000    0.6250000000000001    0.5593750000000000 F F F Rh
   0.5000000000000000    0.1250000000000001    0.5593750000000000 F F F Rh
   0.5000000000000000    0.8750000000000000    0.5281250000000000 F F F Rh
   0.0000000000000000    0.3750000000000001    0.5281250000000000 F F F Rh
   0.0000000000000000    0.8750000000000001    0.4656250000000000 F F F Rh
   0.5000000000000000    0.3750000000000001    0.4656250000000000 F F F Rh
   0.7500000000000000    0.8750000000000000    0.4968750000000000 F F F Rh
   0.2500000000000000    0.3750000000000001    0.4968750000000000 F F F Rh
   0.2500000000000000    0.8750000000000001    0.5593750000000000 F F F Rh
   0.7500000000000000    0.3750000000000001    0.5593750000000000 F F F Rh
   0.5000000000000000    0.5000000000000000    0.6687500000000000 T T T Ba
   0.0000000000000000    0.0000000000000000    0.6687500000000000 T T T Ba
   0.0000000000000000    0.5000000000000000    0.6062500000000000 T T T Ba
   0.5000000000000000    0.0000000000000000    0.6062500000000000 T T T Ba
   0.7500000000000000    0.7500000000000000    0.6687500000000000 T T T Ba
   0.2500000000000000    0.2500000000000001    0.6687500000000000 T T T Ba
   0.2500000000000000    0.7500000000000001    0.6062500000000000 T T T Ba
   0.7500000000000000    0.2500000000000001    0.6062500000000000 T T T Ba
   0.5000000000000000    0.6781110572173255    0.5660138821521656 F F F As
   0.0000000000000000    0.1781110572173255    0.5660138821521656 F F F As
   0.0000000000000000    0.6781110572173256    0.6285138821521656 T T T As
   0.5000000000000000    0.1781110572173255    0.6285138821521656 T T T As
   0.7500000000000000    0.5718889427826745    0.6464861178478343 T T T As
   0.2500000000000000    0.0718889427826746    0.6464861178478343 T T T As
   0.2500000000000000    0.5718889427826747    0.5839861178478343 T T T As
   0.7500000000000000    0.0718889427826746    0.5839861178478343 T T T As
   0.7500000000000000    0.9281110572173256    0.5660138821521656 F F F As
   0.2500000000000000    0.4281110572173255    0.5660138821521656 F F F As
   0.2500000000000000    0.9281110572173257    0.6285138821521656 T T T As
   0.7500000000000000    0.4281110572173256    0.6285138821521656 T T T As
   0.5000000000000000    0.8218889427826744    0.5839861178478343 T T T As
   0.0000000000000000    0.3218889427826746    0.5839861178478343 T T T As
   0.0000000000000000    0.8218889427826745    0.6464861178478343 T T T As
   0.5000000000000000    0.3218889427826746    0.6464861178478343 T T T As
   0.7500000000000000    0.6250000000000000    0.5906250000000000 T T T Rh
   0.2500000000000000    0.1250000000000000    0.5906250000000000 T T T Rh
   0.2500000000000000    0.6250000000000001    0.6531250000000000 T T T Rh
   0.7500000000000000    0.1250000000000001    0.6531250000000000 T T T Rh
   0.5000000000000000    0.6250000000000000    0.6218750000000000 T T T Rh
   0.0000000000000000    0.1250000000000001    0.6218750000000000 T T T Rh
   0.0000000000000000    0.6250000000000001    0.6843750000000000 T T T Rh
   0.5000000000000000    0.1250000000000001    0.6843750000000000 T T T Rh
   0.5000000000000000    0.8750000000000000    0.6531250000000000 T T T Rh
   0.0000000000000000    0.3750000000000001    0.6531250000000000 T T T Rh
   0.0000000000000000    0.8750000000000001    0.5906250000000000 T T T Rh
   0.5000000000000000    0.3750000000000001    0.5906250000000000 T T T Rh
   0.7500000000000000    0.8750000000000000    0.6218750000000000 T T T Rh
   0.2500000000000000    0.3750000000000001    0.6218750000000000 T T T Rh
   0.2500000000000000    0.8750000000000001    0.6843750000000000 T T T Rh
   0.7500000000000000    0.3750000000000001    0.6843750000000000 T T T Rh
