Y12 Ga6 Ni12
1.0
   5.3709771036397376    0.0000000000000000    0.0000000000000003
   0.0000000000000013    8.2661447309619689   -4.2117556890338532
   0.0000000000000000    0.0000000000000000   29.4822898232369539
Y Ga Ni Y Ga Ni Y Ga Ni
4 2 4 4 2 4 4 2 4
Selective dynamics
direct
   0.5000000000000000    0.2019351279768954    0.3002764468538422 T T T Y
   0.5000000000000000    0.7980648720231046    0.3854378388604436 T T T Y
   0.0000000000000000    0.7019351279768954    0.3002764468538422 T T T Y
   0.0000000000000000    0.2980648720231045    0.3854378388604435 T T T Y
   0.0000000000000000    0.0000000000000000    0.4142857142857143 T T T Ga
   0.5000000000000000    0.5000000000000000    0.4142857142857143 T T T Ga
   0.2681259043259202    0.0000000000000000    0.3428571428571429 T T T Ni
   0.7318740956740798    0.0000000000000000    0.3428571428571429 T T T Ni
   0.7681259043259203    0.5000000000000000    0.3428571428571429 T T T Ni
   0.2318740956740797    0.5000000000000000    0.3428571428571429 T T T Ni
   0.5000000000000000    0.2019351279768954    0.4431335897109850 F F F Y
   0.5000000000000000    0.7980648720231046    0.5282949817175864 F F F Y
   0.0000000000000000    0.7019351279768954    0.4431335897109851 F F F Y
   0.0000000000000000    0.2980648720231045    0.5282949817175864 F F F Y
   0.0000000000000000    0.0000000000000000    0.5571428571428572 F F F Ga
   0.5000000000000000    0.5000000000000000    0.5571428571428572 F F F Ga
   0.2681259043259202    0.0000000000000000    0.4857142857142858 F F F Ni
   0.7318740956740798    0.0000000000000000    0.4857142857142858 F F F Ni
   0.7681259043259203    0.5000000000000000    0.4857142857142858 F F F Ni
   0.2318740956740797    0.5000000000000000    0.4857142857142858 F F F Ni
   0.5000000000000000    0.2019351279768954    0.5859907325681279 T T T Y
   0.5000000000000000    0.7980648720231046    0.6711521245747293 T T T Y
   0.0000000000000000    0.7019351279768954    0.5859907325681279 T T T Y
   0.0000000000000000    0.2980648720231045    0.6711521245747292 T T T Y
   0.0000000000000000    0.0000000000000000    0.7000000000000000 T T T Ga
   0.5000000000000000    0.5000000000000000    0.7000000000000000 T T T Ga
   0.2681259043259202    0.0000000000000000    0.6285714285714286 T T T Ni
   0.7318740956740798    0.0000000000000000    0.6285714285714286 T T T Ni
   0.7681259043259203    0.5000000000000000    0.6285714285714286 T T T Ni
   0.2318740956740797    0.5000000000000000    0.6285714285714286 T T T Ni
