Sr24 Ni48 Ge48
1.0
   8.4245020696260617    0.0000000000000000   -4.2122510348130309
   0.0000000000000033   20.5847241507338801   -4.2122510348130291
   0.0000000000000000    0.0000000000000000   33.6980082785042470
Sr Ni Ge Sr Ni Ge Sr Ni Ge
8 16 16 8 16 16 8 16 16
Selective dynamics
direct
   0.5000000000000000    0.4999999999999999    0.4062500000000000 T T T Sr
   0.0000000000000000    0.0000000000000000    0.4062500000000000 T T T Sr
   0.0000000000000000    0.5000000000000000    0.3437500000000000 T T T Sr
   0.5000000000000000    0.0000000000000000    0.3437500000000000 T T T Sr
   0.7500000000000000    0.7500000000000000    0.4062500000000000 T T T Sr
   0.2500000000000000    0.2499999999999999    0.4062500000000000 T T T Sr
   0.2500000000000000    0.7500000000000000    0.3437500000000000 T T T Sr
   0.7500000000000000    0.2499999999999999    0.3437500000000000 T T T Sr
   0.5000000000000000    0.6249999999999999    0.3593750000000000 T T T Ni
   0.0000000000000000    0.1250000000000000    0.3593750000000000 T T T Ni
   0.0000000000000000    0.6249999999999999    0.4218750000000000 T T T Ni
   0.5000000000000000    0.1249999999999999    0.4218750000000000 T T T Ni
   0.7500000000000000    0.6249999999999999    0.3281250000000000 T T T Ni
   0.2500000000000000    0.1250000000000000    0.3281250000000000 T T T Ni
   0.2500000000000000    0.6249999999999999    0.3906250000000000 T T T Ni
   0.7500000000000000    0.1249999999999999    0.3906250000000000 T T T Ni
   0.7500000000000000    0.8749999999999999    0.3593750000000000 T T T Ni
   0.2500000000000000    0.3750000000000000    0.3593750000000000 T T T Ni
   0.2500000000000000    0.8750000000000000    0.4218750000000000 T T T Ni
   0.7500000000000000    0.3749999999999999    0.4218750000000000 T T T Ni
   0.5000000000000000    0.8750000000000000    0.3906250000000000 T T T Ni
   0.0000000000000000    0.3750000000000000    0.3906250000000000 T T T Ni
   0.0000000000000000    0.8750000000000000    0.3281250000000000 T T T Ni
   0.5000000000000000    0.3749999999999999    0.3281250000000000 T T T Ni
   0.7500000000000000    0.5704870546034222    0.3838108818254278 T T T Ge
   0.2500000000000000    0.0704870546034222    0.3838108818254278 T T T Ge
   0.2500000000000000    0.5704870546034222    0.3213108818254278 T T T Ge
   0.7500000000000000    0.0704870546034221    0.3213108818254278 T T T Ge
   0.5000000000000000    0.6795129453965778    0.4286891181745722 F F F Ge
   0.0000000000000000    0.1795129453965778    0.4286891181745722 F F F Ge
   0.0000000000000000    0.6795129453965778    0.3661891181745722 T T T Ge
   0.5000000000000000    0.1795129453965777    0.3661891181745722 T T T Ge
   0.5000000000000000    0.8204870546034222    0.3213108818254278 T T T Ge
   0.0000000000000000    0.3204870546034222    0.3213108818254278 T T T Ge
   0.0000000000000000    0.8204870546034222    0.3838108818254278 T T T Ge
   0.5000000000000000    0.3204870546034221    0.3838108818254278 T T T Ge
   0.7500000000000000    0.9295129453965777    0.4286891181745722 F F F Ge
   0.2500000000000000    0.4295129453965778    0.4286891181745722 F F F Ge
   0.2500000000000000    0.9295129453965778    0.3661891181745722 T T T Ge
   0.7500000000000000    0.4295129453965777    0.3661891181745722 T T T Ge
   0.5000000000000000    0.4999999999999999    0.5312500000000000 F F F Sr
   0.0000000000000000    0.0000000000000000    0.5312500000000000 F F F Sr
   0.0000000000000000    0.5000000000000000    0.4687500000000000 F F F Sr
   0.5000000000000000    0.0000000000000000    0.4687500000000000 F F F Sr
   0.7500000000000000    0.7500000000000000    0.5312500000000000 F F F Sr
   0.2500000000000000    0.2499999999999999    0.5312500000000000 F F F Sr
   0.2500000000000000    0.7500000000000000    0.4687500000000000 F F F Sr
   0.7500000000000000    0.2499999999999999    0.4687500000000000 F F F Sr
   0.5000000000000000    0.6249999999999999    0.4843750000000000 F F F Ni
   0.0000000000000000    0.1250000000000000    0.4843750000000000 F F F Ni
   0.0000000000000000    0.6249999999999999    0.5468750000000000 F F F Ni
   0.5000000000000000    0.1249999999999999    0.5468750000000000 F F F Ni
   0.7500000000000000    0.6249999999999999    0.4531250000000000 F F F Ni
   0.2500000000000000    0.1250000000000000    0.4531250000000000 F F F Ni
   0.2500000000000000    0.6249999999999999    0.5156250000000000 F F F Ni
   0.7500000000000000    0.1249999999999999    0.5156250000000000 F F F Ni
   0.7500000000000000    0.8749999999999999    0.4843750000000000 F F F Ni
   0.2500000000000000    0.3750000000000000    0.4843750000000000 F F F Ni
   0.2500000000000000    0.8750000000000000    0.5468750000000000 F F F Ni
   0.7500000000000000    0.3749999999999999    0.5468750000000000 F F F Ni
   0.5000000000000000    0.8750000000000000    0.5156250000000000 F F F Ni
   0.0000000000000000    0.3750000000000000    0.5156250000000000 F F F Ni
   0.0000000000000000    0.8750000000000000    0.4531250000000000 F F F Ni
   0.5000000000000000    0.3749999999999999    0.4531250000000000 F F F Ni
   0.7500000000000000    0.5704870546034222    0.5088108818254278 F F F Ge
   0.2500000000000000    0.0704870546034222    0.5088108818254278 F F F Ge
   0.2500000000000000    0.5704870546034222    0.4463108818254278 F F F Ge
   0.7500000000000000    0.0704870546034221    0.4463108818254278 F F F Ge
   0.5000000000000000    0.6795129453965778    0.5536891181745722 F F F Ge
   0.0000000000000000    0.1795129453965778    0.5536891181745722 F F F Ge
   0.0000000000000000    0.6795129453965778    0.4911891181745722 F F F Ge
   0.5000000000000000    0.1795129453965777    0.4911891181745722 F F F Ge
   0.5000000000000000    0.8204870546034222    0.4463108818254278 F F F Ge
   0.0000000000000000    0.3204870546034222    0.4463108818254278 F F F Ge
   0.0000000000000000    0.8204870546034222    0.5088108818254278 F F F Ge
   0.5000000000000000    0.3204870546034221    0.5088108818254278 F F F Ge
   0.7500000000000000    0.9295129453965777    0.5536891181745722 F F F Ge
   0.2500000000000000    0.4295129453965778    0.5536891181745722 F F F Ge
   0.2500000000000000    0.9295129453965778    0.4911891181745722 F F F Ge
   0.7500000000000000    0.4295129453965777    0.4911891181745722 F F F Ge
   0.5000000000000000    0.4999999999999999    0.6562500000000000 T T T Sr
   0.0000000000000000    0.0000000000000000    0.6562500000000000 T T T Sr
   0.0000000000000000    0.5000000000000000    0.5937500000000000 T T T Sr
   0.5000000000000000    0.0000000000000000    0.5937500000000000 T T T Sr
   0.7500000000000000    0.7500000000000000    0.6562500000000000 T T T Sr
   0.2500000000000000    0.2499999999999999    0.6562500000000000 T T T Sr
   0.2500000000000000    0.7500000000000000    0.5937500000000000 T T T Sr
   0.7500000000000000    0.2499999999999999    0.5937500000000000 T T T Sr
   0.5000000000000000    0.6249999999999999    0.6093750000000000 T T T Ni
   0.0000000000000000    0.1250000000000000    0.6093750000000000 T T T Ni
   0.0000000000000000    0.6249999999999999    0.6718750000000000 T T T Ni
   0.5000000000000000    0.1249999999999999    0.6718750000000000 T T T Ni
   0.7500000000000000    0.6249999999999999    0.5781250000000000 T T T Ni
   0.2500000000000000    0.1250000000000000    0.5781250000000000 T T T Ni
   0.2500000000000000    0.6249999999999999    0.6406250000000000 T T T Ni
   0.7500000000000000    0.1249999999999999    0.6406250000000000 T T T Ni
   0.7500000000000000    0.8749999999999999    0.6093750000000000 T T T Ni
   0.2500000000000000    0.3750000000000000    0.6093750000000000 T T T Ni
   0.2500000000000000    0.8750000000000000    0.6718750000000000 T T T Ni
   0.7500000000000000    0.3749999999999999    0.6718750000000000 T T T Ni
   0.5000000000000000    0.8750000000000000    0.6406250000000000 T T T Ni
   0.0000000000000000    0.3750000000000000    0.6406250000000000 T T T Ni
   0.0000000000000000    0.8750000000000000    0.5781250000000000 T T T Ni
   0.5000000000000000    0.3749999999999999    0.5781250000000000 T T T Ni
   0.7500000000000000    0.5704870546034222    0.6338108818254278 T T T Ge
   0.2500000000000000    0.0704870546034222    0.6338108818254278 T T T Ge
   0.2500000000000000    0.5704870546034222    0.5713108818254278 F F F Ge
   0.7500000000000000    0.0704870546034221    0.5713108818254278 F F F Ge
   0.5000000000000000    0.6795129453965778    0.6786891181745722 T T T Ge
   0.0000000000000000    0.1795129453965778    0.6786891181745722 T T T Ge
   0.0000000000000000    0.6795129453965778    0.6161891181745722 T T T Ge
   0.5000000000000000    0.1795129453965777    0.6161891181745722 T T T Ge
   0.5000000000000000    0.8204870546034222    0.5713108818254278 F F F Ge
   0.0000000000000000    0.3204870546034222    0.5713108818254278 F F F Ge
   0.0000000000000000    0.8204870546034222    0.6338108818254278 T T T Ge
   0.5000000000000000    0.3204870546034221    0.6338108818254278 T T T Ge
   0.7500000000000000    0.9295129453965777    0.6786891181745722 T T T Ge
   0.2500000000000000    0.4295129453965778    0.6786891181745722 T T T Ge
   0.2500000000000000    0.9295129453965778    0.6161891181745722 T T T Ge
   0.7500000000000000    0.4295129453965777    0.6161891181745722 T T T Ge
