Y48 Ge48 Ru24
1.0
  21.5900438724740553    0.0000000000000000    4.2956324403274255
  26.4474765273873942    8.9871398288404816    0.0000000000000017
   0.0000000000000000    0.0000000000000000   34.3650595226194113
Y Ge Ru Y Ge Ru Y Ge Ru
16 16 8 16 16 8 16 16 8
Selective dynamics
direct
   0.0468305035548405    0.1110889401753212    0.3378961870556449 T T T Y
   0.5468305035548404    0.1110889401753212    0.4003961870556449 T T T Y
   0.4531694964451597    0.8889110598246787    0.4121038129443551 T T T Y
   0.9531694964451596    0.8889110598246787    0.3496038129443551 T T T Y
   0.6735485999818955    0.3268890168208074    0.3220564250022631 T T T Y
   0.1735485999818956    0.3268890168208074    0.3845564250022631 T T T Y
   0.8264514000181045    0.6731109831791926    0.4279435749977369 F F F Y
   0.3264514000181045    0.6731109831791926    0.3654435749977369 T T T Y
   0.2968305035548404    0.1110889401753212    0.3691461870556449 T T T Y
   0.7968305035548404    0.1110889401753212    0.4316461870556449 F F F Y
   0.2031694964451596    0.8889110598246787    0.3808538129443551 T T T Y
   0.7031694964451596    0.8889110598246787    0.3183538129443551 T T T Y
   0.9235485999818956    0.3268890168208074    0.3533064250022631 T T T Y
   0.4235485999818955    0.3268890168208074    0.4158064250022631 T T T Y
   0.5764514000181045    0.6731109831791925    0.3966935749977369 T T T Y
   0.0764514000181045    0.6731109831791926    0.3341935749977369 T T T Y
   0.6383498662775260    0.4346152071857574    0.3889562667153093 T T T Ge
   0.1383498662775260    0.4346152071857574    0.3264562667153093 T T T Ge
   0.8616501337224741    0.5653847928142426    0.3610437332846907 T T T Ge
   0.3616501337224740    0.5653847928142426    0.4235437332846907 F F F Ge
   0.8808004086856869    0.1249069409855323    0.3586499489142891 T T T Ge
   0.3808004086856869    0.1249069409855323    0.4211499489142891 F F F Ge
   0.6191995913143131    0.8750930590144677    0.3913500510857109 T T T Ge
   0.1191995913143131    0.8750930590144677    0.3288500510857109 T T T Ge
   0.8883498662775260    0.4346152071857574    0.4202062667153093 F F F Ge
   0.3883498662775260    0.4346152071857574    0.3577062667153093 T T T Ge
   0.6116501337224740    0.5653847928142426    0.3297937332846907 T T T Ge
   0.1116501337224740    0.5653847928142426    0.3922937332846907 T T T Ge
   0.1308004086856869    0.1249069409855323    0.3898999489142891 T T T Ge
   0.6308004086856869    0.1249069409855323    0.3273999489142891 T T T Ge
   0.3691995913143131    0.8750930590144677    0.3601000510857109 T T T Ge
   0.8691995913143131    0.8750930590144677    0.4226000510857109 F F F Ge
   0.7362021441020768    0.6281628723202244    0.3142247319872404 T T T Ru
   0.2362021441020767    0.6281628723202244    0.3767247319872404 T T T Ru
   0.7637978558979233    0.3718371276797756    0.4357752680127596 F F F Ru
   0.2637978558979233    0.3718371276797756    0.3732752680127596 T T T Ru
   0.4862021441020768    0.6281628723202243    0.4079747319872404 T T T Ru
   0.9862021441020767    0.6281628723202244    0.3454747319872404 T T T Ru
   0.0137978558979233    0.3718371276797756    0.3420252680127596 T T T Ru
   0.5137978558979233    0.3718371276797756    0.4045252680127596 T T T Ru
   0.0468305035548405    0.1110889401753212    0.4628961870556449 F F F Y
   0.5468305035548404    0.1110889401753212    0.5253961870556449 F F F Y
   0.4531694964451597    0.8889110598246787    0.5371038129443551 F F F Y
   0.9531694964451596    0.8889110598246787    0.4746038129443551 F F F Y
   0.6735485999818955    0.3268890168208074    0.4470564250022631 F F F Y
   0.1735485999818956    0.3268890168208074    0.5095564250022631 F F F Y
   0.8264514000181045    0.6731109831791926    0.5529435749977369 F F F Y
   0.3264514000181045    0.6731109831791926    0.4904435749977369 F F F Y
   0.2968305035548404    0.1110889401753212    0.4941461870556449 F F F Y
   0.7968305035548404    0.1110889401753212    0.5566461870556449 F F F Y
   0.2031694964451596    0.8889110598246787    0.5058538129443551 F F F Y
   0.7031694964451596    0.8889110598246787    0.4433538129443551 F F F Y
   0.9235485999818956    0.3268890168208074    0.4783064250022631 F F F Y
   0.4235485999818955    0.3268890168208074    0.5408064250022631 F F F Y
   0.5764514000181045    0.6731109831791925    0.5216935749977369 F F F Y
   0.0764514000181045    0.6731109831791926    0.4591935749977369 F F F Y
   0.6383498662775260    0.4346152071857574    0.5139562667153093 F F F Ge
   0.1383498662775260    0.4346152071857574    0.4514562667153093 F F F Ge
   0.8616501337224741    0.5653847928142426    0.4860437332846907 F F F Ge
   0.3616501337224740    0.5653847928142426    0.5485437332846907 F F F Ge
   0.8808004086856869    0.1249069409855323    0.4836499489142891 F F F Ge
   0.3808004086856869    0.1249069409855323    0.5461499489142891 F F F Ge
   0.6191995913143131    0.8750930590144677    0.5163500510857109 F F F Ge
   0.1191995913143131    0.8750930590144677    0.4538500510857109 F F F Ge
   0.8883498662775260    0.4346152071857574    0.5452062667153093 F F F Ge
   0.3883498662775260    0.4346152071857574    0.4827062667153093 F F F Ge
   0.6116501337224740    0.5653847928142426    0.4547937332846907 F F F Ge
   0.1116501337224740    0.5653847928142426    0.5172937332846907 F F F Ge
   0.1308004086856869    0.1249069409855323    0.5148999489142891 F F F Ge
   0.6308004086856869    0.1249069409855323    0.4523999489142891 F F F Ge
   0.3691995913143131    0.8750930590144677    0.4851000510857109 F F F Ge
   0.8691995913143131    0.8750930590144677    0.5476000510857109 F F F Ge
   0.7362021441020768    0.6281628723202244    0.4392247319872404 F F F Ru
   0.2362021441020767    0.6281628723202244    0.5017247319872404 F F F Ru
   0.7637978558979233    0.3718371276797756    0.5607752680127596 F F F Ru
   0.2637978558979233    0.3718371276797756    0.4982752680127596 F F F Ru
   0.4862021441020768    0.6281628723202243    0.5329747319872404 F F F Ru
   0.9862021441020767    0.6281628723202244    0.4704747319872404 F F F Ru
   0.0137978558979233    0.3718371276797756    0.4670252680127596 F F F Ru
   0.5137978558979233    0.3718371276797756    0.5295252680127596 F F F Ru
   0.0468305035548405    0.1110889401753212    0.5878961870556449 T T T Y
   0.5468305035548404    0.1110889401753212    0.6503961870556449 T T T Y
   0.4531694964451597    0.8889110598246787    0.6621038129443551 T T T Y
   0.9531694964451596    0.8889110598246787    0.5996038129443551 T T T Y
   0.6735485999818955    0.3268890168208074    0.5720564250022631 F F F Y
   0.1735485999818956    0.3268890168208074    0.6345564250022631 T T T Y
   0.8264514000181045    0.6731109831791926    0.6779435749977369 T T T Y
   0.3264514000181045    0.6731109831791926    0.6154435749977369 T T T Y
   0.2968305035548404    0.1110889401753212    0.6191461870556449 T T T Y
   0.7968305035548404    0.1110889401753212    0.6816461870556449 T T T Y
   0.2031694964451596    0.8889110598246787    0.6308538129443551 T T T Y
   0.7031694964451596    0.8889110598246787    0.5683538129443551 F F F Y
   0.9235485999818956    0.3268890168208074    0.6033064250022631 T T T Y
   0.4235485999818955    0.3268890168208074    0.6658064250022631 T T T Y
   0.5764514000181045    0.6731109831791925    0.6466935749977369 T T T Y
   0.0764514000181045    0.6731109831791926    0.5841935749977369 T T T Y
   0.6383498662775260    0.4346152071857574    0.6389562667153093 T T T Ge
   0.1383498662775260    0.4346152071857574    0.5764562667153093 F F F Ge
   0.8616501337224741    0.5653847928142426    0.6110437332846907 T T T Ge
   0.3616501337224740    0.5653847928142426    0.6735437332846907 T T T Ge
   0.8808004086856869    0.1249069409855323    0.6086499489142891 T T T Ge
   0.3808004086856869    0.1249069409855323    0.6711499489142891 T T T Ge
   0.6191995913143131    0.8750930590144677    0.6413500510857109 T T T Ge
   0.1191995913143131    0.8750930590144677    0.5788500510857109 F F F Ge
   0.8883498662775260    0.4346152071857574    0.6702062667153093 T T T Ge
   0.3883498662775260    0.4346152071857574    0.6077062667153093 T T T Ge
   0.6116501337224740    0.5653847928142426    0.5797937332846907 F F F Ge
   0.1116501337224740    0.5653847928142426    0.6422937332846907 T T T Ge
   0.1308004086856869    0.1249069409855323    0.6398999489142891 T T T Ge
   0.6308004086856869    0.1249069409855323    0.5773999489142891 F F F Ge
   0.3691995913143131    0.8750930590144677    0.6101000510857109 T T T Ge
   0.8691995913143131    0.8750930590144677    0.6726000510857109 T T T Ge
   0.7362021441020768    0.6281628723202244    0.5642247319872404 F F F Ru
   0.2362021441020767    0.6281628723202244    0.6267247319872404 T T T Ru
   0.7637978558979233    0.3718371276797756    0.6857752680127596 T T T Ru
   0.2637978558979233    0.3718371276797756    0.6232752680127596 T T T Ru
   0.4862021441020768    0.6281628723202243    0.6579747319872404 T T T Ru
   0.9862021441020767    0.6281628723202244    0.5954747319872404 T T T Ru
   0.0137978558979233    0.3718371276797756    0.5920252680127596 T T T Ru
   0.5137978558979233    0.3718371276797756    0.6545252680127596 T T T Ru
