Sc12 Ga18 Cu6
1.0
   6.5261967991641860    0.0000000000000000    4.2987660392852787
   3.2630983995820930    7.4562610255004609    0.0000000000000005
   0.0000000000000000    0.0000000000000000   34.3901283142822365
Sc Ga Cu Sc Ga Cu Sc Ga Cu
4 6 2 4 6 2 4 6 2
Selective dynamics
direct
   0.4986474838697176    0.0027050322605646    0.3491273979537853 T T T Sc
   0.9986474838697177    0.0027050322605646    0.4116273979537853 T T T Sc
   0.2508604307004311    0.4982791385991375    0.3176007795999461 T T T Sc
   0.7508604307004312    0.4982791385991375    0.3801007795999461 T T T Sc
   0.8316051768672670    0.8367896462654655    0.3700076863290916 T T T Ga
   0.3316051768672671    0.8367896462654655    0.4325076863290916 F F F Ga
   0.1616208505999274    0.1767582988001450    0.3287557271125091 T T T Ga
   0.6616208505999275    0.1767582988001450    0.3912557271125091 T T T Ga
   0.9221304989577063    0.6557390020845871    0.4211920210677867 T T T Ga
   0.4221304989577063    0.6557390020845871    0.3586920210677867 T T T Ga
   0.0851355640049504    0.3297288719900989    0.4008163879368812 T T T Cu
   0.5851355640049505    0.3297288719900989    0.3383163879368812 T T T Cu
   0.4986474838697176    0.0027050322605646    0.4741273979537853 F F F Sc
   0.9986474838697177    0.0027050322605646    0.5366273979537853 F F F Sc
   0.2508604307004311    0.4982791385991375    0.4426007795999461 F F F Sc
   0.7508604307004312    0.4982791385991375    0.5051007795999461 F F F Sc
   0.8316051768672670    0.8367896462654655    0.4950076863290916 F F F Ga
   0.3316051768672671    0.8367896462654655    0.5575076863290916 F F F Ga
   0.1616208505999274    0.1767582988001450    0.4537557271125091 F F F Ga
   0.6616208505999275    0.1767582988001450    0.5162557271125091 F F F Ga
   0.9221304989577063    0.6557390020845871    0.5461920210677867 F F F Ga
   0.4221304989577063    0.6557390020845871    0.4836920210677867 F F F Ga
   0.0851355640049504    0.3297288719900989    0.5258163879368812 F F F Cu
   0.5851355640049505    0.3297288719900989    0.4633163879368812 F F F Cu
   0.4986474838697176    0.0027050322605646    0.5991273979537853 T T T Sc
   0.9986474838697177    0.0027050322605646    0.6616273979537853 T T T Sc
   0.2508604307004311    0.4982791385991375    0.5676007795999461 F F F Sc
   0.7508604307004312    0.4982791385991375    0.6301007795999461 T T T Sc
   0.8316051768672670    0.8367896462654655    0.6200076863290916 T T T Ga
   0.3316051768672671    0.8367896462654655    0.6825076863290916 T T T Ga
   0.1616208505999274    0.1767582988001450    0.5787557271125091 T T T Ga
   0.6616208505999275    0.1767582988001450    0.6412557271125091 T T T Ga
   0.9221304989577063    0.6557390020845871    0.6711920210677867 T T T Ga
   0.4221304989577063    0.6557390020845871    0.6086920210677867 T T T Ga
   0.0851355640049504    0.3297288719900989    0.6508163879368812 T T T Cu
   0.5851355640049505    0.3297288719900989    0.5883163879368812 T T T Cu
