Li40 Cu16 Ge16
1.0
   7.3228335074683653    0.0000000000000000   -8.4556797935353458
  -0.0000000000000059    8.0603751672281181   -4.2278398967676738
   0.0000000000000000    0.0000000000000000   42.2783989676767220
Li Cu Ge Li Cu Ge Li Cu Ge Li Cu Ge
10 4 4 10 4 4 10 4 4 10 4 4
Selective dynamics
direct
   0.3333333333333334    0.1141616853603509    0.3530828352027018 T T T Li
   0.8333333333333334    0.1141616853603509    0.3030828352027018 T T T Li
   0.1666666666666668    0.8858383146396492    0.3469171647972983 T T T Li
   0.6666666666666667    0.8858383146396492    0.3969171647972983 T T T Li
   0.3333333333333334    0.4312206524801069    0.3847887319146774 T T T Li
   0.8333333333333334    0.4312206524801069    0.3347887319146774 T T T Li
   0.1666666666666668    0.5687793475198931    0.3152112680853227 T T T Li
   0.6666666666666667    0.5687793475198931    0.3652112680853227 T T T Li
   0.0000000000000000    0.0000000000000000    0.3750000000000001 T T T Li
   0.5000000000000000    0.0000000000000000    0.3250000000000001 T T T Li
   0.0000000000000000    0.3079935210835813    0.3057993521083582 T T T Cu
   0.5000000000000000    0.3079935210835813    0.3557993521083582 T T T Cu
   0.0000000000000000    0.6920064789164186    0.3442006478916419 T T T Cu
   0.5000000000000000    0.6920064789164186    0.3942006478916419 T T T Cu
   0.3333333333333334    0.7591582499199419    0.3175824916586609 T T T Ge
   0.8333333333333334    0.7591582499199419    0.3675824916586609 T T T Ge
   0.1666666666666668    0.2408417500800583    0.3824175083413392 T T T Ge
   0.6666666666666667    0.2408417500800583    0.3324175083413392 T T T Ge
   0.3333333333333334    0.1141616853603509    0.4530828352027018 F F F Li
   0.8333333333333334    0.1141616853603509    0.4030828352027018 T T T Li
   0.1666666666666668    0.8858383146396492    0.4469171647972983 F F F Li
   0.6666666666666667    0.8858383146396492    0.4969171647972983 F F F Li
   0.3333333333333334    0.4312206524801069    0.4847887319146774 F F F Li
   0.8333333333333334    0.4312206524801069    0.4347887319146774 F F F Li
   0.1666666666666668    0.5687793475198931    0.4152112680853227 T T T Li
   0.6666666666666667    0.5687793475198931    0.4652112680853226 F F F Li
   0.0000000000000000    0.0000000000000000    0.4750000000000000 F F F Li
   0.5000000000000000    0.0000000000000000    0.4250000000000000 F F F Li
   0.0000000000000000    0.3079935210835813    0.4057993521083582 T T T Cu
   0.5000000000000000    0.3079935210835813    0.4557993521083582 F F F Cu
   0.0000000000000000    0.6920064789164186    0.4442006478916419 F F F Cu
   0.5000000000000000    0.6920064789164186    0.4942006478916419 F F F Cu
   0.3333333333333334    0.7591582499199419    0.4175824916586609 T T T Ge
   0.8333333333333334    0.7591582499199419    0.4675824916586609 F F F Ge
   0.1666666666666668    0.2408417500800583    0.4824175083413392 F F F Ge
   0.6666666666666667    0.2408417500800583    0.4324175083413392 F F F Ge
   0.3333333333333334    0.1141616853603509    0.5530828352027017 F F F Li
   0.8333333333333334    0.1141616853603509    0.5030828352027018 F F F Li
   0.1666666666666668    0.8858383146396492    0.5469171647972983 F F F Li
   0.6666666666666667    0.8858383146396492    0.5969171647972983 T T T Li
   0.3333333333333334    0.4312206524801069    0.5847887319146774 T T T Li
   0.8333333333333334    0.4312206524801069    0.5347887319146774 F F F Li
   0.1666666666666668    0.5687793475198931    0.5152112680853227 F F F Li
   0.6666666666666667    0.5687793475198931    0.5652112680853227 F F F Li
   0.0000000000000000    0.0000000000000000    0.5750000000000001 F F F Li
   0.5000000000000000    0.0000000000000000    0.5250000000000000 F F F Li
   0.0000000000000000    0.3079935210835813    0.5057993521083581 F F F Cu
   0.5000000000000000    0.3079935210835813    0.5557993521083582 F F F Cu
   0.0000000000000000    0.6920064789164186    0.5442006478916419 F F F Cu
   0.5000000000000000    0.6920064789164186    0.5942006478916420 T T T Cu
   0.3333333333333334    0.7591582499199419    0.5175824916586609 F F F Ge
   0.8333333333333334    0.7591582499199419    0.5675824916586609 F F F Ge
   0.1666666666666668    0.2408417500800583    0.5824175083413392 T T T Ge
   0.6666666666666667    0.2408417500800583    0.5324175083413392 F F F Ge
   0.3333333333333334    0.1141616853603509    0.6530828352027018 T T T Li
   0.8333333333333334    0.1141616853603509    0.6030828352027018 T T T Li
   0.1666666666666668    0.8858383146396492    0.6469171647972982 T T T Li
   0.6666666666666667    0.8858383146396492    0.6969171647972983 T T T Li
   0.3333333333333334    0.4312206524801069    0.6847887319146774 T T T Li
   0.8333333333333334    0.4312206524801069    0.6347887319146774 T T T Li
   0.1666666666666668    0.5687793475198931    0.6152112680853227 T T T Li
   0.6666666666666667    0.5687793475198931    0.6652112680853226 T T T Li
   0.0000000000000000    0.0000000000000000    0.6750000000000000 T T T Li
   0.5000000000000000    0.0000000000000000    0.6250000000000000 T T T Li
   0.0000000000000000    0.3079935210835813    0.6057993521083582 T T T Cu
   0.5000000000000000    0.3079935210835813    0.6557993521083582 T T T Cu
   0.0000000000000000    0.6920064789164186    0.6442006478916419 T T T Cu
   0.5000000000000000    0.6920064789164186    0.6942006478916419 T T T Cu
   0.3333333333333334    0.7591582499199419    0.6175824916586609 T T T Ge
   0.8333333333333334    0.7591582499199419    0.6675824916586609 T T T Ge
   0.1666666666666668    0.2408417500800583    0.6824175083413392 T T T Ge
   0.6666666666666667    0.2408417500800583    0.6324175083413393 T T T Ge
