Cs64 Bi64 Pd32
1.0
  30.9774370544891156    0.0000000000000000   -7.8269046209898860
   0.0000000000000023   14.1675449600838999   -7.8269046209898931
   0.0000000000000000    0.0000000000000000   39.1345231049494728
Cs Bi Pd Cs Bi Pd
32 32 16 32 32 16
Selective dynamics
direct
   0.6974470054329950    0.6250000000000000    0.3394894010865990 T T T Cs
   0.1974470054329949    0.1250000000000000    0.3394894010865989 T T T Cs
   0.1974470054329949    0.6250000000000001    0.4394894010865990 F F F Cs
   0.6974470054329950    0.1250000000000001    0.4394894010865990 F F F Cs
   0.5525529945670051    0.8750000000000001    0.4605105989134010 F F F Cs
   0.0525529945670051    0.3750000000000001    0.4605105989134010 F F F Cs
   0.0525529945670051    0.8750000000000000    0.3605105989134010 T T T Cs
   0.5525529945670051    0.3750000000000001    0.3605105989134010 T T T Cs
   0.6529129461135740    0.6250000000000000    0.4305825892227148 F F F Cs
   0.1529129461135739    0.1250000000000001    0.4305825892227148 F F F Cs
   0.1529129461135739    0.6250000000000001    0.3305825892227147 T T T Cs
   0.6529129461135740    0.1250000000000001    0.3305825892227147 T T T Cs
   0.5970870538864261    0.8750000000000000    0.3694174107772852 T T T Cs
   0.0970870538864261    0.3750000000000000    0.3694174107772852 T T T Cs
   0.0970870538864261    0.8750000000000000    0.4694174107772852 F F F Cs
   0.5970870538864261    0.3750000000000001    0.4694174107772852 F F F Cs
   0.9474470054329950    0.6250000000000001    0.4894894010865990 F F F Cs
   0.4474470054329949    0.1250000000000001    0.4894894010865990 F F F Cs
   0.4474470054329949    0.6250000000000001    0.3894894010865990 T T T Cs
   0.9474470054329950    0.1250000000000001    0.3894894010865990 T T T Cs
   0.8025529945670051    0.8750000000000001    0.4105105989134010 F F F Cs
   0.3025529945670051    0.3750000000000001    0.4105105989134010 F F F Cs
   0.3025529945670051    0.8750000000000000    0.3105105989134010 T T T Cs
   0.8025529945670051    0.3750000000000001    0.3105105989134010 T T T Cs
   0.9029129461135740    0.6250000000000000    0.3805825892227147 T T T Cs
   0.4029129461135739    0.1250000000000000    0.3805825892227147 T T T Cs
   0.4029129461135739    0.6250000000000001    0.4805825892227148 F F F Cs
   0.9029129461135740    0.1250000000000001    0.4805825892227148 F F F Cs
   0.8470870538864261    0.8750000000000001    0.3194174107772852 T T T Cs
   0.3470870538864261    0.3750000000000001    0.3194174107772852 T T T Cs
   0.3470870538864261    0.8750000000000000    0.4194174107772852 F F F Cs
   0.8470870538864261    0.3750000000000001    0.4194174107772852 F F F Cs
   0.5498395564026310    0.6250000000000001    0.4717697754769489 F F F Bi
   0.0498395564026310    0.1250000000000001    0.4717697754769489 F F F Bi
   0.0498395564026310    0.6250000000000001    0.3717697754769488 T T T Bi
   0.5498395564026310    0.1250000000000001    0.3717697754769488 T T T Bi
   0.7001604435973691    0.8750000000000001    0.4518339529158965 F F F Bi
   0.2001604435973690    0.3750000000000001    0.4518339529158965 F F F Bi
   0.2001604435973690    0.8750000000000000    0.3518339529158964 T T T Bi
   0.7001604435973691    0.3750000000000001    0.3518339529158965 T T T Bi
   0.7001604435973691    0.8750000000000001    0.3282302245230511 T T T Bi
   0.2001604435973690    0.3750000000000001    0.3282302245230511 T T T Bi
   0.2001604435973690    0.8750000000000000    0.4282302245230510 F F F Bi
   0.7001604435973691    0.3750000000000001    0.4282302245230511 F F F Bi
   0.5498395564026310    0.6250000000000000    0.3481660470841035 T T T Bi
   0.0498395564026310    0.1250000000000000    0.3481660470841035 T T T Bi
   0.0498395564026310    0.6250000000000000    0.4481660470841035 F F F Bi
   0.5498395564026310    0.1250000000000001    0.4481660470841035 F F F Bi
   0.7998395564026310    0.6250000000000000    0.4217697754769488 F F F Bi
   0.2998395564026310    0.1250000000000001    0.4217697754769488 F F F Bi
   0.2998395564026310    0.6250000000000001    0.3217697754769488 T T T Bi
   0.7998395564026310    0.1250000000000001    0.3217697754769489 T T T Bi
   0.9501604435973691    0.8750000000000002    0.4018339529158965 F F F Bi
   0.4501604435973690    0.3750000000000001    0.4018339529158965 F F F Bi
   0.4501604435973690    0.8750000000000001    0.3018339529158964 T T T Bi
   0.9501604435973691    0.3750000000000002    0.3018339529158965 T T T Bi
   0.9501604435973691    0.8750000000000001    0.4782302245230511 F F F Bi
   0.4501604435973690    0.3750000000000001    0.4782302245230511 F F F Bi
   0.4501604435973690    0.8750000000000000    0.3782302245230511 T T T Bi
   0.9501604435973691    0.3750000000000001    0.3782302245230511 T T T Bi
   0.7998395564026310    0.6250000000000000    0.4981660470841035 F F F Bi
   0.2998395564026310    0.1250000000000001    0.4981660470841035 F F F Bi
   0.2998395564026310    0.6250000000000001    0.3981660470841035 F F F Bi
   0.7998395564026310    0.1250000000000001    0.3981660470841035 F F F Bi
   0.5000000000000000    0.7500000000000001    0.3250000000000000 T T T Pd
   0.0000000000000000    0.2500000000000000    0.3250000000000000 T T T Pd
   0.0000000000000000    0.7500000000000000    0.4249999999999999 F F F Pd
   0.5000000000000000    0.2500000000000001    0.4249999999999999 F F F Pd
   0.5000000000000000    0.5000000000000000    0.4750000000000000 F F F Pd
   0.0000000000000000    0.0000000000000000    0.4750000000000000 F F F Pd
   0.0000000000000000    0.5000000000000000    0.3749999999999999 T T T Pd
   0.5000000000000000    0.0000000000000000    0.3750000000000000 T T T Pd
   0.7500000000000000    0.7500000000000001    0.4750000000000000 F F F Pd
   0.2500000000000000    0.2500000000000001    0.4750000000000000 F F F Pd
   0.2500000000000000    0.7500000000000001    0.3750000000000000 T T T Pd
   0.7500000000000000    0.2500000000000001    0.3750000000000000 T T T Pd
   0.7500000000000000    0.5000000000000001    0.4250000000000000 F F F Pd
   0.2500000000000000    0.0000000000000001    0.4249999999999999 F F F Pd
   0.2500000000000000    0.5000000000000001    0.3250000000000000 T T T Pd
   0.7500000000000000    0.0000000000000001    0.3250000000000000 T T T Pd
   0.6974470054329950    0.6250000000000000    0.5394894010865989 F F F Cs
   0.1974470054329949    0.1250000000000000    0.5394894010865989 F F F Cs
   0.1974470054329949    0.6250000000000001    0.6394894010865990 T T T Cs
   0.6974470054329950    0.1250000000000001    0.6394894010865990 T T T Cs
   0.5525529945670051    0.8750000000000001    0.6605105989134010 T T T Cs
   0.0525529945670051    0.3750000000000001    0.6605105989134010 T T T Cs
   0.0525529945670051    0.8750000000000000    0.5605105989134010 F F F Cs
   0.5525529945670051    0.3750000000000001    0.5605105989134010 F F F Cs
   0.6529129461135740    0.6250000000000000    0.6305825892227148 T T T Cs
   0.1529129461135739    0.1250000000000001    0.6305825892227148 T T T Cs
   0.1529129461135739    0.6250000000000001    0.5305825892227147 F F F Cs
   0.6529129461135740    0.1250000000000001    0.5305825892227147 F F F Cs
   0.5970870538864261    0.8750000000000000    0.5694174107772851 F F F Cs
   0.0970870538864261    0.3750000000000000    0.5694174107772851 F F F Cs
   0.0970870538864261    0.8750000000000000    0.6694174107772852 T T T Cs
   0.5970870538864261    0.3750000000000001    0.6694174107772852 T T T Cs
   0.9474470054329950    0.6250000000000001    0.6894894010865991 T T T Cs
   0.4474470054329949    0.1250000000000001    0.6894894010865991 T T T Cs
   0.4474470054329949    0.6250000000000001    0.5894894010865990 F F F Cs
   0.9474470054329950    0.1250000000000001    0.5894894010865990 F F F Cs
   0.8025529945670051    0.8750000000000001    0.6105105989134010 T T T Cs
   0.3025529945670051    0.3750000000000001    0.6105105989134010 T T T Cs
   0.3025529945670051    0.8750000000000000    0.5105105989134010 F F F Cs
   0.8025529945670051    0.3750000000000001    0.5105105989134010 F F F Cs
   0.9029129461135740    0.6250000000000000    0.5805825892227148 F F F Cs
   0.4029129461135739    0.1250000000000000    0.5805825892227148 F F F Cs
   0.4029129461135739    0.6250000000000001    0.6805825892227149 T T T Cs
   0.9029129461135740    0.1250000000000001    0.6805825892227149 T T T Cs
   0.8470870538864261    0.8750000000000001    0.5194174107772852 F F F Cs
   0.3470870538864261    0.3750000000000001    0.5194174107772852 F F F Cs
   0.3470870538864261    0.8750000000000000    0.6194174107772852 T T T Cs
   0.8470870538864261    0.3750000000000001    0.6194174107772852 T T T Cs
   0.5498395564026310    0.6250000000000001    0.6717697754769489 T T T Bi
   0.0498395564026310    0.1250000000000001    0.6717697754769489 T T T Bi
   0.0498395564026310    0.6250000000000001    0.5717697754769488 F F F Bi
   0.5498395564026310    0.1250000000000001    0.5717697754769488 F F F Bi
   0.7001604435973691    0.8750000000000001    0.6518339529158965 T T T Bi
   0.2001604435973690    0.3750000000000001    0.6518339529158965 T T T Bi
   0.2001604435973690    0.8750000000000000    0.5518339529158964 F F F Bi
   0.7001604435973691    0.3750000000000001    0.5518339529158964 F F F Bi
   0.7001604435973691    0.8750000000000001    0.5282302245230511 F F F Bi
   0.2001604435973690    0.3750000000000001    0.5282302245230510 F F F Bi
   0.2001604435973690    0.8750000000000000    0.6282302245230511 T T T Bi
   0.7001604435973691    0.3750000000000001    0.6282302245230511 T T T Bi
   0.5498395564026310    0.6250000000000000    0.5481660470841034 F F F Bi
   0.0498395564026310    0.1250000000000000    0.5481660470841034 F F F Bi
   0.0498395564026310    0.6250000000000000    0.6481660470841035 T T T Bi
   0.5498395564026310    0.1250000000000001    0.6481660470841035 T T T Bi
   0.7998395564026310    0.6250000000000000    0.6217697754769489 T T T Bi
   0.2998395564026310    0.1250000000000001    0.6217697754769489 T T T Bi
   0.2998395564026310    0.6250000000000001    0.5217697754769488 F F F Bi
   0.7998395564026310    0.1250000000000001    0.5217697754769489 F F F Bi
   0.9501604435973691    0.8750000000000002    0.6018339529158965 F F F Bi
   0.4501604435973690    0.3750000000000001    0.6018339529158965 F F F Bi
   0.4501604435973690    0.8750000000000001    0.5018339529158964 F F F Bi
   0.9501604435973691    0.3750000000000002    0.5018339529158965 F F F Bi
   0.9501604435973691    0.8750000000000001    0.6782302245230512 T T T Bi
   0.4501604435973690    0.3750000000000001    0.6782302245230512 T T T Bi
   0.4501604435973690    0.8750000000000000    0.5782302245230511 F F F Bi
   0.9501604435973691    0.3750000000000001    0.5782302245230511 F F F Bi
   0.7998395564026310    0.6250000000000000    0.6981660470841036 T T T Bi
   0.2998395564026310    0.1250000000000001    0.6981660470841036 T T T Bi
   0.2998395564026310    0.6250000000000001    0.5981660470841035 F F F Bi
   0.7998395564026310    0.1250000000000001    0.5981660470841035 F F F Bi
   0.5000000000000000    0.7500000000000001    0.5250000000000000 F F F Pd
   0.0000000000000000    0.2500000000000000    0.5249999999999999 F F F Pd
   0.0000000000000000    0.7500000000000000    0.6250000000000000 T T T Pd
   0.5000000000000000    0.2500000000000001    0.6250000000000000 T T T Pd
   0.5000000000000000    0.5000000000000000    0.6750000000000000 T T T Pd
   0.0000000000000000    0.0000000000000000    0.6750000000000000 T T T Pd
   0.0000000000000000    0.5000000000000000    0.5750000000000000 F F F Pd
   0.5000000000000000    0.0000000000000000    0.5750000000000000 F F F Pd
   0.7500000000000000    0.7500000000000001    0.6750000000000000 T T T Pd
   0.2500000000000000    0.2500000000000001    0.6750000000000000 T T T Pd
   0.2500000000000000    0.7500000000000001    0.5750000000000000 F F F Pd
   0.7500000000000000    0.2500000000000001    0.5750000000000000 F F F Pd
   0.7500000000000000    0.5000000000000001    0.6250000000000000 T T T Pd
   0.2500000000000000    0.0000000000000001    0.6250000000000000 T T T Pd
   0.2500000000000000    0.5000000000000001    0.5250000000000000 F F F Pd
   0.7500000000000000    0.0000000000000001    0.5250000000000000 F F F Pd
