Al24 Ge24 Mo24
1.0
   6.7186617042436296    0.0000000000000000    0.0000000000000004
   0.0000000000000014    8.4035569786515332   -9.7035917675496428
   0.0000000000000000    0.0000000000000000   43.6661629539733980
Al Ge Mo Al Ge Mo Al Ge Mo Al Ge Mo
6 6 6 6 6 6 6 6 6 6 6 6
Selective dynamics
direct
   0.0000000000000000    0.0835726602363931    0.3087749346992308 T T T Al
   0.0000000000000000    0.5835726602363931    0.3643304902547864 T T T Al
   0.3333333333333334    0.0835726602363931    0.3641709389860798 T T T Al
   0.3333333333333334    0.5835726602363931    0.3086153834305242 T T T Al
   0.6666666666666667    0.3328546795272136    0.2807578300183932 T T T Al
   0.6666666666666667    0.8328546795272136    0.3363133855739487 T T T Al
   0.0000000000000000    0.2481597870625952    0.2891011162693430 T T T Ge
   0.0000000000000000    0.7481597870625951    0.3446566718248986 T T T Ge
   0.3333333333333334    0.2481597870625952    0.3458834804498351 T T T Ge
   0.3333333333333334    0.7481597870625952    0.2903279248942796 T T T Ge
   0.6666666666666667    0.0036804258748096    0.3187191069845256 T T T Ge
   0.6666666666666667    0.5036804258748095    0.3742746625400812 T T T Ge
   0.0000000000000000    0.4152577258742139    0.3819333044980201 T T T Mo
   0.0000000000000000    0.9152577258742138    0.3263777489424645 T T T Mo
   0.3333333333333334    0.4152577258742138    0.3273170428040997 T T T Mo
   0.3333333333333334    0.9152577258742138    0.3828725983596553 T T T Mo
   0.6666666666666667    0.1694845482515720    0.3000089119571395 T T T Mo
   0.6666666666666667    0.6694845482515720    0.3555644675126950 T T T Mo
   0.0000000000000000    0.0835726602363931    0.4198860458103419 F F F Al
   0.0000000000000000    0.5835726602363931    0.4754416013658975 F F F Al
   0.3333333333333334    0.0835726602363931    0.4752820500971909 F F F Al
   0.3333333333333334    0.5835726602363931    0.4197264945416354 F F F Al
   0.6666666666666667    0.3328546795272136    0.3918689411295043 F F F Al
   0.6666666666666667    0.8328546795272136    0.4474244966850598 F F F Al
   0.0000000000000000    0.2481597870625952    0.4002122273804541 F F F Ge
   0.0000000000000000    0.7481597870625951    0.4557677829360097 F F F Ge
   0.3333333333333334    0.2481597870625952    0.4569945915609462 F F F Ge
   0.3333333333333334    0.7481597870625952    0.4014390360053907 F F F Ge
   0.6666666666666667    0.0036804258748096    0.4298302180956367 F F F Ge
   0.6666666666666667    0.5036804258748095    0.4853857736511923 F F F Ge
   0.0000000000000000    0.4152577258742139    0.4930444156091312 F F F Mo
   0.0000000000000000    0.9152577258742138    0.4374888600535756 F F F Mo
   0.3333333333333334    0.4152577258742138    0.4384281539152108 F F F Mo
   0.3333333333333334    0.9152577258742138    0.4939837094707663 F F F Mo
   0.6666666666666667    0.1694845482515720    0.4111200230682506 F F F Mo
   0.6666666666666667    0.6694845482515720    0.4666755786238062 F F F Mo
   0.0000000000000000    0.0835726602363931    0.5309971569214530 F F F Al
   0.0000000000000000    0.5835726602363931    0.5865527124770086 F F F Al
   0.3333333333333334    0.0835726602363931    0.5863931612083020 F F F Al
   0.3333333333333334    0.5835726602363931    0.5308376056527464 F F F Al
   0.6666666666666667    0.3328546795272136    0.5029800522406154 F F F Al
   0.6666666666666667    0.8328546795272136    0.5585356077961710 F F F Al
   0.0000000000000000    0.2481597870625952    0.5113233384915652 F F F Ge
   0.0000000000000000    0.7481597870625951    0.5668788940471208 F F F Ge
   0.3333333333333334    0.2481597870625952    0.5681057026720573 F F F Ge
   0.3333333333333334    0.7481597870625952    0.5125501471165017 F F F Ge
   0.6666666666666667    0.0036804258748096    0.5409413292067478 F F F Ge
   0.6666666666666667    0.5036804258748095    0.5964968847623033 F F F Ge
   0.0000000000000000    0.4152577258742139    0.6041555267202423 F F F Mo
   0.0000000000000000    0.9152577258742138    0.5485999711646867 F F F Mo
   0.3333333333333334    0.4152577258742138    0.5495392650263219 F F F Mo
   0.3333333333333334    0.9152577258742138    0.6050948205818774 F F F Mo
   0.6666666666666667    0.1694845482515720    0.5222311341793617 F F F Mo
   0.6666666666666667    0.6694845482515720    0.5777866897349173 F F F Mo
   0.0000000000000000    0.0835726602363931    0.6421082680325640 T T T Al
   0.0000000000000000    0.5835726602363931    0.6976638235881196 T T T Al
   0.3333333333333334    0.0835726602363931    0.6975042723194131 T T T Al
   0.3333333333333334    0.5835726602363931    0.6419487167638576 T T T Al
   0.6666666666666667    0.3328546795272136    0.6140911633517265 T T T Al
   0.6666666666666667    0.8328546795272136    0.6696467189072820 T T T Al
   0.0000000000000000    0.2481597870625952    0.6224344496026764 T T T Ge
   0.0000000000000000    0.7481597870625951    0.6779900051582319 T T T Ge
   0.3333333333333334    0.2481597870625952    0.6792168137831684 T T T Ge
   0.3333333333333334    0.7481597870625952    0.6236612582276129 T T T Ge
   0.6666666666666667    0.0036804258748096    0.6520524403178589 T T T Ge
   0.6666666666666667    0.5036804258748095    0.7076079958734145 T T T Ge
   0.0000000000000000    0.4152577258742139    0.7152666378313535 T T T Mo
   0.0000000000000000    0.9152577258742138    0.6597110822757979 T T T Mo
   0.3333333333333334    0.4152577258742138    0.6606503761374329 T T T Mo
   0.3333333333333334    0.9152577258742138    0.7162059316929885 T T T Mo
   0.6666666666666667    0.1694845482515720    0.6333422452904728 T T T Mo
   0.6666666666666667    0.6694845482515720    0.6888978008460284 T T T Mo
