Al24 Ge24 Mo24
1.0
   6.7186617042436296    0.0000000000000000    0.0000000000000004
   0.0000000000000014    8.4035569786515332   -9.7035917675496428
   0.0000000000000000    0.0000000000000000   43.6661629539733980
Al Ge Mo Al Ge Mo Al Ge Mo Al Ge Mo
6 6 6 6 6 6 6 6 6 6 6 6
Selective dynamics
direct
   0.0000000000000000    0.0835726602363931    0.2840835766745394 T T T Al
   0.0000000000000000    0.5835726602363931    0.3396391322300950 T T T Al
   0.3333333333333334    0.0835726602363931    0.3394795809613884 T T T Al
   0.3333333333333334    0.5835726602363931    0.2839240254058329 T T T Al
   0.6666666666666667    0.3328546795272136    0.3671775831048129 T T T Al
   0.6666666666666667    0.8328546795272136    0.3116220275492573 T T T Al
   0.0000000000000000    0.2481597870625952    0.3755208693557628 T T T Ge
   0.0000000000000000    0.7481597870625951    0.3199653138002072 T T T Ge
   0.3333333333333334    0.2481597870625952    0.3211921224251438 T T T Ge
   0.3333333333333334    0.7481597870625952    0.3767476779806993 T T T Ge
   0.6666666666666667    0.0036804258748096    0.2940277489598342 T T T Ge
   0.6666666666666667    0.5036804258748095    0.3495833045153898 T T T Ge
   0.0000000000000000    0.4152577258742139    0.3572419464733287 T T T Mo
   0.0000000000000000    0.9152577258742138    0.3016863909177732 T T T Mo
   0.3333333333333334    0.4152577258742138    0.3026256847794083 T T T Mo
   0.3333333333333334    0.9152577258742138    0.3581812403349639 T T T Mo
   0.6666666666666667    0.1694845482515720    0.3864286650435592 T T T Mo
   0.6666666666666667    0.6694845482515720    0.3308731094880037 T T T Mo
   0.0000000000000000    0.0835726602363931    0.3951946877856505 F F F Al
   0.0000000000000000    0.5835726602363931    0.4507502433412061 F F F Al
   0.3333333333333334    0.0835726602363931    0.4505906920724995 F F F Al
   0.3333333333333334    0.5835726602363931    0.3950351365169440 F F F Al
   0.6666666666666667    0.3328546795272136    0.4782886942159240 F F F Al
   0.6666666666666667    0.8328546795272136    0.4227331386603684 F F F Al
   0.0000000000000000    0.2481597870625952    0.4866319804668738 F F F Ge
   0.0000000000000000    0.7481597870625951    0.4310764249113183 F F F Ge
   0.3333333333333334    0.2481597870625952    0.4323032335362549 F F F Ge
   0.3333333333333334    0.7481597870625952    0.4878587890918105 F F F Ge
   0.6666666666666667    0.0036804258748096    0.4051388600709454 F F F Ge
   0.6666666666666667    0.5036804258748095    0.4606944156265009 F F F Ge
   0.0000000000000000    0.4152577258742139    0.4683530575844398 F F F Mo
   0.0000000000000000    0.9152577258742138    0.4127975020288843 F F F Mo
   0.3333333333333334    0.4152577258742138    0.4137367958905194 F F F Mo
   0.3333333333333334    0.9152577258742138    0.4692923514460750 F F F Mo
   0.6666666666666667    0.1694845482515720    0.4975397761546704 F F F Mo
   0.6666666666666667    0.6694845482515720    0.4419842205991148 F F F Mo
   0.0000000000000000    0.0835726602363931    0.5063057988967616 F F F Al
   0.0000000000000000    0.5835726602363931    0.5618613544523172 F F F Al
   0.3333333333333334    0.0835726602363931    0.5617018031836106 F F F Al
   0.3333333333333334    0.5835726602363931    0.5061462476280550 F F F Al
   0.6666666666666667    0.3328546795272136    0.5893998053270351 F F F Al
   0.6666666666666667    0.8328546795272136    0.5338442497714795 F F F Al
   0.0000000000000000    0.2481597870625952    0.5977430915779850 F F F Ge
   0.0000000000000000    0.7481597870625951    0.5421875360224294 F F F Ge
   0.3333333333333334    0.2481597870625952    0.5434143446473660 F F F Ge
   0.3333333333333334    0.7481597870625952    0.5989699002029215 F F F Ge
   0.6666666666666667    0.0036804258748096    0.5162499711820565 F F F Ge
   0.6666666666666667    0.5036804258748095    0.5718055267376121 F F F Ge
   0.0000000000000000    0.4152577258742139    0.5794641686955510 F F F Mo
   0.0000000000000000    0.9152577258742138    0.5239086131399954 F F F Mo
   0.3333333333333334    0.4152577258742138    0.5248479070016305 F F F Mo
   0.3333333333333334    0.9152577258742138    0.5804034625571861 F F F Mo
   0.6666666666666667    0.1694845482515720    0.6086508872657814 F F F Mo
   0.6666666666666667    0.6694845482515720    0.5530953317102258 F F F Mo
   0.0000000000000000    0.0835726602363931    0.6174169100078728 T T T Al
   0.0000000000000000    0.5835726602363931    0.6729724655634284 T T T Al
   0.3333333333333334    0.0835726602363931    0.6728129142947217 T T T Al
   0.3333333333333334    0.5835726602363931    0.6172573587391662 T T T Al
   0.6666666666666667    0.3328546795272136    0.7005109164381462 T T T Al
   0.6666666666666667    0.8328546795272136    0.6449553608825906 T T T Al
   0.0000000000000000    0.2481597870625952    0.7088542026890960 T T T Ge
   0.0000000000000000    0.7481597870625951    0.6532986471335405 T T T Ge
   0.3333333333333334    0.2481597870625952    0.6545254557584771 T T T Ge
   0.3333333333333334    0.7481597870625952    0.7100810113140327 T T T Ge
   0.6666666666666667    0.0036804258748096    0.6273610822931676 T T T Ge
   0.6666666666666667    0.5036804258748095    0.6829166378487231 T T T Ge
   0.0000000000000000    0.4152577258742139    0.6905752798066620 T T T Mo
   0.0000000000000000    0.9152577258742138    0.6350197242511064 T T T Mo
   0.3333333333333334    0.4152577258742138    0.6359590181127417 T T T Mo
   0.3333333333333334    0.9152577258742138    0.6915145736682972 T T T Mo
   0.6666666666666667    0.1694845482515720    0.7197619983768926 T T T Mo
   0.6666666666666667    0.6694845482515720    0.6642064428213370 T T T Mo
