Ba24 Cd16 As32
1.0
  16.6895931482413218    0.0000000000000000   -6.4928947416785530
  30.7877360088398468    8.9322386519829848   -5.5572492402744809
   0.0000000000000000    0.0000000000000000   37.1427012154131404
Ba Cd As Ba Cd As
12 8 16 12 8 16
Selective dynamics
direct
   0.5000000000000000    0.4288880191770108    0.4596273342810627 F F F Ba
   0.5000000000000000    0.9288880191770107    0.3596273342810627 T T T Ba
   0.0000000000000000    0.0711119808229892    0.3625948879411596 T T T Ba
   0.0000000000000000    0.5711119808229891    0.4625948879411595 F F F Ba
   0.0000000000000000    0.0000000000000000    0.4611111111111111 F F F Ba
   0.0000000000000000    0.5000000000000000    0.3611111111111112 T T T Ba
   0.0000000000000000    0.4288880191770107    0.4596273342810627 F F F Ba
   0.0000000000000000    0.9288880191770107    0.3596273342810626 T T T Ba
   0.5000000000000000    0.5711119808229891    0.4625948879411595 F F F Ba
   0.5000000000000000    0.0711119808229892    0.3625948879411596 T T T Ba
   0.5000000000000000    0.4999999999999999    0.3611111111111112 T T T Ba
   0.5000000000000000    0.0000000000000000    0.4611111111111111 F F F Ba
   0.5000000000000000    0.3346788630337549    0.3883438602739080 T T T Cd
   0.5000000000000000    0.8346788630337548    0.2883438602739080 T T T Cd
   0.0000000000000000    0.1653211369662451    0.4338783619483142 F F F Cd
   0.0000000000000000    0.6653211369662451    0.3338783619483142 T T T Cd
   0.0000000000000000    0.3346788630337550    0.3883438602739080 T T T Cd
   0.0000000000000000    0.8346788630337548    0.2883438602739080 T T T Cd
   0.5000000000000000    0.6653211369662451    0.3338783619483142 T T T Cd
   0.5000000000000000    0.1653211369662451    0.4338783619483142 F F F Cd
   0.5000000000000000    0.3966704032523864    0.3434113040202487 T T T As
   0.5000000000000000    0.8966704032523864    0.4434113040202487 F F F As
   0.0000000000000000    0.1033295967476135    0.4788109182019735 F F F As
   0.0000000000000000    0.6033295967476134    0.3788109182019735 T T T As
   0.5000000000000000    0.2526794673189272    0.3453695779349016 T T T As
   0.5000000000000000    0.7526794673189272    0.4453695779349016 F F F As
   0.0000000000000000    0.2473205326810728    0.4768526442873207 F F F As
   0.0000000000000000    0.7473205326810728    0.3768526442873207 T T T As
   0.0000000000000000    0.3966704032523864    0.3434113040202487 T T T As
   0.0000000000000000    0.8966704032523863    0.4434113040202488 F F F As
   0.5000000000000000    0.6033295967476136    0.3788109182019735 T T T As
   0.5000000000000000    0.1033295967476136    0.4788109182019735 F F F As
   0.0000000000000000    0.2526794673189272    0.3453695779349016 T T T As
   0.0000000000000000    0.7526794673189272    0.4453695779349016 F F F As
   0.5000000000000000    0.7473205326810728    0.3768526442873207 T T T As
   0.5000000000000000    0.2473205326810728    0.4768526442873207 F F F As
   0.5000000000000000    0.4288880191770108    0.6596273342810627 T T T Ba
   0.5000000000000000    0.9288880191770107    0.5596273342810627 F F F Ba
   0.0000000000000000    0.0711119808229892    0.5625948879411595 F F F Ba
   0.0000000000000000    0.5711119808229891    0.6625948879411596 T T T Ba
   0.0000000000000000    0.0000000000000000    0.6611111111111112 T T T Ba
   0.0000000000000000    0.5000000000000000    0.5611111111111111 F F F Ba
   0.0000000000000000    0.4288880191770107    0.6596273342810627 T T T Ba
   0.0000000000000000    0.9288880191770107    0.5596273342810627 F F F Ba
   0.5000000000000000    0.5711119808229891    0.6625948879411596 T T T Ba
   0.5000000000000000    0.0711119808229892    0.5625948879411595 F F F Ba
   0.5000000000000000    0.4999999999999999    0.5611111111111111 F F F Ba
   0.5000000000000000    0.0000000000000000    0.6611111111111112 T T T Ba
   0.5000000000000000    0.3346788630337549    0.5883438602739081 T T T Cd
   0.5000000000000000    0.8346788630337548    0.4883438602739080 F F F Cd
   0.0000000000000000    0.1653211369662451    0.6338783619483142 T T T Cd
   0.0000000000000000    0.6653211369662451    0.5338783619483143 F F F Cd
   0.0000000000000000    0.3346788630337550    0.5883438602739079 T T T Cd
   0.0000000000000000    0.8346788630337548    0.4883438602739080 F F F Cd
   0.5000000000000000    0.6653211369662451    0.5338783619483143 F F F Cd
   0.5000000000000000    0.1653211369662451    0.6338783619483142 T T T Cd
   0.5000000000000000    0.3966704032523864    0.5434113040202487 F F F As
   0.5000000000000000    0.8966704032523864    0.6434113040202487 T T T As
   0.0000000000000000    0.1033295967476135    0.6788109182019735 T T T As
   0.0000000000000000    0.6033295967476134    0.5788109182019736 T T T As
   0.5000000000000000    0.2526794673189272    0.5453695779349016 F F F As
   0.5000000000000000    0.7526794673189272    0.6453695779349016 T T T As
   0.0000000000000000    0.2473205326810728    0.6768526442873206 T T T As
   0.0000000000000000    0.7473205326810728    0.5768526442873207 T T T As
   0.0000000000000000    0.3966704032523864    0.5434113040202487 F F F As
   0.0000000000000000    0.8966704032523863    0.6434113040202487 T T T As
   0.5000000000000000    0.6033295967476136    0.5788109182019736 T T T As
   0.5000000000000000    0.1033295967476136    0.6788109182019735 T T T As
   0.0000000000000000    0.2526794673189272    0.5453695779349016 F F F As
   0.0000000000000000    0.7526794673189272    0.6453695779349016 T T T As
   0.5000000000000000    0.7473205326810728    0.5768526442873207 T T T As
   0.5000000000000000    0.2473205326810728    0.6768526442873207 T T T As
