Sc24 Ga48 Ni24
1.0
  19.2426407867439693    0.0000000000000000   -4.0429187518863037
   0.0000000000000010    6.4765110523618015   -4.0429187518863028
   0.0000000000000000    0.0000000000000000   32.3433500150904223
Sc Ga Ni Sc Ga Ni Sc Ga Ni
8 16 8 8 16 8 8 16 8
Selective dynamics
direct
   0.0373892981706518    0.2500000000000000    0.3406111622713315 T T T Sc
   0.5373892981706518    0.2500000000000000    0.4031111622713315 T T T Sc
   0.2126107018293482    0.7500000000000000    0.3625138377286685 T T T Sc
   0.7126107018293483    0.7500000000000000    0.4250138377286685 T T T Sc
   0.2873892981706518    0.2500000000000000    0.4343611622713315 F F F Sc
   0.7873892981706518    0.2500000000000000    0.3718611622713315 T T T Sc
   0.4626107018293482    0.7499999999999999    0.3312638377286685 T T T Sc
   0.9626107018293482    0.7500000000000000    0.3937638377286685 T T T Sc
   0.1813947016926178    0.4507410426121368    0.3837044680380943 T T T Ga
   0.6813947016926178    0.4507410426121368    0.3212044680380943 T T T Ga
   0.0686052983073822    0.5492589573878631    0.3194205319619057 T T T Ga
   0.5686052983073823    0.5492589573878631    0.3819205319619057 T T T Ga
   0.0686052983073822    0.9507410426121367    0.3696057926149399 T T T Ga
   0.5686052983073823    0.9507410426121368    0.4321057926149399 F F F Ga
   0.1813947016926178    0.0492589573878632    0.3335192073850601 T T T Ga
   0.6813947016926178    0.0492589573878632    0.3960192073850601 T T T Ga
   0.4313947016926179    0.4507410426121368    0.3524544680380944 T T T Ga
   0.9313947016926180    0.4507410426121367    0.4149544680380944 T T T Ga
   0.3186052983073822    0.5492589573878632    0.4131705319619057 T T T Ga
   0.8186052983073822    0.5492589573878631    0.3506705319619057 T T T Ga
   0.3186052983073822    0.9507410426121367    0.3383557926149399 T T T Ga
   0.8186052983073822    0.9507410426121367    0.4008557926149399 T T T Ga
   0.4313947016926179    0.0492589573878632    0.4272692073850601 T T T Ga
   0.9313947016926180    0.0492589573878632    0.3647692073850602 T T T Ga
   0.1465664756177816    0.2500000000000000    0.4167583094522227 T T T Ni
   0.6465664756177816    0.2500000000000000    0.3542583094522227 T T T Ni
   0.1034335243822184    0.7500000000000000    0.4113666905477773 T T T Ni
   0.6034335243822184    0.7500000000000000    0.3488666905477773 T T T Ni
   0.3965664756177816    0.2500000000000000    0.3855083094522227 T T T Ni
   0.8965664756177816    0.2500000000000000    0.3230083094522227 T T T Ni
   0.3534335243822184    0.7499999999999999    0.3801166905477773 T T T Ni
   0.8534335243822183    0.7500000000000000    0.3176166905477773 T T T Ni
   0.0373892981706518    0.2500000000000000    0.4656111622713315 F F F Sc
   0.5373892981706518    0.2500000000000000    0.5281111622713315 F F F Sc
   0.2126107018293482    0.7500000000000000    0.4875138377286685 F F F Sc
   0.7126107018293483    0.7500000000000000    0.5500138377286685 F F F Sc
   0.2873892981706518    0.2500000000000000    0.5593611622713315 F F F Sc
   0.7873892981706518    0.2500000000000000    0.4968611622713315 F F F Sc
   0.4626107018293482    0.7499999999999999    0.4562638377286685 F F F Sc
   0.9626107018293482    0.7500000000000000    0.5187638377286685 F F F Sc
   0.1813947016926178    0.4507410426121368    0.5087044680380943 F F F Ga
   0.6813947016926178    0.4507410426121368    0.4462044680380943 F F F Ga
   0.0686052983073822    0.5492589573878631    0.4444205319619057 F F F Ga
   0.5686052983073823    0.5492589573878631    0.5069205319619057 F F F Ga
   0.0686052983073822    0.9507410426121367    0.4946057926149399 F F F Ga
   0.5686052983073823    0.9507410426121368    0.5571057926149399 F F F Ga
   0.1813947016926178    0.0492589573878632    0.4585192073850601 F F F Ga
   0.6813947016926178    0.0492589573878632    0.5210192073850601 F F F Ga
   0.4313947016926179    0.4507410426121368    0.4774544680380944 F F F Ga
   0.9313947016926180    0.4507410426121367    0.5399544680380943 F F F Ga
   0.3186052983073822    0.5492589573878632    0.5381705319619057 F F F Ga
   0.8186052983073822    0.5492589573878631    0.4756705319619057 F F F Ga
   0.3186052983073822    0.9507410426121367    0.4633557926149399 F F F Ga
   0.8186052983073822    0.9507410426121367    0.5258557926149399 F F F Ga
   0.4313947016926179    0.0492589573878632    0.5522692073850601 F F F Ga
   0.9313947016926180    0.0492589573878632    0.4897692073850602 F F F Ga
   0.1465664756177816    0.2500000000000000    0.5417583094522227 F F F Ni
   0.6465664756177816    0.2500000000000000    0.4792583094522227 F F F Ni
   0.1034335243822184    0.7500000000000000    0.5363666905477773 F F F Ni
   0.6034335243822184    0.7500000000000000    0.4738666905477773 F F F Ni
   0.3965664756177816    0.2500000000000000    0.5105083094522227 F F F Ni
   0.8965664756177816    0.2500000000000000    0.4480083094522227 F F F Ni
   0.3534335243822184    0.7499999999999999    0.5051166905477773 F F F Ni
   0.8534335243822183    0.7500000000000000    0.4426166905477773 F F F Ni
   0.0373892981706518    0.2500000000000000    0.5906111622713315 T T T Sc
   0.5373892981706518    0.2500000000000000    0.6531111622713315 T T T Sc
   0.2126107018293482    0.7500000000000000    0.6125138377286685 T T T Sc
   0.7126107018293483    0.7500000000000000    0.6750138377286685 T T T Sc
   0.2873892981706518    0.2500000000000000    0.6843611622713315 T T T Sc
   0.7873892981706518    0.2500000000000000    0.6218611622713315 T T T Sc
   0.4626107018293482    0.7499999999999999    0.5812638377286685 T T T Sc
   0.9626107018293482    0.7500000000000000    0.6437638377286685 T T T Sc
   0.1813947016926178    0.4507410426121368    0.6337044680380943 T T T Ga
   0.6813947016926178    0.4507410426121368    0.5712044680380943 F F F Ga
   0.0686052983073822    0.5492589573878631    0.5694205319619057 F F F Ga
   0.5686052983073823    0.5492589573878631    0.6319205319619057 T T T Ga
   0.0686052983073822    0.9507410426121367    0.6196057926149399 T T T Ga
   0.5686052983073823    0.9507410426121368    0.6821057926149399 T T T Ga
   0.1813947016926178    0.0492589573878632    0.5835192073850601 T T T Ga
   0.6813947016926178    0.0492589573878632    0.6460192073850601 T T T Ga
   0.4313947016926179    0.4507410426121368    0.6024544680380943 T T T Ga
   0.9313947016926180    0.4507410426121367    0.6649544680380943 T T T Ga
   0.3186052983073822    0.5492589573878632    0.6631705319619057 T T T Ga
   0.8186052983073822    0.5492589573878631    0.6006705319619057 T T T Ga
   0.3186052983073822    0.9507410426121367    0.5883557926149399 T T T Ga
   0.8186052983073822    0.9507410426121367    0.6508557926149399 T T T Ga
   0.4313947016926179    0.0492589573878632    0.6772692073850601 T T T Ga
   0.9313947016926180    0.0492589573878632    0.6147692073850601 T T T Ga
   0.1465664756177816    0.2500000000000000    0.6667583094522227 T T T Ni
   0.6465664756177816    0.2500000000000000    0.6042583094522227 T T T Ni
   0.1034335243822184    0.7500000000000000    0.6613666905477773 T T T Ni
   0.6034335243822184    0.7500000000000000    0.5988666905477773 T T T Ni
   0.3965664756177816    0.2500000000000000    0.6355083094522227 T T T Ni
   0.8965664756177816    0.2500000000000000    0.5730083094522227 F F F Ni
   0.3534335243822184    0.7499999999999999    0.6301166905477773 T T T Ni
   0.8534335243822183    0.7500000000000000    0.5676166905477773 F F F Ni
