Sc24 Ga48 Ni24
1.0
   9.6213203933719846    0.0000000000000000    0.0000000000000006
   0.0000000000000021   12.9530221047236047   -4.0429187518863019
   0.0000000000000000    0.0000000000000000   28.3004312632041177
Sc Ga Ni Sc Ga Ni Sc Ga Ni
8 16 8 8 16 8 8 16 8
Selective dynamics
direct
   0.0747785963413037    0.1250000000000000    0.3035714285714285 T T T Sc
   0.0747785963413037    0.6249999999999999    0.3750000000000000 T T T Sc
   0.4252214036586964    0.3749999999999999    0.4107142857142857 F F F Sc
   0.4252214036586964    0.8750000000000000    0.3392857142857142 T T T Sc
   0.5747785963413037    0.1250000000000000    0.3750000000000000 T T T Sc
   0.5747785963413037    0.6250000000000000    0.3035714285714285 T T T Sc
   0.9252214036586963    0.3750000000000000    0.3392857142857142 T T T Sc
   0.9252214036586963    0.8750000000000000    0.4107142857142857 F F F Sc
   0.3627894033852357    0.2253705213060684    0.3179100744722955 T T T Ga
   0.3627894033852357    0.7253705213060684    0.3893386459008669 T T T Ga
   0.1372105966147643    0.2746294786939316    0.3963756398134188 T T T Ga
   0.1372105966147643    0.7746294786939315    0.3249470683848473 T T T Ga
   0.1372105966147643    0.4753705213060683    0.4250529316151526 F F F Ga
   0.1372105966147643    0.9753705213060683    0.3536243601865812 T T T Ga
   0.3627894033852357    0.0246294786939316    0.2892327826705616 T T T Ga
   0.3627894033852357    0.5246294786939316    0.3606613540991331 T T T Ga
   0.8627894033852358    0.2253705213060684    0.3893386459008669 T T T Ga
   0.8627894033852358    0.7253705213060684    0.3179100744722955 T T T Ga
   0.6372105966147643    0.2746294786939316    0.3249470683848474 T T T Ga
   0.6372105966147643    0.7746294786939316    0.3963756398134188 T T T Ga
   0.6372105966147643    0.4753705213060683    0.3536243601865812 T T T Ga
   0.6372105966147643    0.9753705213060683    0.4250529316151526 F F F Ga
   0.8627894033852358    0.0246294786939316    0.3606613540991331 T T T Ga
   0.8627894033852358    0.5246294786939315    0.2892327826705616 T T T Ga
   0.2931329512355632    0.1250000000000000    0.3750000000000000 T T T Ni
   0.2931329512355632    0.6249999999999999    0.3035714285714285 T T T Ni
   0.2068670487644368    0.3750000000000000    0.3392857142857142 T T T Ni
   0.2068670487644368    0.8750000000000000    0.4107142857142857 F F F Ni
   0.7931329512355633    0.1250000000000000    0.3035714285714285 T T T Ni
   0.7931329512355633    0.6250000000000000    0.3750000000000000 T T T Ni
   0.7068670487644368    0.3749999999999999    0.4107142857142857 F F F Ni
   0.7068670487644368    0.8749999999999999    0.3392857142857142 T T T Ni
   0.0747785963413037    0.1250000000000000    0.4464285714285714 F F F Sc
   0.0747785963413037    0.6249999999999999    0.5178571428571428 F F F Sc
   0.4252214036586964    0.3749999999999999    0.5535714285714286 F F F Sc
   0.4252214036586964    0.8750000000000000    0.4821428571428571 F F F Sc
   0.5747785963413037    0.1250000000000000    0.5178571428571428 F F F Sc
   0.5747785963413037    0.6250000000000000    0.4464285714285714 F F F Sc
   0.9252214036586963    0.3750000000000000    0.4821428571428571 F F F Sc
   0.9252214036586963    0.8750000000000000    0.5535714285714286 F F F Sc
   0.3627894033852357    0.2253705213060684    0.4607672173294383 F F F Ga
   0.3627894033852357    0.7253705213060684    0.5321957887580098 F F F Ga
   0.1372105966147643    0.2746294786939316    0.5392327826705616 F F F Ga
   0.1372105966147643    0.7746294786939315    0.4678042112419902 F F F Ga
   0.1372105966147643    0.4753705213060683    0.5679100744722955 F F F Ga
   0.1372105966147643    0.9753705213060683    0.4964815030437240 F F F Ga
   0.3627894033852357    0.0246294786939316    0.4320899255277045 F F F Ga
   0.3627894033852357    0.5246294786939316    0.5035184969562759 F F F Ga
   0.8627894033852358    0.2253705213060684    0.5321957887580098 F F F Ga
   0.8627894033852358    0.7253705213060684    0.4607672173294383 F F F Ga
   0.6372105966147643    0.2746294786939316    0.4678042112419902 F F F Ga
   0.6372105966147643    0.7746294786939316    0.5392327826705616 F F F Ga
   0.6372105966147643    0.4753705213060683    0.4964815030437240 F F F Ga
   0.6372105966147643    0.9753705213060683    0.5679100744722955 F F F Ga
   0.8627894033852358    0.0246294786939316    0.5035184969562759 F F F Ga
   0.8627894033852358    0.5246294786939315    0.4320899255277045 F F F Ga
   0.2931329512355632    0.1250000000000000    0.5178571428571428 F F F Ni
   0.2931329512355632    0.6249999999999999    0.4464285714285714 F F F Ni
   0.2068670487644368    0.3750000000000000    0.4821428571428571 F F F Ni
   0.2068670487644368    0.8750000000000000    0.5535714285714286 F F F Ni
   0.7931329512355633    0.1250000000000000    0.4464285714285714 F F F Ni
   0.7931329512355633    0.6250000000000000    0.5178571428571428 F F F Ni
   0.7068670487644368    0.3749999999999999    0.5535714285714286 F F F Ni
   0.7068670487644368    0.8749999999999999    0.4821428571428571 F F F Ni
   0.0747785963413037    0.1250000000000000    0.5892857142857142 F F F Sc
   0.0747785963413037    0.6249999999999999    0.6607142857142857 T T T Sc
   0.4252214036586964    0.3749999999999999    0.6964285714285714 T T T Sc
   0.4252214036586964    0.8750000000000000    0.6250000000000000 T T T Sc
   0.5747785963413037    0.1250000000000000    0.6607142857142857 T T T Sc
   0.5747785963413037    0.6250000000000000    0.5892857142857142 F F F Sc
   0.9252214036586963    0.3750000000000000    0.6250000000000000 T T T Sc
   0.9252214036586963    0.8750000000000000    0.6964285714285714 T T T Sc
   0.3627894033852357    0.2253705213060684    0.6036243601865812 T T T Ga
   0.3627894033852357    0.7253705213060684    0.6750529316151526 T T T Ga
   0.1372105966147643    0.2746294786939316    0.6820899255277044 T T T Ga
   0.1372105966147643    0.7746294786939315    0.6106613540991330 T T T Ga
   0.1372105966147643    0.4753705213060683    0.7107672173294383 T T T Ga
   0.1372105966147643    0.9753705213060683    0.6393386459008669 T T T Ga
   0.3627894033852357    0.0246294786939316    0.5749470683848473 F F F Ga
   0.3627894033852357    0.5246294786939316    0.6463756398134188 T T T Ga
   0.8627894033852358    0.2253705213060684    0.6750529316151526 T T T Ga
   0.8627894033852358    0.7253705213060684    0.6036243601865812 T T T Ga
   0.6372105966147643    0.2746294786939316    0.6106613540991330 T T T Ga
   0.6372105966147643    0.7746294786939316    0.6820899255277044 T T T Ga
   0.6372105966147643    0.4753705213060683    0.6393386459008669 T T T Ga
   0.6372105966147643    0.9753705213060683    0.7107672173294383 T T T Ga
   0.8627894033852358    0.0246294786939316    0.6463756398134188 T T T Ga
   0.8627894033852358    0.5246294786939315    0.5749470683848473 F F F Ga
   0.2931329512355632    0.1250000000000000    0.6607142857142857 T T T Ni
   0.2931329512355632    0.6249999999999999    0.5892857142857142 F F F Ni
   0.2068670487644368    0.3750000000000000    0.6250000000000000 T T T Ni
   0.2068670487644368    0.8750000000000000    0.6964285714285714 T T T Ni
   0.7931329512355633    0.1250000000000000    0.5892857142857142 F F F Ni
   0.7931329512355633    0.6250000000000000    0.6607142857142857 T T T Ni
   0.7068670487644368    0.3749999999999999    0.6964285714285714 T T T Ni
   0.7068670487644368    0.8749999999999999    0.6250000000000000 T T T Ni
