Be48 Cu24 Ir24
1.0
   5.5090586155506927    0.0000000000000000   -5.5090586155506918
   0.0000000000000018   11.0181172311013853   -5.5090586155506927
   0.0000000000000000    0.0000000000000000   44.0724689244055412
Be Cu Ir Be Cu Ir Be Cu Ir
16 8 8 16 8 8 16 8 8
Selective dynamics
direct
   0.2500000000000000    0.3750000000000000    0.4140625000000000 T T T Be
   0.2500000000000000    0.8750000000000000    0.3515625000000000 T T T Be
   0.7500000000000000    0.3750000000000000    0.3515625000000000 T T T Be
   0.7500000000000000    0.8750000000000000    0.4140625000000000 T T T Be
   0.7500000000000000    0.1250000000000001    0.3203125000000000 T T T Be
   0.7500000000000000    0.6250000000000000    0.3828125000000000 T T T Be
   0.2500000000000000    0.1250000000000000    0.3828125000000000 T T T Be
   0.2500000000000000    0.6250000000000000    0.3203125000000000 T T T Be
   0.2500000000000000    0.1250000000000000    0.3203125000000000 T T T Be
   0.2500000000000000    0.6250000000000000    0.3828125000000000 T T T Be
   0.7500000000000000    0.1250000000000001    0.3828125000000000 T T T Be
   0.7500000000000000    0.6250000000000000    0.3203125000000000 T T T Be
   0.7500000000000000    0.3750000000000001    0.4140625000000000 T T T Be
   0.7500000000000000    0.8750000000000001    0.3515625000000000 T T T Be
   0.2500000000000000    0.3750000000000000    0.3515625000000000 T T T Be
   0.2500000000000000    0.8750000000000000    0.4140625000000000 T T T Be
   0.0000000000000000    0.0000000000000000    0.3671875000000000 T T T Cu
   0.0000000000000000    0.5000000000000000    0.4296875000000000 F F F Cu
   0.5000000000000000    0.2500000000000001    0.3359375000000000 T T T Cu
   0.5000000000000000    0.7500000000000000    0.3984375000000000 T T T Cu
   0.0000000000000000    0.2500000000000000    0.3359375000000000 T T T Cu
   0.0000000000000000    0.7500000000000000    0.3984375000000000 T T T Cu
   0.5000000000000000    0.0000000000000000    0.3671875000000000 T T T Cu
   0.5000000000000000    0.5000000000000000    0.4296875000000000 F F F Cu
   0.0000000000000000    0.0000000000000000    0.4296875000000000 F F F Ir
   0.0000000000000000    0.5000000000000000    0.3671875000000000 T T T Ir
   0.5000000000000000    0.2500000000000000    0.3984375000000000 T T T Ir
   0.5000000000000000    0.7500000000000000    0.3359375000000000 T T T Ir
   0.0000000000000000    0.2500000000000000    0.3984375000000000 T T T Ir
   0.0000000000000000    0.7500000000000000    0.3359375000000000 T T T Ir
   0.5000000000000000    0.0000000000000000    0.4296875000000000 F F F Ir
   0.5000000000000000    0.5000000000000000    0.3671875000000000 T T T Ir
   0.2500000000000000    0.3750000000000000    0.5390625000000000 F F F Be
   0.2500000000000000    0.8750000000000000    0.4765625000000000 F F F Be
   0.7500000000000000    0.3750000000000000    0.4765625000000000 F F F Be
   0.7500000000000000    0.8750000000000000    0.5390625000000000 F F F Be
   0.7500000000000000    0.1250000000000001    0.4453125000000000 F F F Be
   0.7500000000000000    0.6250000000000000    0.5078125000000000 F F F Be
   0.2500000000000000    0.1250000000000000    0.5078125000000000 F F F Be
   0.2500000000000000    0.6250000000000000    0.4453125000000000 F F F Be
   0.2500000000000000    0.1250000000000000    0.4453125000000000 F F F Be
   0.2500000000000000    0.6250000000000000    0.5078125000000000 F F F Be
   0.7500000000000000    0.1250000000000001    0.5078125000000000 F F F Be
   0.7500000000000000    0.6250000000000000    0.4453125000000000 F F F Be
   0.7500000000000000    0.3750000000000001    0.5390625000000000 F F F Be
   0.7500000000000000    0.8750000000000001    0.4765625000000000 F F F Be
   0.2500000000000000    0.3750000000000000    0.4765625000000000 F F F Be
   0.2500000000000000    0.8750000000000000    0.5390625000000000 F F F Be
   0.0000000000000000    0.0000000000000000    0.4921875000000000 F F F Cu
   0.0000000000000000    0.5000000000000000    0.5546875000000000 F F F Cu
   0.5000000000000000    0.2500000000000001    0.4609375000000000 F F F Cu
   0.5000000000000000    0.7500000000000000    0.5234375000000000 F F F Cu
   0.0000000000000000    0.2500000000000000    0.4609375000000000 F F F Cu
   0.0000000000000000    0.7500000000000000    0.5234375000000000 F F F Cu
   0.5000000000000000    0.0000000000000000    0.4921875000000000 F F F Cu
   0.5000000000000000    0.5000000000000000    0.5546875000000000 F F F Cu
   0.0000000000000000    0.0000000000000000    0.5546875000000000 F F F Ir
   0.0000000000000000    0.5000000000000000    0.4921875000000000 F F F Ir
   0.5000000000000000    0.2500000000000000    0.5234375000000000 F F F Ir
   0.5000000000000000    0.7500000000000000    0.4609375000000000 F F F Ir
   0.0000000000000000    0.2500000000000000    0.5234375000000000 F F F Ir
   0.0000000000000000    0.7500000000000000    0.4609375000000000 F F F Ir
   0.5000000000000000    0.0000000000000000    0.5546875000000000 F F F Ir
   0.5000000000000000    0.5000000000000000    0.4921875000000000 F F F Ir
   0.2500000000000000    0.3750000000000000    0.6640625000000000 T T T Be
   0.2500000000000000    0.8750000000000000    0.6015625000000000 T T T Be
   0.7500000000000000    0.3750000000000000    0.6015625000000000 T T T Be
   0.7500000000000000    0.8750000000000000    0.6640625000000000 T T T Be
   0.7500000000000000    0.1250000000000001    0.5703125000000000 F F F Be
   0.7500000000000000    0.6250000000000000    0.6328125000000000 T T T Be
   0.2500000000000000    0.1250000000000000    0.6328125000000000 T T T Be
   0.2500000000000000    0.6250000000000000    0.5703125000000000 F F F Be
   0.2500000000000000    0.1250000000000000    0.5703125000000000 F F F Be
   0.2500000000000000    0.6250000000000000    0.6328125000000000 T T T Be
   0.7500000000000000    0.1250000000000001    0.6328125000000000 T T T Be
   0.7500000000000000    0.6250000000000000    0.5703125000000000 F F F Be
   0.7500000000000000    0.3750000000000001    0.6640625000000000 T T T Be
   0.7500000000000000    0.8750000000000001    0.6015625000000000 T T T Be
   0.2500000000000000    0.3750000000000000    0.6015625000000000 T T T Be
   0.2500000000000000    0.8750000000000000    0.6640625000000000 T T T Be
   0.0000000000000000    0.0000000000000000    0.6171875000000000 T T T Cu
   0.0000000000000000    0.5000000000000000    0.6796875000000000 T T T Cu
   0.5000000000000000    0.2500000000000001    0.5859375000000000 T T T Cu
   0.5000000000000000    0.7500000000000000    0.6484375000000000 T T T Cu
   0.0000000000000000    0.2500000000000000    0.5859375000000000 T T T Cu
   0.0000000000000000    0.7500000000000000    0.6484375000000000 T T T Cu
   0.5000000000000000    0.0000000000000000    0.6171875000000000 T T T Cu
   0.5000000000000000    0.5000000000000000    0.6796875000000000 T T T Cu
   0.0000000000000000    0.0000000000000000    0.6796875000000000 T T T Ir
   0.0000000000000000    0.5000000000000000    0.6171875000000000 T T T Ir
   0.5000000000000000    0.2500000000000000    0.6484375000000000 T T T Ir
   0.5000000000000000    0.7500000000000000    0.5859375000000000 T T T Ir
   0.0000000000000000    0.2500000000000000    0.6484375000000000 T T T Ir
   0.0000000000000000    0.7500000000000000    0.5859375000000000 T T T Ir
   0.5000000000000000    0.0000000000000000    0.6796875000000000 T T T Ir
   0.5000000000000000    0.5000000000000000    0.6171875000000000 T T T Ir
