Zr16 Sn16 Pd16
1.0
   6.3898161254978163    0.0000000000000000    0.0000000000000004
   0.0000000000000021   12.7796322509956308   -6.3898161254978154
   0.0000000000000000    0.0000000000000000   31.9490806274890815
Zr Sn Pd Zr Sn Pd
8 8 8 8 8 8
Selective dynamics
direct
   0.0000000000000000    0.5000000000000000    0.4833333333333333 F F F Zr
   0.0000000000000000    0.0000000000000000    0.3833333333333333 T T T Zr
   0.5000000000000000    0.2500000000000000    0.4333333333333333 F F F Zr
   0.5000000000000000    0.7500000000000000    0.3333333333333333 T T T Zr
   0.5000000000000000    0.5000000000000000    0.3833333333333333 T T T Zr
   0.5000000000000000    0.0000000000000000    0.4833333333333333 F F F Zr
   0.0000000000000000    0.2500000000000000    0.3333333333333333 T T T Zr
   0.0000000000000000    0.7500000000000000    0.4333333333333333 F F F Zr
   0.0000000000000000    0.5000000000000000    0.3833333333333333 T T T Sn
   0.0000000000000000    0.0000000000000000    0.4833333333333333 F F F Sn
   0.5000000000000000    0.2500000000000000    0.3333333333333333 T T T Sn
   0.5000000000000000    0.7500000000000000    0.4333333333333333 F F F Sn
   0.5000000000000000    0.5000000000000000    0.4833333333333333 F F F Sn
   0.5000000000000000    0.0000000000000000    0.3833333333333333 T T T Sn
   0.0000000000000000    0.2500000000000000    0.4333333333333333 F F F Sn
   0.0000000000000000    0.7500000000000000    0.3333333333333333 T T T Sn
   0.2500000000000000    0.1250000000000000    0.4583333333333333 F F F Pd
   0.2500000000000001    0.6250000000000000    0.3583333333333333 T T T Pd
   0.7500000000000000    0.3750000000000000    0.3083333333333333 T T T Pd
   0.7500000000000000    0.8750000000000000    0.4083333333333333 T T T Pd
   0.7500000000000000    0.1250000000000000    0.3583333333333333 T T T Pd
   0.7500000000000000    0.6250000000000000    0.4583333333333333 F F F Pd
   0.2500000000000000    0.3750000000000000    0.4083333333333333 T T T Pd
   0.2500000000000001    0.8750000000000000    0.3083333333333333 T T T Pd
   0.0000000000000000    0.5000000000000000    0.6833333333333333 T T T Zr
   0.0000000000000000    0.0000000000000000    0.5833333333333333 T T T Zr
   0.5000000000000000    0.2500000000000000    0.6333333333333333 T T T Zr
   0.5000000000000000    0.7500000000000000    0.5333333333333333 F F F Zr
   0.5000000000000000    0.5000000000000000    0.5833333333333333 T T T Zr
   0.5000000000000000    0.0000000000000000    0.6833333333333333 T T T Zr
   0.0000000000000000    0.2500000000000000    0.5333333333333332 F F F Zr
   0.0000000000000000    0.7500000000000000    0.6333333333333333 T T T Zr
   0.0000000000000000    0.5000000000000000    0.5833333333333333 T T T Sn
   0.0000000000000000    0.0000000000000000    0.6833333333333333 T T T Sn
   0.5000000000000000    0.2500000000000000    0.5333333333333332 F F F Sn
   0.5000000000000000    0.7500000000000000    0.6333333333333333 T T T Sn
   0.5000000000000000    0.5000000000000000    0.6833333333333333 T T T Sn
   0.5000000000000000    0.0000000000000000    0.5833333333333333 T T T Sn
   0.0000000000000000    0.2500000000000000    0.6333333333333333 T T T Sn
   0.0000000000000000    0.7500000000000000    0.5333333333333333 F F F Sn
   0.2500000000000000    0.1250000000000000    0.6583333333333333 T T T Pd
   0.2500000000000001    0.6250000000000000    0.5583333333333333 F F F Pd
   0.7500000000000000    0.3750000000000000    0.5083333333333333 F F F Pd
   0.7500000000000000    0.8750000000000000    0.6083333333333333 T T T Pd
   0.7500000000000000    0.1250000000000000    0.5583333333333333 F F F Pd
   0.7500000000000000    0.6250000000000000    0.6583333333333333 T T T Pd
   0.2500000000000000    0.3750000000000000    0.6083333333333333 T T T Pd
   0.2500000000000001    0.8750000000000000    0.5083333333333333 F F F Pd
