Zr12 Ga12 Au12
1.0
   3.7889830438581154    0.0000000000000000   -2.1875703803264095
  -0.0000000000000008   13.5954164254433394   -4.3751407606528190
   0.0000000000000000    0.0000000000000000   35.0011260852225661
Zr Ga Au Zr Ga Au Zr Ga Au
4 4 4 4 4 4 4 4 4
Selective dynamics
direct
   0.0000000000000000    0.2500000000000000    0.3385416666666667 T T T Zr
   0.0000000000000000    0.7500000000000000    0.4010416666666667 T T T Zr
   0.0000000000000000    0.0000000000000000    0.4322916666666667 F F F Zr
   0.0000000000000000    0.5000000000000000    0.3697916666666667 T T T Zr
   0.3333333333333333    0.1068931326459932    0.4039866415807492 T T T Ga
   0.3333333333333333    0.6068931326459932    0.3414866415807492 T T T Ga
   0.3333333333333333    0.3931068673540068    0.3147633584192509 T T T Ga
   0.3333333333333333    0.8931068673540068    0.3772633584192509 T T T Ga
   0.6666666666666666    0.3563746590345360    0.3935051657126504 T T T Au
   0.6666666666666666    0.8563746590345361    0.3310051657126504 T T T Au
   0.6666666666666667    0.1436253409654640    0.3669115009540164 T T T Au
   0.6666666666666667    0.6436253409654640    0.4294115009540164 F F F Au
   0.0000000000000000    0.2500000000000000    0.4635416666666667 F F F Zr
   0.0000000000000000    0.7500000000000000    0.5260416666666667 F F F Zr
   0.0000000000000000    0.0000000000000000    0.5572916666666667 F F F Zr
   0.0000000000000000    0.5000000000000000    0.4947916666666667 F F F Zr
   0.3333333333333333    0.1068931326459932    0.5289866415807492 F F F Ga
   0.3333333333333333    0.6068931326459932    0.4664866415807492 F F F Ga
   0.3333333333333333    0.3931068673540068    0.4397633584192509 F F F Ga
   0.3333333333333333    0.8931068673540068    0.5022633584192508 F F F Ga
   0.6666666666666666    0.3563746590345360    0.5185051657126504 F F F Au
   0.6666666666666666    0.8563746590345361    0.4560051657126504 F F F Au
   0.6666666666666667    0.1436253409654640    0.4919115009540164 F F F Au
   0.6666666666666667    0.6436253409654640    0.5544115009540164 F F F Au
   0.0000000000000000    0.2500000000000000    0.5885416666666667 T T T Zr
   0.0000000000000000    0.7500000000000000    0.6510416666666667 T T T Zr
   0.0000000000000000    0.0000000000000000    0.6822916666666667 T T T Zr
   0.0000000000000000    0.5000000000000000    0.6197916666666667 T T T Zr
   0.3333333333333333    0.1068931326459932    0.6539866415807492 T T T Ga
   0.3333333333333333    0.6068931326459932    0.5914866415807492 T T T Ga
   0.3333333333333333    0.3931068673540068    0.5647633584192508 F F F Ga
   0.3333333333333333    0.8931068673540068    0.6272633584192508 T T T Ga
   0.6666666666666666    0.3563746590345360    0.6435051657126504 T T T Au
   0.6666666666666666    0.8563746590345361    0.5810051657126504 T T T Au
   0.6666666666666667    0.1436253409654640    0.6169115009540163 T T T Au
   0.6666666666666667    0.6436253409654640    0.6794115009540163 T T T Au
