Hf4 Ga4 Au4
1.0
   4.3597084100814065    0.0000000000000000    0.0000000000000003
  -2.1798542050407028    3.7756182362231634    0.0000000000000003
   0.0000000000000000    0.0000000000000000   33.6367920578223902
Hf Ga Au Hf Ga Au
2 2 2 2 2 2
Selective dynamics
direct
   0.0000000000000000    0.0000000000000000    0.3500000000000000 T T T Hf
   0.0000000000000000    0.0000000000000000    0.4500000000000001 F F F Hf
   0.6666666666666666    0.3333333333333333    0.4919124512420979 F F F Ga
   0.6666666666666666    0.3333333333333333    0.4080875487579022 F F F Ga
   0.3333333333333334    0.6666666666666666    0.3922871422696859 T T T Au
   0.3333333333333333    0.6666666666666666    0.3077128577303142 T T T Au
   0.0000000000000000    0.0000000000000000    0.5500000000000000 F F F Hf
   0.0000000000000000    0.0000000000000000    0.6500000000000000 T T T Hf
   0.6666666666666666    0.3333333333333333    0.6919124512420980 T T T Ga
   0.6666666666666666    0.3333333333333333    0.6080875487579022 T T T Ga
   0.3333333333333334    0.6666666666666666    0.5922871422696858 F F F Au
   0.3333333333333333    0.6666666666666666    0.5077128577303143 F F F Au
