Ti16 Re8 Os8
1.0
   6.1948092719462009    0.0000000000000000   -3.0974046359731005
  -0.0000000000000004    6.2265091070580372   -3.0974046359731013
   0.0000000000000000    0.0000000000000000   30.9740463597310089
Ti Re Os Ti Re Os Ti Re Os Ti Re Os
4 2 2 4 2 2 4 2 2 4 2 2
Selective dynamics
direct
   0.2500000000000000    0.2493433805763204    0.3749343380576320 T T T Ti
   0.7500000000000000    0.2493433805763204    0.3249343380576320 T T T Ti
   0.2500000000000000    0.7506566194236797    0.3250656619423680 T T T Ti
   0.7500000000000000    0.7506566194236797    0.3750656619423680 T T T Ti
   0.0000000000000000    0.5000000000000000    0.3250000000000000 T T T Re
   0.5000000000000000    0.5000000000000000    0.3750000000000000 T T T Re
   0.0000000000000000    0.0000000000000000    0.3750000000000000 T T T Os
   0.5000000000000000    0.0000000000000000    0.3250000000000000 T T T Os
   0.2500000000000000    0.2493433805763204    0.4749343380576320 F F F Ti
   0.7500000000000000    0.2493433805763204    0.4249343380576320 T T T Ti
   0.2500000000000000    0.7506566194236797    0.4250656619423679 T T T Ti
   0.7500000000000000    0.7506566194236797    0.4750656619423680 F F F Ti
   0.0000000000000000    0.5000000000000000    0.4250000000000000 T T T Re
   0.5000000000000000    0.5000000000000000    0.4750000000000000 F F F Re
   0.0000000000000000    0.0000000000000000    0.4750000000000000 F F F Os
   0.5000000000000000    0.0000000000000000    0.4250000000000000 T T T Os
   0.2500000000000000    0.2493433805763204    0.5749343380576319 T T T Ti
   0.7500000000000000    0.2493433805763204    0.5249343380576320 F F F Ti
   0.2500000000000000    0.7506566194236797    0.5250656619423679 F F F Ti
   0.7500000000000000    0.7506566194236797    0.5750656619423680 T T T Ti
   0.0000000000000000    0.5000000000000000    0.5250000000000000 F F F Re
   0.5000000000000000    0.5000000000000000    0.5750000000000000 T T T Re
   0.0000000000000000    0.0000000000000000    0.5750000000000000 T T T Os
   0.5000000000000000    0.0000000000000000    0.5250000000000000 F F F Os
   0.2500000000000000    0.2493433805763204    0.6749343380576320 T T T Ti
   0.7500000000000000    0.2493433805763204    0.6249343380576320 T T T Ti
   0.2500000000000000    0.7506566194236797    0.6250656619423680 T T T Ti
   0.7500000000000000    0.7506566194236797    0.6750656619423679 T T T Ti
   0.0000000000000000    0.5000000000000000    0.6250000000000000 T T T Re
   0.5000000000000000    0.5000000000000000    0.6750000000000000 T T T Re
   0.0000000000000000    0.0000000000000000    0.6750000000000000 T T T Os
   0.5000000000000000    0.0000000000000000    0.6250000000000000 T T T Os
