Na64 Cd32 Pb32
1.0
  15.0292285779863484    0.0000000000000000   -7.5146142889931742
  -0.0000000000000043   15.0292285779863519   -7.5146142889931760
   0.0000000000000000    0.0000000000000000   37.5730714449658763
Na Cd Pb Na Cd Pb
32 16 16 32 16 16
Selective dynamics
direct
   0.8750000000000000    0.8750000000000001    0.4750000000000000 F F F Na
   0.3750000000000000    0.3750000000000001    0.4750000000000000 F F F Na
   0.3750000000000000    0.8750000000000001    0.3750000000000000 T T T Na
   0.8750000000000000    0.3750000000000001    0.3750000000000000 T T T Na
   0.5000000000000000    0.5000000000000000    0.3750000000000000 T T T Na
   0.0000000000000000    0.0000000000000000    0.3750000000000000 T T T Na
   0.0000000000000000    0.5000000000000000    0.4750000000000000 F F F Na
   0.5000000000000000    0.0000000000000001    0.4750000000000000 F F F Na
   0.6250000000000000    0.6250000000000000    0.3750000000000000 T T T Na
   0.1250000000000000    0.1250000000000000    0.3750000000000000 T T T Na
   0.1250000000000000    0.6250000000000000    0.4750000000000000 F F F Na
   0.6250000000000000    0.1250000000000001    0.4750000000000000 F F F Na
   0.7500000000000000    0.7500000000000000    0.4750000000000000 F F F Na
   0.2500000000000000    0.2500000000000001    0.4750000000000000 F F F Na
   0.2500000000000000    0.7500000000000000    0.3750000000000000 T T T Na
   0.7500000000000000    0.2500000000000001    0.3750000000000000 T T T Na
   0.8750000000000000    0.6250000000000000    0.3250000000000000 T T T Na
   0.3750000000000000    0.1250000000000001    0.3250000000000000 T T T Na
   0.3750000000000000    0.6250000000000001    0.4250000000000000 F F F Na
   0.8750000000000000    0.1250000000000001    0.4249999999999999 F F F Na
   0.5000000000000000    0.7500000000000000    0.3250000000000000 T T T Na
   0.0000000000000000    0.2500000000000000    0.3250000000000000 T T T Na
   0.0000000000000000    0.7500000000000000    0.4250000000000000 F F F Na
   0.5000000000000000    0.2500000000000001    0.4250000000000000 F F F Na
   0.6250000000000000    0.8750000000000001    0.3250000000000000 T T T Na
   0.1250000000000000    0.3750000000000001    0.3250000000000000 T T T Na
   0.1250000000000000    0.8750000000000001    0.4250000000000000 F F F Na
   0.6250000000000000    0.3750000000000002    0.4250000000000000 F F F Na
   0.7500000000000000    0.5000000000000000    0.3250000000000000 T T T Na
   0.2500000000000000    0.0000000000000000    0.3250000000000000 T T T Na
   0.2500000000000000    0.5000000000000000    0.4250000000000000 F F F Na
   0.7500000000000000    0.0000000000000001    0.4249999999999999 F F F Na
   0.6250000000000000    0.8750000000000000    0.4250000000000000 F F F Cd
   0.1250000000000000    0.3750000000000001    0.4250000000000000 F F F Cd
   0.1250000000000000    0.8750000000000001    0.3250000000000000 T T T Cd
   0.6250000000000000    0.3750000000000001    0.3250000000000000 T T T Cd
   0.8750000000000000    0.6250000000000000    0.4249999999999999 F F F Cd
   0.3750000000000000    0.1250000000000001    0.4250000000000000 F F F Cd
   0.3750000000000000    0.6250000000000000    0.3250000000000000 T T T Cd
   0.8750000000000000    0.1250000000000001    0.3250000000000000 T T T Cd
   0.6250000000000000    0.6250000000000000    0.4750000000000000 F F F Cd
   0.1250000000000000    0.1250000000000001    0.4750000000000000 F F F Cd
   0.1250000000000000    0.6250000000000001    0.3750000000000000 T T T Cd
   0.6250000000000000    0.1250000000000001    0.3750000000000000 T T T Cd
   0.8750000000000000    0.8750000000000001    0.3749999999999999 T T T Cd
   0.3750000000000000    0.3750000000000001    0.3750000000000000 T T T Cd
   0.3750000000000000    0.8750000000000001    0.4750000000000000 F F F Cd
   0.8750000000000000    0.3750000000000002    0.4750000000000000 F F F Cd
   0.5000000000000000    0.5000000000000000    0.4750000000000000 F F F Pb
   0.0000000000000000    0.0000000000000000    0.4750000000000000 F F F Pb
   0.0000000000000000    0.5000000000000000    0.3750000000000000 T T T Pb
   0.5000000000000000    0.0000000000000000    0.3750000000000000 T T T Pb
   0.7500000000000000    0.7500000000000000    0.3750000000000000 T T T Pb
   0.2500000000000000    0.2500000000000001    0.3750000000000000 T T T Pb
   0.2500000000000000    0.7500000000000000    0.4750000000000000 F F F Pb
   0.7500000000000000    0.2500000000000001    0.4750000000000000 F F F Pb
   0.5000000000000000    0.7500000000000000    0.4249999999999999 F F F Pb
   0.0000000000000000    0.2500000000000001    0.4250000000000000 F F F Pb
   0.0000000000000000    0.7500000000000000    0.3250000000000000 T T T Pb
   0.5000000000000000    0.2500000000000001    0.3250000000000000 T T T Pb
   0.7500000000000000    0.5000000000000001    0.4249999999999999 F F F Pb
   0.2500000000000000    0.0000000000000000    0.4250000000000000 F F F Pb
   0.2500000000000000    0.5000000000000001    0.3250000000000000 T T T Pb
   0.7500000000000000    0.0000000000000001    0.3250000000000000 T T T Pb
   0.8750000000000000    0.8750000000000001    0.6750000000000000 T T T Na
   0.3750000000000000    0.3750000000000001    0.6750000000000000 T T T Na
   0.3750000000000000    0.8750000000000001    0.5750000000000000 F F F Na
   0.8750000000000000    0.3750000000000001    0.5750000000000000 F F F Na
   0.5000000000000000    0.5000000000000000    0.5750000000000000 F F F Na
   0.0000000000000000    0.0000000000000000    0.5750000000000000 F F F Na
   0.0000000000000000    0.5000000000000000    0.6750000000000000 T T T Na
   0.5000000000000000    0.0000000000000001    0.6750000000000000 T T T Na
   0.6250000000000000    0.6250000000000000    0.5750000000000000 F F F Na
   0.1250000000000000    0.1250000000000000    0.5750000000000000 F F F Na
   0.1250000000000000    0.6250000000000000    0.6750000000000000 T T T Na
   0.6250000000000000    0.1250000000000001    0.6750000000000000 T T T Na
   0.7500000000000000    0.7500000000000000    0.6750000000000000 T T T Na
   0.2500000000000000    0.2500000000000001    0.6750000000000000 T T T Na
   0.2500000000000000    0.7500000000000000    0.5750000000000000 F F F Na
   0.7500000000000000    0.2500000000000001    0.5750000000000000 F F F Na
   0.8750000000000000    0.6250000000000000    0.5249999999999999 F F F Na
   0.3750000000000000    0.1250000000000001    0.5250000000000000 F F F Na
   0.3750000000000000    0.6250000000000001    0.6250000000000000 T T T Na
   0.8750000000000000    0.1250000000000001    0.6250000000000000 T T T Na
   0.5000000000000000    0.7500000000000000    0.5249999999999999 F F F Na
   0.0000000000000000    0.2500000000000000    0.5250000000000000 F F F Na
   0.0000000000000000    0.7500000000000000    0.6250000000000000 T T T Na
   0.5000000000000000    0.2500000000000001    0.6250000000000000 T T T Na
   0.6250000000000000    0.8750000000000001    0.5250000000000000 F F F Na
   0.1250000000000000    0.3750000000000001    0.5250000000000000 F F F Na
   0.1250000000000000    0.8750000000000001    0.6250000000000000 T T T Na
   0.6250000000000000    0.3750000000000002    0.6250000000000000 T T T Na
   0.7500000000000000    0.5000000000000000    0.5250000000000000 F F F Na
   0.2500000000000000    0.0000000000000000    0.5250000000000000 F F F Na
   0.2500000000000000    0.5000000000000000    0.6250000000000000 T T T Na
   0.7500000000000000    0.0000000000000001    0.6250000000000000 T T T Na
   0.6250000000000000    0.8750000000000000    0.6250000000000000 T T T Cd
   0.1250000000000000    0.3750000000000001    0.6250000000000000 T T T Cd
   0.1250000000000000    0.8750000000000001    0.5250000000000000 F F F Cd
   0.6250000000000000    0.3750000000000001    0.5250000000000000 F F F Cd
   0.8750000000000000    0.6250000000000000    0.6250000000000000 T T T Cd
   0.3750000000000000    0.1250000000000001    0.6250000000000000 T T T Cd
   0.3750000000000000    0.6250000000000000    0.5250000000000000 F F F Cd
   0.8750000000000000    0.1250000000000001    0.5249999999999999 F F F Cd
   0.6250000000000000    0.6250000000000000    0.6750000000000000 T T T Cd
   0.1250000000000000    0.1250000000000001    0.6750000000000000 T T T Cd
   0.1250000000000000    0.6250000000000001    0.5750000000000000 F F F Cd
   0.6250000000000000    0.1250000000000001    0.5750000000000000 F F F Cd
   0.8750000000000000    0.8750000000000001    0.5750000000000000 F F F Cd
   0.3750000000000000    0.3750000000000001    0.5750000000000000 F F F Cd
   0.3750000000000000    0.8750000000000001    0.6750000000000000 T T T Cd
   0.8750000000000000    0.3750000000000002    0.6750000000000000 T T T Cd
   0.5000000000000000    0.5000000000000000    0.6750000000000000 T T T Pb
   0.0000000000000000    0.0000000000000000    0.6750000000000000 T T T Pb
   0.0000000000000000    0.5000000000000000    0.5750000000000000 F F F Pb
   0.5000000000000000    0.0000000000000000    0.5750000000000000 F F F Pb
   0.7500000000000000    0.7500000000000000    0.5750000000000000 F F F Pb
   0.2500000000000000    0.2500000000000001    0.5750000000000000 F F F Pb
   0.2500000000000000    0.7500000000000000    0.6750000000000000 T T T Pb
   0.7500000000000000    0.2500000000000001    0.6750000000000000 T T T Pb
   0.5000000000000000    0.7500000000000000    0.6250000000000000 T T T Pb
   0.0000000000000000    0.2500000000000001    0.6250000000000000 T T T Pb
   0.0000000000000000    0.7500000000000000    0.5250000000000000 F F F Pb
   0.5000000000000000    0.2500000000000001    0.5250000000000000 F F F Pb
   0.7500000000000000    0.5000000000000001    0.6250000000000000 T T T Pb
   0.2500000000000000    0.0000000000000000    0.6250000000000000 T T T Pb
   0.2500000000000000    0.5000000000000001    0.5250000000000000 F F F Pb
   0.7500000000000000    0.0000000000000001    0.5250000000000000 F F F Pb
