Sc12 Tl4
1.0
   5.5555140024532221    0.0000000000000000   -3.2074775048031046
   0.0000000000000008    5.2486060871049531    0.0000000000000003
   0.0000000000000000    0.0000000000000000   32.0747750480310287
Sc Tl Sc Tl
6 2 6 2
Selective dynamics
direct
   0.1679734623794077    0.7500000000000000    0.3671893849517630 T T T Sc
   0.1679734623794078    0.7500000000000000    0.4664053075241185 F F F Sc
   0.6640530752411851    0.7500000000000000    0.4664053075241185 F F F Sc
   0.8320265376205926    0.2500000000000000    0.4328106150482369 T T T Sc
   0.8320265376205924    0.2500000000000000    0.3335946924758815 T T T Sc
   0.3359469247588153    0.2500000000000000    0.3335946924758815 T T T Sc
   0.3333333333333335    0.2500000000000000    0.4333333333333333 T T T Tl
   0.6666666666666669    0.7500000000000000    0.3666666666666666 T T T Tl
   0.1679734623794077    0.7500000000000000    0.5671893849517631 T T T Sc
   0.1679734623794078    0.7500000000000000    0.6664053075241185 T T T Sc
   0.6640530752411851    0.7500000000000000    0.6664053075241185 T T T Sc
   0.8320265376205926    0.2500000000000000    0.6328106150482369 T T T Sc
   0.8320265376205924    0.2500000000000000    0.5335946924758815 F F F Sc
   0.3359469247588153    0.2500000000000000    0.5335946924758815 F F F Sc
   0.3333333333333335    0.2500000000000000    0.6333333333333333 T T T Tl
   0.6666666666666669    0.7500000000000000    0.5666666666666667 T T T Tl
