Ga2 Si2 Ni12
1.0
   3.5469055851291085    0.0000000000000000    0.0000000000000002
   0.0000000000000006    3.5469055851291085    0.0000000000000002
   0.0000000000000000    0.0000000000000000   35.4276046118414811
Ga Si Ni Ga Si Ni
1 1 6 1 1 6
Selective dynamics
direct
   0.0000000000000000    0.0000000000000000    0.4249999999999999 F F F Ga
   0.0000000000000000    0.0000000000000000    0.3250000000000000 T T T Si
   0.5000000000000000    0.5000000000000000    0.4249999999999999 F F F Ni
   0.5000000000000000    0.5000000000000000    0.3250000000000000 T T T Ni
   0.5000000000000000    0.0000000000000000    0.4767718199569813 F F F Ni
   0.5000000000000000    0.0000000000000000    0.3732281800430186 T T T Ni
   0.0000000000000000    0.5000000000000000    0.4767718199569813 F F F Ni
   0.0000000000000000    0.5000000000000000    0.3732281800430186 T T T Ni
   0.0000000000000000    0.0000000000000000    0.6250000000000000 T T T Ga
   0.0000000000000000    0.0000000000000000    0.5249999999999999 F F F Si
   0.5000000000000000    0.5000000000000000    0.6250000000000000 T T T Ni
   0.5000000000000000    0.5000000000000000    0.5249999999999999 F F F Ni
   0.5000000000000000    0.0000000000000000    0.6767718199569813 T T T Ni
   0.5000000000000000    0.0000000000000000    0.5732281800430187 F F F Ni
   0.0000000000000000    0.5000000000000000    0.6767718199569813 T T T Ni
   0.0000000000000000    0.5000000000000000    0.5732281800430187 F F F Ni
