Li48 Cu24 Sn48
1.0
  19.4858229095343596    0.0000000000000000    0.0000000000000012
   0.0000000000000014    8.9146030461355856   -4.4573015230677928
   0.0000000000000000    0.0000000000000000   31.2011106614745515
Li Cu Sn Li Cu Sn Li Cu Sn
16 8 16 16 8 16 16 8 16
Selective dynamics
direct
   0.6740969777647834    0.2500000000000000    0.3750000000000000 T T T Li
   0.6740969777647834    0.7500000000000000    0.3035714285714285 T T T Li
   0.9240969777647834    0.2500000000000000    0.3035714285714285 T T T Li
   0.9240969777647834    0.7500000000000000    0.3750000000000000 T T T Li
   0.5759030222352165    0.2500000000000000    0.3035714285714285 T T T Li
   0.5759030222352166    0.7500000000000000    0.3750000000000000 T T T Li
   0.8259030222352166    0.5000000000000000    0.3392857142857142 T T T Li
   0.8259030222352166    0.0000000000000000    0.4107142857142857 T T T Li
   0.1740969777647834    0.5000000000000000    0.3392857142857142 T T T Li
   0.1740969777647834    0.0000000000000000    0.4107142857142857 T T T Li
   0.4240969777647834    0.5000000000000000    0.4107142857142857 T T T Li
   0.4240969777647834    0.0000000000000000    0.3392857142857142 T T T Li
   0.0759030222352166    0.5000000000000000    0.4107142857142857 T T T Li
   0.0759030222352166    0.0000000000000000    0.3392857142857142 T T T Li
   0.3259030222352166    0.2500000000000000    0.3750000000000000 T T T Li
   0.3259030222352166    0.7500000000000000    0.3035714285714285 T T T Li
   0.7500000000000000    0.2500000000000000    0.3035714285714285 T T T Cu
   0.7500000000000000    0.7500000000000000    0.3750000000000000 T T T Cu
   0.0000000000000000    0.5000000000000000    0.3392857142857142 T T T Cu
   0.0000000000000000    0.0000000000000000    0.4107142857142857 T T T Cu
   0.2500000000000000    0.5000000000000000    0.4107142857142857 T T T Cu
   0.2500000000000000    0.0000000000000000    0.3392857142857142 T T T Cu
   0.5000000000000000    0.2500000000000000    0.3750000000000000 T T T Cu
   0.5000000000000000    0.7500000000000000    0.3035714285714285 T T T Cu
   0.6766290500319343    0.5000000000000000    0.3392857142857142 T T T Sn
   0.6766290500319343    0.0000000000000000    0.4107142857142857 T T T Sn
   0.9266290500319343    0.5000000000000000    0.4107142857142857 T T T Sn
   0.9266290500319343    0.0000000000000000    0.3392857142857142 T T T Sn
   0.5733709499680656    0.5000000000000000    0.4107142857142857 T T T Sn
   0.5733709499680656    0.0000000000000000    0.3392857142857142 T T T Sn
   0.8233709499680657    0.2500000000000000    0.3750000000000000 T T T Sn
   0.8233709499680657    0.7500000000000000    0.3035714285714285 T T T Sn
   0.1766290500319344    0.2500000000000000    0.3750000000000000 T T T Sn
   0.1766290500319344    0.7500000000000000    0.3035714285714285 T T T Sn
   0.4266290500319343    0.2500000000000000    0.3035714285714285 T T T Sn
   0.4266290500319343    0.7500000000000000    0.3750000000000000 T T T Sn
   0.0733709499680657    0.2500000000000000    0.3035714285714285 T T T Sn
   0.0733709499680657    0.7500000000000000    0.3750000000000000 T T T Sn
   0.3233709499680657    0.5000000000000000    0.3392857142857142 T T T Sn
   0.3233709499680657    0.0000000000000000    0.4107142857142857 T T T Sn
   0.6740969777647834    0.2500000000000000    0.5178571428571428 F F F Li
   0.6740969777647834    0.7500000000000000    0.4464285714285714 F F F Li
   0.9240969777647834    0.2500000000000000    0.4464285714285714 F F F Li
   0.9240969777647834    0.7500000000000000    0.5178571428571428 F F F Li
   0.5759030222352165    0.2500000000000000    0.4464285714285714 F F F Li
   0.5759030222352166    0.7500000000000000    0.5178571428571428 F F F Li
   0.8259030222352166    0.5000000000000000    0.4821428571428571 F F F Li
   0.8259030222352166    0.0000000000000000    0.5535714285714286 F F F Li
   0.1740969777647834    0.5000000000000000    0.4821428571428571 F F F Li
   0.1740969777647834    0.0000000000000000    0.5535714285714286 F F F Li
   0.4240969777647834    0.5000000000000000    0.5535714285714286 F F F Li
   0.4240969777647834    0.0000000000000000    0.4821428571428571 F F F Li
   0.0759030222352166    0.5000000000000000    0.5535714285714286 F F F Li
   0.0759030222352166    0.0000000000000000    0.4821428571428571 F F F Li
   0.3259030222352166    0.2500000000000000    0.5178571428571428 F F F Li
   0.3259030222352166    0.7500000000000000    0.4464285714285714 F F F Li
   0.7500000000000000    0.2500000000000000    0.4464285714285714 F F F Cu
   0.7500000000000000    0.7500000000000000    0.5178571428571428 F F F Cu
   0.0000000000000000    0.5000000000000000    0.4821428571428571 F F F Cu
   0.0000000000000000    0.0000000000000000    0.5535714285714286 F F F Cu
   0.2500000000000000    0.5000000000000000    0.5535714285714286 F F F Cu
   0.2500000000000000    0.0000000000000000    0.4821428571428571 F F F Cu
   0.5000000000000000    0.2500000000000000    0.5178571428571428 F F F Cu
   0.5000000000000000    0.7500000000000000    0.4464285714285714 F F F Cu
   0.6766290500319343    0.5000000000000000    0.4821428571428571 F F F Sn
   0.6766290500319343    0.0000000000000000    0.5535714285714286 F F F Sn
   0.9266290500319343    0.5000000000000000    0.5535714285714286 F F F Sn
   0.9266290500319343    0.0000000000000000    0.4821428571428571 F F F Sn
   0.5733709499680656    0.5000000000000000    0.5535714285714286 F F F Sn
   0.5733709499680656    0.0000000000000000    0.4821428571428571 F F F Sn
   0.8233709499680657    0.2500000000000000    0.5178571428571428 F F F Sn
   0.8233709499680657    0.7500000000000000    0.4464285714285714 F F F Sn
   0.1766290500319344    0.2500000000000000    0.5178571428571428 F F F Sn
   0.1766290500319344    0.7500000000000000    0.4464285714285714 F F F Sn
   0.4266290500319343    0.2500000000000000    0.4464285714285714 F F F Sn
   0.4266290500319343    0.7500000000000000    0.5178571428571428 F F F Sn
   0.0733709499680657    0.2500000000000000    0.4464285714285714 F F F Sn
   0.0733709499680657    0.7500000000000000    0.5178571428571428 F F F Sn
   0.3233709499680657    0.5000000000000000    0.4821428571428571 F F F Sn
   0.3233709499680657    0.0000000000000000    0.5535714285714286 F F F Sn
   0.6740969777647834    0.2500000000000000    0.6607142857142857 T T T Li
   0.6740969777647834    0.7500000000000000    0.5892857142857142 T T T Li
   0.9240969777647834    0.2500000000000000    0.5892857142857142 T T T Li
   0.9240969777647834    0.7500000000000000    0.6607142857142857 T T T Li
   0.5759030222352165    0.2500000000000000    0.5892857142857142 T T T Li
   0.5759030222352166    0.7500000000000000    0.6607142857142857 T T T Li
   0.8259030222352166    0.5000000000000000    0.6250000000000000 T T T Li
   0.8259030222352166    0.0000000000000000    0.6964285714285714 T T T Li
   0.1740969777647834    0.5000000000000000    0.6250000000000000 T T T Li
   0.1740969777647834    0.0000000000000000    0.6964285714285714 T T T Li
   0.4240969777647834    0.5000000000000000    0.6964285714285714 T T T Li
   0.4240969777647834    0.0000000000000000    0.6250000000000000 T T T Li
   0.0759030222352166    0.5000000000000000    0.6964285714285714 T T T Li
   0.0759030222352166    0.0000000000000000    0.6250000000000000 T T T Li
   0.3259030222352166    0.2500000000000000    0.6607142857142857 T T T Li
   0.3259030222352166    0.7500000000000000    0.5892857142857142 T T T Li
   0.7500000000000000    0.2500000000000000    0.5892857142857142 T T T Cu
   0.7500000000000000    0.7500000000000000    0.6607142857142857 T T T Cu
   0.0000000000000000    0.5000000000000000    0.6250000000000000 T T T Cu
   0.0000000000000000    0.0000000000000000    0.6964285714285714 T T T Cu
   0.2500000000000000    0.5000000000000000    0.6964285714285714 T T T Cu
   0.2500000000000000    0.0000000000000000    0.6250000000000000 T T T Cu
   0.5000000000000000    0.2500000000000000    0.6607142857142857 T T T Cu
   0.5000000000000000    0.7500000000000000    0.5892857142857142 T T T Cu
   0.6766290500319343    0.5000000000000000    0.6250000000000000 T T T Sn
   0.6766290500319343    0.0000000000000000    0.6964285714285714 T T T Sn
   0.9266290500319343    0.5000000000000000    0.6964285714285714 T T T Sn
   0.9266290500319343    0.0000000000000000    0.6250000000000000 T T T Sn
   0.5733709499680656    0.5000000000000000    0.6964285714285714 T T T Sn
   0.5733709499680656    0.0000000000000000    0.6250000000000000 T T T Sn
   0.8233709499680657    0.2500000000000000    0.6607142857142857 T T T Sn
   0.8233709499680657    0.7500000000000000    0.5892857142857142 T T T Sn
   0.1766290500319344    0.2500000000000000    0.6607142857142857 T T T Sn
   0.1766290500319344    0.7500000000000000    0.5892857142857142 T T T Sn
   0.4266290500319343    0.2500000000000000    0.5892857142857142 T T T Sn
   0.4266290500319343    0.7500000000000000    0.6607142857142857 T T T Sn
   0.0733709499680657    0.2500000000000000    0.5892857142857142 T T T Sn
   0.0733709499680657    0.7500000000000000    0.6607142857142857 T T T Sn
   0.3233709499680657    0.5000000000000000    0.6250000000000000 T T T Sn
   0.3233709499680657    0.0000000000000000    0.6964285714285714 T T T Sn
