Rb6 As12 Rh12
1.0
   4.0361279682954780    0.0000000000000000    0.0000000000000002
   0.0000000000000023   14.2256956146666784   -4.0361279682954763
   0.0000000000000000    0.0000000000000000   28.2528957780683463
Rb As Rh Rb As Rh Rb As Rh
2 4 4 2 4 4 2 4 4
Selective dynamics
direct
   0.0000000000000000    0.0000000000000000    0.3571428571428572 T T T Rb
   0.5000000000000000    0.5000000000000001    0.3571428571428572 T T T Rb
   0.0000000000000000    0.3474825838331626    0.4067832262618803 T T T As
   0.5000000000000000    0.1525174161668375    0.3075024880238340 T T T As
   0.5000000000000000    0.8474825838331627    0.4067832262618804 T T T As
   0.0000000000000000    0.6525174161668376    0.3075024880238340 T T T As
   0.5000000000000000    0.2500000000000000    0.3928571428571428 T T T Rh
   0.0000000000000000    0.2500000000000001    0.3214285714285715 T T T Rh
   0.0000000000000000    0.7500000000000001    0.3928571428571428 T T T Rh
   0.5000000000000000    0.7500000000000001    0.3214285714285715 T T T Rh
   0.0000000000000000    0.0000000000000000    0.5000000000000000 F F F Rb
   0.5000000000000000    0.5000000000000001    0.5000000000000000 F F F Rb
   0.0000000000000000    0.3474825838331626    0.5496403691190233 F F F As
   0.5000000000000000    0.1525174161668375    0.4503596308809767 F F F As
   0.5000000000000000    0.8474825838331627    0.5496403691190233 F F F As
   0.0000000000000000    0.6525174161668376    0.4503596308809768 F F F As
   0.5000000000000000    0.2500000000000000    0.5357142857142857 F F F Rh
   0.0000000000000000    0.2500000000000001    0.4642857142857143 F F F Rh
   0.0000000000000000    0.7500000000000001    0.5357142857142857 F F F Rh
   0.5000000000000000    0.7500000000000001    0.4642857142857143 F F F Rh
   0.0000000000000000    0.0000000000000000    0.6428571428571428 T T T Rb
   0.5000000000000000    0.5000000000000001    0.6428571428571428 T T T Rb
   0.0000000000000000    0.3474825838331626    0.6924975119761660 T T T As
   0.5000000000000000    0.1525174161668375    0.5932167737381197 T T T As
   0.5000000000000000    0.8474825838331627    0.6924975119761660 T T T As
   0.0000000000000000    0.6525174161668376    0.5932167737381197 T T T As
   0.5000000000000000    0.2500000000000000    0.6785714285714286 T T T Rh
   0.0000000000000000    0.2500000000000001    0.6071428571428572 T T T Rh
   0.0000000000000000    0.7500000000000001    0.6785714285714286 T T T Rh
   0.5000000000000000    0.7500000000000001    0.6071428571428572 T T T Rh
