K24 Te24 Pt12
1.0
  10.4865370090405161    0.0000000000000000    0.0000000000000006
   0.0000000000000026   15.9105671720929340   -4.0247358371527708
   0.0000000000000000    0.0000000000000000   28.1731508600694127
K Te Pt K Te Pt K Te Pt
8 8 4 8 8 4 8 8 4
Selective dynamics
direct
   0.2065679527281503    0.2500000000000000    0.3035714285714285 T T T K
   0.2065679527281503    0.7500000000000000    0.3750000000000000 T T T K
   0.7934320472718497    0.2500000000000000    0.3035714285714285 T T T K
   0.7934320472718497    0.7500000000000000    0.3750000000000000 T T T K
   0.7065679527281503    0.5000000000000000    0.4107142857142857 F F F K
   0.7065679527281503    0.0000000000000000    0.3392857142857142 T T T K
   0.2934320472718498    0.5000000000000000    0.4107142857142857 F F F K
   0.2934320472718497    0.0000000000000000    0.3392857142857142 T T T K
   0.0000000000000000    0.1104142219098456    0.3550591745585494 T T T Te
   0.0000000000000000    0.6104142219098456    0.4264877459871208 F F F Te
   0.0000000000000000    0.3895857780901544    0.3949408254414506 T T T Te
   0.0000000000000000    0.8895857780901544    0.3235122540128792 T T T Te
   0.5000000000000000    0.3604142219098456    0.3193448888442637 T T T Te
   0.5000000000000000    0.8604142219098456    0.3907734602728351 T T T Te
   0.5000000000000000    0.1395857780901545    0.2877979682985935 T T T Te
   0.5000000000000000    0.6395857780901544    0.3592265397271649 T T T Te
   0.0000000000000000    0.5000000000000000    0.3392857142857142 T T T Pt
   0.0000000000000000    0.0000000000000000    0.4107142857142857 F F F Pt
   0.5000000000000000    0.2500000000000000    0.3750000000000000 T T T Pt
   0.5000000000000000    0.7500000000000000    0.3035714285714285 T T T Pt
   0.2065679527281503    0.2500000000000000    0.4464285714285714 F F F K
   0.2065679527281503    0.7500000000000000    0.5178571428571428 F F F K
   0.7934320472718497    0.2500000000000000    0.4464285714285714 F F F K
   0.7934320472718497    0.7500000000000000    0.5178571428571428 F F F K
   0.7065679527281503    0.5000000000000000    0.5535714285714286 F F F K
   0.7065679527281503    0.0000000000000000    0.4821428571428571 F F F K
   0.2934320472718498    0.5000000000000000    0.5535714285714286 F F F K
   0.2934320472718497    0.0000000000000000    0.4821428571428571 F F F K
   0.0000000000000000    0.1104142219098456    0.4979163174156922 F F F Te
   0.0000000000000000    0.6104142219098456    0.5693448888442636 F F F Te
   0.0000000000000000    0.3895857780901544    0.5377979682985934 F F F Te
   0.0000000000000000    0.8895857780901544    0.4663693968700220 F F F Te
   0.5000000000000000    0.3604142219098456    0.4622020317014065 F F F Te
   0.5000000000000000    0.8604142219098456    0.5336306031299779 F F F Te
   0.5000000000000000    0.1395857780901545    0.4306551111557363 F F F Te
   0.5000000000000000    0.6395857780901544    0.5020836825843078 F F F Te
   0.0000000000000000    0.5000000000000000    0.4821428571428571 F F F Pt
   0.0000000000000000    0.0000000000000000    0.5535714285714286 F F F Pt
   0.5000000000000000    0.2500000000000000    0.5178571428571428 F F F Pt
   0.5000000000000000    0.7500000000000000    0.4464285714285714 F F F Pt
   0.2065679527281503    0.2500000000000000    0.5892857142857142 F F F K
   0.2065679527281503    0.7500000000000000    0.6607142857142857 T T T K
   0.7934320472718497    0.2500000000000000    0.5892857142857142 F F F K
   0.7934320472718497    0.7500000000000000    0.6607142857142857 T T T K
   0.7065679527281503    0.5000000000000000    0.6964285714285714 T T T K
   0.7065679527281503    0.0000000000000000    0.6250000000000000 T T T K
   0.2934320472718498    0.5000000000000000    0.6964285714285714 T T T K
   0.2934320472718497    0.0000000000000000    0.6250000000000000 T T T K
   0.0000000000000000    0.1104142219098456    0.6407734602728350 T T T Te
   0.0000000000000000    0.6104142219098456    0.7122020317014065 T T T Te
   0.0000000000000000    0.3895857780901544    0.6806551111557363 T T T Te
   0.0000000000000000    0.8895857780901544    0.6092265397271649 T T T Te
   0.5000000000000000    0.3604142219098456    0.6050591745585494 T T T Te
   0.5000000000000000    0.8604142219098456    0.6764877459871208 T T T Te
   0.5000000000000000    0.1395857780901545    0.5735122540128792 F F F Te
   0.5000000000000000    0.6395857780901544    0.6449408254414506 T T T Te
   0.0000000000000000    0.5000000000000000    0.6250000000000000 T T T Pt
   0.0000000000000000    0.0000000000000000    0.6964285714285714 T T T Pt
   0.5000000000000000    0.2500000000000000    0.6607142857142857 T T T Pt
   0.5000000000000000    0.7500000000000000    0.5892857142857142 F F F Pt
