Li64 Cu32 As32
1.0
   7.2727303469973830    0.0000000000000000   -8.3978256471649999
   0.0000000000000026   15.8854287819490523   -4.1989128235825000
   0.0000000000000000    0.0000000000000000   41.9891282358249924
Li Cu As Li Cu As Li Cu As Li Cu As
16 8 8 16 8 8 16 8 8 16 8 8
Selective dynamics
direct
   0.8333333333333333    0.9573082969018143    0.3936474963568481 T T T Li
   0.3333333333333333    0.4573082969018143    0.3936474963568481 T T T Li
   0.3333333333333333    0.9573082969018143    0.3436474963568481 T T T Li
   0.8333333333333333    0.4573082969018143    0.3436474963568481 T T T Li
   0.6666666666666666    0.7073082969018144    0.3853141630235147 T T T Li
   0.1666666666666666    0.2073082969018143    0.3853141630235147 T T T Li
   0.1666666666666666    0.7073082969018143    0.3353141630235147 T T T Li
   0.6666666666666666    0.2073082969018143    0.3353141630235147 T T T Li
   0.8333333333333334    0.7926917030981856    0.3771858369764852 T T T Li
   0.3333333333333333    0.2926917030981855    0.3771858369764852 T T T Li
   0.3333333333333333    0.7926917030981856    0.3271858369764852 T T T Li
   0.8333333333333333    0.2926917030981855    0.3271858369764852 T T T Li
   0.6666666666666667    0.5426917030981855    0.3688525036431519 T T T Li
   0.1666666666666667    0.0426917030981855    0.3688525036431519 T T T Li
   0.1666666666666667    0.5426917030981855    0.3188525036431519 T T T Li
   0.6666666666666666    0.0426917030981855    0.3188525036431519 T T T Li
   0.5000000000000000    0.6250000000000000    0.3937500000000000 T T T Cu
   0.0000000000000000    0.1250000000000000    0.3937500000000000 T T T Cu
   0.0000000000000000    0.6250000000000000    0.3437500000000000 T T T Cu
   0.4999999999999999    0.1250000000000000    0.3437500000000000 T T T Cu
   0.5000000000000000    0.8750000000000000    0.3187500000000000 T T T Cu
   0.0000000000000000    0.3750000000000000    0.3187500000000000 T T T Cu
   0.0000000000000000    0.8750000000000000    0.3687500000000000 T T T Cu
   0.4999999999999999    0.3749999999999999    0.3687500000000000 T T T Cu
   0.6666666666666666    0.8750000000000000    0.3020833333333333 T T T As
   0.1666666666666666    0.3749999999999999    0.3020833333333333 T T T As
   0.1666666666666666    0.8750000000000000    0.3520833333333333 T T T As
   0.6666666666666666    0.3749999999999999    0.3520833333333333 T T T As
   0.8333333333333335    0.6249999999999999    0.3604166666666667 T T T As
   0.3333333333333334    0.1250000000000000    0.3604166666666667 T T T As
   0.3333333333333334    0.6249999999999999    0.3104166666666667 T T T As
   0.8333333333333333    0.1249999999999999    0.3104166666666667 T T T As
   0.8333333333333333    0.9573082969018143    0.4936474963568481 F F F Li
   0.3333333333333333    0.4573082969018143    0.4936474963568481 F F F Li
   0.3333333333333333    0.9573082969018143    0.4436474963568481 F F F Li
   0.8333333333333333    0.4573082969018143    0.4436474963568481 F F F Li
   0.6666666666666666    0.7073082969018144    0.4853141630235148 F F F Li
   0.1666666666666666    0.2073082969018143    0.4853141630235148 F F F Li
   0.1666666666666666    0.7073082969018143    0.4353141630235148 F F F Li
   0.6666666666666666    0.2073082969018143    0.4353141630235148 F F F Li
   0.8333333333333334    0.7926917030981856    0.4771858369764852 F F F Li
   0.3333333333333333    0.2926917030981855    0.4771858369764852 F F F Li
   0.3333333333333333    0.7926917030981856    0.4271858369764852 F F F Li
   0.8333333333333333    0.2926917030981855    0.4271858369764852 F F F Li
   0.6666666666666667    0.5426917030981855    0.4688525036431519 F F F Li
   0.1666666666666667    0.0426917030981855    0.4688525036431519 F F F Li
   0.1666666666666667    0.5426917030981855    0.4188525036431519 F F F Li
   0.6666666666666666    0.0426917030981855    0.4188525036431519 F F F Li
   0.5000000000000000    0.6250000000000000    0.4937500000000000 F F F Cu
   0.0000000000000000    0.1250000000000000    0.4937500000000000 F F F Cu
   0.0000000000000000    0.6250000000000000    0.4437500000000000 F F F Cu
   0.4999999999999999    0.1250000000000000    0.4437500000000000 F F F Cu
   0.5000000000000000    0.8750000000000000    0.4187500000000000 F F F Cu
   0.0000000000000000    0.3750000000000000    0.4187500000000000 F F F Cu
   0.0000000000000000    0.8750000000000000    0.4687500000000000 F F F Cu
   0.4999999999999999    0.3749999999999999    0.4687500000000000 F F F Cu
   0.6666666666666666    0.8750000000000000    0.4020833333333333 T T T As
   0.1666666666666666    0.3749999999999999    0.4020833333333333 T T T As
   0.1666666666666666    0.8750000000000000    0.4520833333333333 F F F As
   0.6666666666666666    0.3749999999999999    0.4520833333333333 F F F As
   0.8333333333333335    0.6249999999999999    0.4604166666666667 F F F As
   0.3333333333333334    0.1250000000000000    0.4604166666666667 F F F As
   0.3333333333333334    0.6249999999999999    0.4104166666666667 T T T As
   0.8333333333333333    0.1249999999999999    0.4104166666666667 T T T As
   0.8333333333333333    0.9573082969018143    0.5936474963568481 T T T Li
   0.3333333333333333    0.4573082969018143    0.5936474963568481 T T T Li
   0.3333333333333333    0.9573082969018143    0.5436474963568481 F F F Li
   0.8333333333333333    0.4573082969018143    0.5436474963568481 F F F Li
   0.6666666666666666    0.7073082969018144    0.5853141630235148 T T T Li
   0.1666666666666666    0.2073082969018143    0.5853141630235148 T T T Li
   0.1666666666666666    0.7073082969018143    0.5353141630235148 F F F Li
   0.6666666666666666    0.2073082969018143    0.5353141630235148 F F F Li
   0.8333333333333334    0.7926917030981856    0.5771858369764853 F F F Li
   0.3333333333333333    0.2926917030981855    0.5771858369764853 F F F Li
   0.3333333333333333    0.7926917030981856    0.5271858369764852 F F F Li
   0.8333333333333333    0.2926917030981855    0.5271858369764852 F F F Li
   0.6666666666666667    0.5426917030981855    0.5688525036431520 F F F Li
   0.1666666666666667    0.0426917030981855    0.5688525036431520 F F F Li
   0.1666666666666667    0.5426917030981855    0.5188525036431519 F F F Li
   0.6666666666666666    0.0426917030981855    0.5188525036431519 F F F Li
   0.5000000000000000    0.6250000000000000    0.5937500000000000 T T T Cu
   0.0000000000000000    0.1250000000000000    0.5937500000000000 T T T Cu
   0.0000000000000000    0.6250000000000000    0.5437500000000000 F F F Cu
   0.4999999999999999    0.1250000000000000    0.5437500000000000 F F F Cu
   0.5000000000000000    0.8750000000000000    0.5187500000000000 F F F Cu
   0.0000000000000000    0.3750000000000000    0.5187500000000000 F F F Cu
   0.0000000000000000    0.8750000000000000    0.5687500000000001 F F F Cu
   0.4999999999999999    0.3749999999999999    0.5687500000000001 F F F Cu
   0.6666666666666666    0.8750000000000000    0.5020833333333333 F F F As
   0.1666666666666666    0.3749999999999999    0.5020833333333333 F F F As
   0.1666666666666666    0.8750000000000000    0.5520833333333333 F F F As
   0.6666666666666666    0.3749999999999999    0.5520833333333333 F F F As
   0.8333333333333335    0.6249999999999999    0.5604166666666667 F F F As
   0.3333333333333334    0.1250000000000000    0.5604166666666667 F F F As
   0.3333333333333334    0.6249999999999999    0.5104166666666666 F F F As
   0.8333333333333333    0.1249999999999999    0.5104166666666666 F F F As
   0.8333333333333333    0.9573082969018143    0.6936474963568481 T T T Li
   0.3333333333333333    0.4573082969018143    0.6936474963568481 T T T Li
   0.3333333333333333    0.9573082969018143    0.6436474963568481 T T T Li
   0.8333333333333333    0.4573082969018143    0.6436474963568481 T T T Li
   0.6666666666666666    0.7073082969018144    0.6853141630235147 T T T Li
   0.1666666666666666    0.2073082969018143    0.6853141630235147 T T T Li
   0.1666666666666666    0.7073082969018143    0.6353141630235147 T T T Li
   0.6666666666666666    0.2073082969018143    0.6353141630235147 T T T Li
   0.8333333333333334    0.7926917030981856    0.6771858369764852 T T T Li
   0.3333333333333333    0.2926917030981855    0.6771858369764852 T T T Li
   0.3333333333333333    0.7926917030981856    0.6271858369764851 T T T Li
   0.8333333333333333    0.2926917030981855    0.6271858369764851 T T T Li
   0.6666666666666667    0.5426917030981855    0.6688525036431519 T T T Li
   0.1666666666666667    0.0426917030981855    0.6688525036431519 T T T Li
   0.1666666666666667    0.5426917030981855    0.6188525036431518 T T T Li
   0.6666666666666666    0.0426917030981855    0.6188525036431518 T T T Li
   0.5000000000000000    0.6250000000000000    0.6937500000000000 T T T Cu
   0.0000000000000000    0.1250000000000000    0.6937500000000000 T T T Cu
   0.0000000000000000    0.6250000000000000    0.6437500000000000 T T T Cu
   0.4999999999999999    0.1250000000000000    0.6437500000000000 T T T Cu
   0.5000000000000000    0.8750000000000000    0.6187499999999999 T T T Cu
   0.0000000000000000    0.3750000000000000    0.6187499999999999 T T T Cu
   0.0000000000000000    0.8750000000000000    0.6687500000000000 T T T Cu
   0.4999999999999999    0.3749999999999999    0.6687500000000000 T T T Cu
   0.6666666666666666    0.8750000000000000    0.6020833333333333 T T T As
   0.1666666666666666    0.3749999999999999    0.6020833333333333 T T T As
   0.1666666666666666    0.8750000000000000    0.6520833333333333 T T T As
   0.6666666666666666    0.3749999999999999    0.6520833333333333 T T T As
   0.8333333333333335    0.6249999999999999    0.6604166666666667 T T T As
   0.3333333333333334    0.1250000000000000    0.6604166666666667 T T T As
   0.3333333333333334    0.6249999999999999    0.6104166666666666 T T T As
   0.8333333333333333    0.1249999999999999    0.6104166666666666 T T T As
