Ba6 Bi12 Pd12
1.0
   4.9410864246933848    0.0000000000000000    0.0000000000000003
   0.0000000000000018   11.0168252964899107   -5.2393735873355123
   0.0000000000000000    0.0000000000000000   35.0131324628993497
Ba Bi Pd Ba Bi Pd Ba Bi Pd
2 4 4 2 4 4 2 4 4
Selective dynamics
direct
   0.7500000000000000    0.7593918341372969    0.4023655331617749 F F F Ba
   0.2500000000000000    0.2406081658627031    0.3976344668382252 F F F Ba
   0.7500000000000000    0.1193550153811032    0.3050608689405958 T T T Bi
   0.2500000000000000    0.5010654513551032    0.3642667982763891 T T T Bi
   0.7500000000000000    0.4989345486448968    0.4357332017236110 F F F Bi
   0.2500000000000000    0.8806449846188967    0.3520819882022613 T T T Bi
   0.2500000000000000    0.6261340435241536    0.3110840279681694 T T T Pd
   0.2500000000000000    0.0013344142080669    0.3003905068491958 T T T Pd
   0.7500000000000000    0.3738659564758464    0.3460588291746878 T T T Pd
   0.7500000000000000    0.9986655857919330    0.3567523502936614 T T T Pd
   0.7500000000000000    0.7593918341372969    0.5452226760189177 F F F Ba
   0.2500000000000000    0.2406081658627031    0.5404916096953680 F F F Ba
   0.7500000000000000    0.1193550153811032    0.4479180117977387 F F F Bi
   0.2500000000000000    0.5010654513551032    0.5071239411335319 F F F Bi
   0.7500000000000000    0.4989345486448968    0.5785903445807539 F F F Bi
   0.2500000000000000    0.8806449846188967    0.4949391310594042 F F F Bi
   0.2500000000000000    0.6261340435241536    0.4539411708253123 F F F Pd
   0.2500000000000000    0.0013344142080669    0.4432476497063387 F F F Pd
   0.7500000000000000    0.3738659564758464    0.4889159720318306 F F F Pd
   0.7500000000000000    0.9986655857919330    0.4996094931508042 F F F Pd
   0.7500000000000000    0.7593918341372969    0.6880798188760606 T T T Ba
   0.2500000000000000    0.2406081658627031    0.6833487525525108 T T T Ba
   0.7500000000000000    0.1193550153811032    0.5907751546548815 F F F Bi
   0.2500000000000000    0.5010654513551032    0.6499810839906748 T T T Bi
   0.7500000000000000    0.4989345486448968    0.7214474874378967 T T T Bi
   0.2500000000000000    0.8806449846188967    0.6377962739165470 T T T Bi
   0.2500000000000000    0.6261340435241536    0.5967983136824551 F F F Pd
   0.2500000000000000    0.0013344142080669    0.5861047925634815 F F F Pd
   0.7500000000000000    0.3738659564758464    0.6317731148889735 T T T Pd
   0.7500000000000000    0.9986655857919330    0.6424666360079471 T T T Pd
