Mn12 As12 Rh12
1.0
   3.6422839071244146    0.0000000000000000    0.0000000000000002
   0.0000000000000009    5.6274043079806368   -9.7469501761544333
   0.0000000000000000    0.0000000000000000   58.4817010569266102
Mn As Rh Mn As Rh Mn As Rh Mn As Rh
3 3 3 3 3 3 3 3 3 3 3 3
Selective dynamics
direct
   0.5000000000000000    0.5971648860684931    0.3796168882621342 T T T Mn
   0.5000000000000000    0.4028351139315069    0.2916730373504143 T T T Mn
   0.5000000000000000    0.0000000000000000    0.2916730373504143 T T T Mn
   0.5000000000000000    0.0000000000000000    0.3580246913580247 T T T As
   0.0000000000000000    0.6666666666666667    0.3580246913580247 T T T As
   0.0000000000000000    0.3333333333333334    0.3580246913580247 T T T As
   0.0000000000000000    0.0000000000000000    0.3287182683710579 T T T Rh
   0.0000000000000000    0.2637578068827011    0.3055264262208471 T T T Rh
   0.0000000000000000    0.7362421931172989    0.3287182683710579 T T T Rh
   0.5000000000000000    0.5971648860684931    0.4907279993732453 F F F Mn
   0.5000000000000000    0.4028351139315069    0.4027841484615254 F F F Mn
   0.5000000000000000    0.0000000000000000    0.4027841484615254 F F F Mn
   0.5000000000000000    0.0000000000000000    0.4691358024691358 F F F As
   0.0000000000000000    0.6666666666666667    0.4691358024691358 F F F As
   0.0000000000000000    0.3333333333333334    0.4691358024691358 F F F As
   0.0000000000000000    0.0000000000000000    0.4398293794821690 F F F Rh
   0.0000000000000000    0.2637578068827011    0.4166375373319582 F F F Rh
   0.0000000000000000    0.7362421931172989    0.4398293794821690 F F F Rh
   0.5000000000000000    0.5971648860684931    0.6018391104843565 F F F Mn
   0.5000000000000000    0.4028351139315069    0.5138952595726365 F F F Mn
   0.5000000000000000    0.0000000000000000    0.5138952595726365 F F F Mn
   0.5000000000000000    0.0000000000000000    0.5802469135802468 F F F As
   0.0000000000000000    0.6666666666666667    0.5802469135802468 F F F As
   0.0000000000000000    0.3333333333333334    0.5802469135802468 F F F As
   0.0000000000000000    0.0000000000000000    0.5509404905932801 F F F Rh
   0.0000000000000000    0.2637578068827011    0.5277486484430693 F F F Rh
   0.0000000000000000    0.7362421931172989    0.5509404905932801 F F F Rh
   0.5000000000000000    0.5971648860684931    0.7129502215954675 T T T Mn
   0.5000000000000000    0.4028351139315069    0.6250063706837476 T T T Mn
   0.5000000000000000    0.0000000000000000    0.6250063706837476 T T T Mn
   0.5000000000000000    0.0000000000000000    0.6913580246913580 T T T As
   0.0000000000000000    0.6666666666666667    0.6913580246913580 T T T As
   0.0000000000000000    0.3333333333333334    0.6913580246913580 T T T As
   0.0000000000000000    0.0000000000000000    0.6620516017043911 T T T Rh
   0.0000000000000000    0.2637578068827011    0.6388597595541805 T T T Rh
   0.0000000000000000    0.7362421931172989    0.6620516017043911 T T T Rh
