Y18 Pd18 Pb18
1.0
   6.7589735073560311    0.0000000000000000  -11.7068855217526746
   0.0000000000000030    7.8950973365083028   -7.8045903478351120
   0.0000000000000000    0.0000000000000000   62.4367227826809170
Y Pd Pb Y Pd Pb Y Pd Pb
6 6 6 6 6 6 6 6 6
Selective dynamics
direct
   0.0000000000000000    0.2500000000000001    0.3416945699946746 T T T Y
   0.0000000000000000    0.7500000000000001    0.4041945699946746 T T T Y
   0.4002232266240640    0.2500000000000001    0.3416945699946746 T T T Y
   0.4002232266240640    0.7500000000000001    0.4041945699946746 T T T Y
   0.5997767733759359    0.2500000000000001    0.4416108600106506 F F F Y
   0.5997767733759359    0.7500000000000001    0.3791108600106506 T T T Y
   0.0000000000000000    0.2500000000000000    0.4166666666666666 T T T Pd
   0.0000000000000000    0.7500000000000000    0.3541666666666666 T T T Pd
   0.6666666666666665    0.0000000000000001    0.3854166666666666 T T T Pd
   0.6666666666666665    0.5000000000000001    0.3229166666666666 T T T Pd
   0.3333333333333332    0.0000000000000001    0.3854166666666666 T T T Pd
   0.3333333333333332    0.5000000000000001    0.3229166666666666 T T T Pd
   0.0000000000000000    0.0000000000000001    0.3521596302170741 T T T Pb
   0.0000000000000000    0.5000000000000001    0.4146596302170741 T T T Pb
   0.7339437084032595    0.0000000000000001    0.3521596302170741 T T T Pb
   0.7339437084032595    0.5000000000000001    0.4146596302170741 T T T Pb
   0.2660562915967403    0.0000000000000000    0.3269307395658517 T T T Pb
   0.2660562915967403    0.5000000000000001    0.3894307395658517 T T T Pb
   0.0000000000000000    0.2500000000000001    0.4666945699946746 F F F Y
   0.0000000000000000    0.7500000000000001    0.5291945699946746 F F F Y
   0.4002232266240640    0.2500000000000001    0.4666945699946746 F F F Y
   0.4002232266240640    0.7500000000000001    0.5291945699946746 F F F Y
   0.5997767733759359    0.2500000000000001    0.5666108600106506 F F F Y
   0.5997767733759359    0.7500000000000001    0.5041108600106506 F F F Y
   0.0000000000000000    0.2500000000000000    0.5416666666666666 F F F Pd
   0.0000000000000000    0.7500000000000000    0.4791666666666666 F F F Pd
   0.6666666666666665    0.0000000000000001    0.5104166666666666 F F F Pd
   0.6666666666666665    0.5000000000000001    0.4479166666666666 F F F Pd
   0.3333333333333332    0.0000000000000001    0.5104166666666666 F F F Pd
   0.3333333333333332    0.5000000000000001    0.4479166666666666 F F F Pd
   0.0000000000000000    0.0000000000000001    0.4771596302170741 F F F Pb
   0.0000000000000000    0.5000000000000001    0.5396596302170741 F F F Pb
   0.7339437084032595    0.0000000000000001    0.4771596302170741 F F F Pb
   0.7339437084032595    0.5000000000000001    0.5396596302170741 F F F Pb
   0.2660562915967403    0.0000000000000000    0.4519307395658517 F F F Pb
   0.2660562915967403    0.5000000000000001    0.5144307395658517 F F F Pb
   0.0000000000000000    0.2500000000000001    0.5916945699946746 T T T Y
   0.0000000000000000    0.7500000000000001    0.6541945699946746 T T T Y
   0.4002232266240640    0.2500000000000001    0.5916945699946746 T T T Y
   0.4002232266240640    0.7500000000000001    0.6541945699946746 T T T Y
   0.5997767733759359    0.2500000000000001    0.6916108600106506 T T T Y
   0.5997767733759359    0.7500000000000001    0.6291108600106506 T T T Y
   0.0000000000000000    0.2500000000000000    0.6666666666666666 T T T Pd
   0.0000000000000000    0.7500000000000000    0.6041666666666666 T T T Pd
   0.6666666666666665    0.0000000000000001    0.6354166666666666 T T T Pd
   0.6666666666666665    0.5000000000000001    0.5729166666666666 F F F Pd
   0.3333333333333332    0.0000000000000001    0.6354166666666666 T T T Pd
   0.3333333333333332    0.5000000000000001    0.5729166666666666 F F F Pd
   0.0000000000000000    0.0000000000000001    0.6021596302170741 T T T Pb
   0.0000000000000000    0.5000000000000001    0.6646596302170741 T T T Pb
   0.7339437084032595    0.0000000000000001    0.6021596302170741 T T T Pb
   0.7339437084032595    0.5000000000000001    0.6646596302170741 T T T Pb
   0.2660562915967403    0.0000000000000000    0.5769307395658517 F F F Pb
   0.2660562915967403    0.5000000000000001    0.6394307395658517 T T T Pb
