Al12 Co24 Si24
1.0
   3.4059636970276017    0.0000000000000000   -5.8993021719869434
  -0.0000000000000026    9.2508305339463153   -3.9328681146579614
   0.0000000000000000    0.0000000000000000   55.0601536052114611
Al Co Si Al Co Si Al Co Si Al Co Si Al Co Si Al Co Si
2 4 4 2 4 4 2 4 4 2 4 4 2 4 4 2 4 4
Selective dynamics
direct
   0.0000000000000000    0.0000000000000000    0.3392857142857142 T T T Al
   0.0000000000000000    0.5000000000000001    0.3035714285714285 T T T Al
   0.3333333333333333    0.0813182784501444    0.3450941627464388 T T T Co
   0.3333333333333334    0.5813182784501446    0.3093798770321531 T T T Co
   0.6666666666666666    0.4186817215498559    0.2977629801107040 T T T Co
   0.6666666666666666    0.9186817215498561    0.3334772658249897 T T T Co
   0.6666666666666666    0.1739378155727353    0.3517098439694811 T T T Si
   0.6666666666666666    0.6739378155727355    0.3159955582551954 T T T Si
   0.3333333333333333    0.3260621844272650    0.2911472988876618 T T T Si
   0.3333333333333334    0.8260621844272651    0.3268615846019475 T T T Si
   0.0000000000000000    0.0000000000000000    0.4107142857142857 F F F Al
   0.0000000000000000    0.5000000000000001    0.3750000000000000 T T T Al
   0.3333333333333333    0.0813182784501444    0.4165227341750103 F F F Co
   0.3333333333333334    0.5813182784501446    0.3808084484607246 T T T Co
   0.6666666666666666    0.4186817215498559    0.3691915515392754 T T T Co
   0.6666666666666666    0.9186817215498561    0.4049058372535611 F F F Co
   0.6666666666666666    0.1739378155727353    0.4231384153980525 F F F Si
   0.6666666666666666    0.6739378155727355    0.3874241296837668 T T T Si
   0.3333333333333333    0.3260621844272650    0.3625758703162332 T T T Si
   0.3333333333333334    0.8260621844272651    0.3982901560305189 T T T Si
   0.0000000000000000    0.0000000000000000    0.4821428571428571 F F F Al
   0.0000000000000000    0.5000000000000001    0.4464285714285714 F F F Al
   0.3333333333333333    0.0813182784501444    0.4879513056035817 F F F Co
   0.3333333333333334    0.5813182784501446    0.4522370198892960 F F F Co
   0.6666666666666666    0.4186817215498559    0.4406201229678468 F F F Co
   0.6666666666666666    0.9186817215498561    0.4763344086821326 F F F Co
   0.6666666666666666    0.1739378155727353    0.4945669868266239 F F F Si
   0.6666666666666666    0.6739378155727355    0.4588527011123382 F F F Si
   0.3333333333333333    0.3260621844272650    0.4340044417448046 F F F Si
   0.3333333333333334    0.8260621844272651    0.4697187274590903 F F F Si
   0.0000000000000000    0.0000000000000000    0.5535714285714286 F F F Al
   0.0000000000000000    0.5000000000000001    0.5178571428571428 F F F Al
   0.3333333333333333    0.0813182784501444    0.5593798770321532 F F F Co
   0.3333333333333334    0.5813182784501446    0.5236655913178674 F F F Co
   0.6666666666666666    0.4186817215498559    0.5120486943964182 F F F Co
   0.6666666666666666    0.9186817215498561    0.5477629801107040 F F F Co
   0.6666666666666666    0.1739378155727353    0.5659955582551953 F F F Si
   0.6666666666666666    0.6739378155727355    0.5302812725409096 F F F Si
   0.3333333333333333    0.3260621844272650    0.5054330131733760 F F F Si
   0.3333333333333334    0.8260621844272651    0.5411472988876618 F F F Si
   0.0000000000000000    0.0000000000000000    0.6250000000000000 T T T Al
   0.0000000000000000    0.5000000000000001    0.5892857142857142 F F F Al
   0.3333333333333333    0.0813182784501444    0.6308084484607246 T T T Co
   0.3333333333333334    0.5813182784501446    0.5950941627464388 F F F Co
   0.6666666666666666    0.4186817215498559    0.5834772658249896 F F F Co
   0.6666666666666666    0.9186817215498561    0.6191915515392754 T T T Co
   0.6666666666666666    0.1739378155727353    0.6374241296837668 T T T Si
   0.6666666666666666    0.6739378155727355    0.6017098439694810 T T T Si
   0.3333333333333333    0.3260621844272650    0.5768615846019475 F F F Si
   0.3333333333333334    0.8260621844272651    0.6125758703162332 T T T Si
   0.0000000000000000    0.0000000000000000    0.6964285714285714 T T T Al
   0.0000000000000000    0.5000000000000001    0.6607142857142857 T T T Al
   0.3333333333333333    0.0813182784501444    0.7022370198892960 T T T Co
   0.3333333333333334    0.5813182784501446    0.6665227341750103 T T T Co
   0.6666666666666666    0.4186817215498559    0.6549058372535611 T T T Co
   0.6666666666666666    0.9186817215498561    0.6906201229678468 T T T Co
   0.6666666666666666    0.1739378155727353    0.7088527011123382 T T T Si
   0.6666666666666666    0.6739378155727355    0.6731384153980525 T T T Si
   0.3333333333333333    0.3260621844272650    0.6482901560305190 T T T Si
   0.3333333333333334    0.8260621844272651    0.6840044417448046 T T T Si
