Nb16 Ge16 Sb16
1.0
   3.7466498270935453    0.0000000000000000   -3.7466498270935449
   0.0000000000000027   16.5634971893488299   -3.7466498270935440
   0.0000000000000000    0.0000000000000000   37.4664982709354533
Nb Ge Sb Nb Ge Sb Nb Ge Sb Nb Ge Sb
4 4 4 4 4 4 4 4 4 4 4 4
Selective dynamics
direct
   0.4999999999999999    0.3772923677815497    0.3793959034448217 T T T Nb
   0.4999999999999999    0.8772923677815496    0.3293959034448216 T T T Nb
   0.0000000000000000    0.1227076322184501    0.3539374298885117 T T T Nb
   0.0000000000000000    0.6227076322184500    0.3039374298885117 T T T Nb
   0.0000000000000000    0.0000000000000000    0.3916666666666667 T T T Ge
   0.0000000000000000    0.4999999999999999    0.3416666666666667 T T T Ge
   0.4999999999999999    0.9999999999999999    0.3916666666666666 T T T Ge
   0.4999999999999999    0.4999999999999998    0.3416666666666666 T T T Ge
   0.4999999999999999    0.1931811866518237    0.3609847853318490 T T T Sb
   0.4999999999999999    0.6931811866518236    0.3109847853318490 T T T Sb
   0.0000000000000000    0.3068188133481761    0.3723485480014843 T T T Sb
   0.0000000000000000    0.8068188133481760    0.3223485480014843 T T T Sb
   0.4999999999999999    0.3772923677815497    0.4793959034448216 F F F Nb
   0.4999999999999999    0.8772923677815496    0.4293959034448216 F F F Nb
   0.0000000000000000    0.1227076322184501    0.4539374298885117 F F F Nb
   0.0000000000000000    0.6227076322184500    0.4039374298885117 T T T Nb
   0.0000000000000000    0.0000000000000000    0.4916666666666666 F F F Ge
   0.0000000000000000    0.4999999999999999    0.4416666666666667 F F F Ge
   0.4999999999999999    0.9999999999999999    0.4916666666666666 F F F Ge
   0.4999999999999999    0.4999999999999998    0.4416666666666667 F F F Ge
   0.4999999999999999    0.1931811866518237    0.4609847853318491 F F F Sb
   0.4999999999999999    0.6931811866518236    0.4109847853318490 T T T Sb
   0.0000000000000000    0.3068188133481761    0.4723485480014843 F F F Sb
   0.0000000000000000    0.8068188133481760    0.4223485480014842 F F F Sb
   0.4999999999999999    0.3772923677815497    0.5793959034448216 T T T Nb
   0.4999999999999999    0.8772923677815496    0.5293959034448217 F F F Nb
   0.0000000000000000    0.1227076322184501    0.5539374298885117 F F F Nb
   0.0000000000000000    0.6227076322184500    0.5039374298885116 F F F Nb
   0.0000000000000000    0.0000000000000000    0.5916666666666667 T T T Ge
   0.0000000000000000    0.4999999999999999    0.5416666666666666 F F F Ge
   0.4999999999999999    0.9999999999999999    0.5916666666666667 T T T Ge
   0.4999999999999999    0.4999999999999998    0.5416666666666666 F F F Ge
   0.4999999999999999    0.1931811866518237    0.5609847853318490 F F F Sb
   0.4999999999999999    0.6931811866518236    0.5109847853318490 F F F Sb
   0.0000000000000000    0.3068188133481761    0.5723485480014843 F F F Sb
   0.0000000000000000    0.8068188133481760    0.5223485480014842 F F F Sb
   0.4999999999999999    0.3772923677815497    0.6793959034448216 T T T Nb
   0.4999999999999999    0.8772923677815496    0.6293959034448215 T T T Nb
   0.0000000000000000    0.1227076322184501    0.6539374298885117 T T T Nb
   0.0000000000000000    0.6227076322184500    0.6039374298885116 T T T Nb
   0.0000000000000000    0.0000000000000000    0.6916666666666667 T T T Ge
   0.0000000000000000    0.4999999999999999    0.6416666666666666 T T T Ge
   0.4999999999999999    0.9999999999999999    0.6916666666666667 T T T Ge
   0.4999999999999999    0.4999999999999998    0.6416666666666666 T T T Ge
   0.4999999999999999    0.1931811866518237    0.6609847853318490 T T T Sb
   0.4999999999999999    0.6931811866518236    0.6109847853318491 T T T Sb
   0.0000000000000000    0.3068188133481761    0.6723485480014842 T T T Sb
   0.0000000000000000    0.8068188133481760    0.6223485480014843 T T T Sb
