Zr32 Ge32 Te32
1.0
   7.5466935136203421    0.0000000000000000   -3.7733467568101711
   0.0000000000000033   20.3123647302383112   -3.7733467568101688
   0.0000000000000000    0.0000000000000000   33.9601208112915387
Zr Ge Te Zr Ge Te Zr Ge Te Zr Ge Te
8 8 8 8 8 8 8 8 8 8 8 8
Selective dynamics
direct
   0.5000000000000000    0.6068946907445785    0.3405808915642125 T T T Zr
   0.0000000000000000    0.1068946907445784    0.3405808915642125 T T T Zr
   0.0000000000000000    0.6068946907445785    0.2850253360086569 T T T Zr
   0.5000000000000000    0.1068946907445785    0.2850253360086569 T T T Zr
   0.7500000000000001    0.8931053092554215    0.3446042936209728 T T T Zr
   0.2500000000000000    0.3931053092554215    0.3446042936209728 T T T Zr
   0.2500000000000000    0.8931053092554215    0.2890487380654173 T T T Zr
   0.7500000000000001    0.3931053092554215    0.2890487380654173 T T T Zr
   0.5000000000000000    0.5000000000000000    0.3842592592592593 T T T Ge
   0.0000000000000000    0.0000000000000000    0.3842592592592593 T T T Ge
   0.0000000000000000    0.5000000000000000    0.3287037037037037 T T T Ge
   0.5000000000000000    0.0000000000000000    0.3287037037037038 T T T Ge
   0.7500000000000001    0.5000000000000000    0.3564814814814816 T T T Ge
   0.2500000000000000    0.0000000000000000    0.3564814814814815 T T T Ge
   0.2500000000000000    0.5000000000000000    0.3009259259259260 T T T Ge
   0.7500000000000001    0.0000000000000000    0.3009259259259260 T T T Ge
   0.5000000000000000    0.8282990727497078    0.3651813784536713 T T T Te
   0.0000000000000000    0.3282990727497079    0.3651813784536713 T T T Te
   0.0000000000000000    0.8282990727497078    0.3096258228981157 T T T Te
   0.5000000000000000    0.3282990727497079    0.3096258228981157 T T T Te
   0.7500000000000001    0.6717009272502921    0.3200038067315140 T T T Te
   0.2500000000000000    0.1717009272502921    0.3200038067315140 T T T Te
   0.2500000000000000    0.6717009272502921    0.3755593622870695 T T T Te
   0.7500000000000001    0.1717009272502921    0.3755593622870695 T T T Te
   0.5000000000000000    0.6068946907445785    0.4516920026753236 F F F Zr
   0.0000000000000000    0.1068946907445784    0.4516920026753236 F F F Zr
   0.0000000000000000    0.6068946907445785    0.3961364471197680 F F F Zr
   0.5000000000000000    0.1068946907445785    0.3961364471197680 F F F Zr
   0.7500000000000001    0.8931053092554215    0.4557154047320839 F F F Zr
   0.2500000000000000    0.3931053092554215    0.4557154047320839 F F F Zr
   0.2500000000000000    0.8931053092554215    0.4001598491765284 F F F Zr
   0.7500000000000001    0.3931053092554215    0.4001598491765284 F F F Zr
   0.5000000000000000    0.5000000000000000    0.4953703703703704 F F F Ge
   0.0000000000000000    0.0000000000000000    0.4953703703703704 F F F Ge
   0.0000000000000000    0.5000000000000000    0.4398148148148149 F F F Ge
   0.5000000000000000    0.0000000000000000    0.4398148148148149 F F F Ge
   0.7500000000000001    0.5000000000000000    0.4675925925925927 F F F Ge
   0.2500000000000000    0.0000000000000000    0.4675925925925927 F F F Ge
   0.2500000000000000    0.5000000000000000    0.4120370370370371 F F F Ge
   0.7500000000000001    0.0000000000000000    0.4120370370370371 F F F Ge
   0.5000000000000000    0.8282990727497078    0.4762924895647824 F F F Te
   0.0000000000000000    0.3282990727497079    0.4762924895647824 F F F Te
   0.0000000000000000    0.8282990727497078    0.4207369340092268 F F F Te
   0.5000000000000000    0.3282990727497079    0.4207369340092268 F F F Te
   0.7500000000000001    0.6717009272502921    0.4311149178426251 F F F Te
   0.2500000000000000    0.1717009272502921    0.4311149178426251 F F F Te
   0.2500000000000000    0.6717009272502921    0.4866704733981806 F F F Te
   0.7500000000000001    0.1717009272502921    0.4866704733981806 F F F Te
   0.5000000000000000    0.6068946907445785    0.5628031137864347 F F F Zr
   0.0000000000000000    0.1068946907445784    0.5628031137864347 F F F Zr
   0.0000000000000000    0.6068946907445785    0.5072475582308791 F F F Zr
   0.5000000000000000    0.1068946907445785    0.5072475582308791 F F F Zr
   0.7500000000000001    0.8931053092554215    0.5668265158431951 F F F Zr
   0.2500000000000000    0.3931053092554215    0.5668265158431950 F F F Zr
   0.2500000000000000    0.8931053092554215    0.5112709602876395 F F F Zr
   0.7500000000000001    0.3931053092554215    0.5112709602876395 F F F Zr
   0.5000000000000000    0.5000000000000000    0.6064814814814815 F F F Ge
   0.0000000000000000    0.0000000000000000    0.6064814814814815 F F F Ge
   0.0000000000000000    0.5000000000000000    0.5509259259259259 F F F Ge
   0.5000000000000000    0.0000000000000000    0.5509259259259260 F F F Ge
   0.7500000000000001    0.5000000000000000    0.5787037037037037 F F F Ge
   0.2500000000000000    0.0000000000000000    0.5787037037037037 F F F Ge
   0.2500000000000000    0.5000000000000000    0.5231481481481481 F F F Ge
   0.7500000000000001    0.0000000000000000    0.5231481481481481 F F F Ge
   0.5000000000000000    0.8282990727497078    0.5874036006758936 F F F Te
   0.0000000000000000    0.3282990727497079    0.5874036006758935 F F F Te
   0.0000000000000000    0.8282990727497078    0.5318480451203380 F F F Te
   0.5000000000000000    0.3282990727497079    0.5318480451203380 F F F Te
   0.7500000000000001    0.6717009272502921    0.5422260289537362 F F F Te
   0.2500000000000000    0.1717009272502921    0.5422260289537362 F F F Te
   0.2500000000000000    0.6717009272502921    0.5977815845092918 F F F Te
   0.7500000000000001    0.1717009272502921    0.5977815845092918 F F F Te
   0.5000000000000000    0.6068946907445785    0.6739142248975458 T T T Zr
   0.0000000000000000    0.1068946907445784    0.6739142248975458 T T T Zr
   0.0000000000000000    0.6068946907445785    0.6183586693419902 T T T Zr
   0.5000000000000000    0.1068946907445785    0.6183586693419902 T T T Zr
   0.7500000000000001    0.8931053092554215    0.6779376269543061 T T T Zr
   0.2500000000000000    0.3931053092554215    0.6779376269543061 T T T Zr
   0.2500000000000000    0.8931053092554215    0.6223820713987506 T T T Zr
   0.7500000000000001    0.3931053092554215    0.6223820713987506 T T T Zr
   0.5000000000000000    0.5000000000000000    0.7175925925925926 T T T Ge
   0.0000000000000000    0.0000000000000000    0.7175925925925926 T T T Ge
   0.0000000000000000    0.5000000000000000    0.6620370370370371 T T T Ge
   0.5000000000000000    0.0000000000000000    0.6620370370370371 T T T Ge
   0.7500000000000001    0.5000000000000000    0.6898148148148149 T T T Ge
   0.2500000000000000    0.0000000000000000    0.6898148148148149 T T T Ge
   0.2500000000000000    0.5000000000000000    0.6342592592592593 T T T Ge
   0.7500000000000001    0.0000000000000000    0.6342592592592593 T T T Ge
   0.5000000000000000    0.8282990727497078    0.6985147117870046 T T T Te
   0.0000000000000000    0.3282990727497079    0.6985147117870046 T T T Te
   0.0000000000000000    0.8282990727497078    0.6429591562314491 T T T Te
   0.5000000000000000    0.3282990727497079    0.6429591562314491 T T T Te
   0.7500000000000001    0.6717009272502921    0.6533371400648473 T T T Te
   0.2500000000000000    0.1717009272502921    0.6533371400648473 T T T Te
   0.2500000000000000    0.6717009272502921    0.7088926956204029 T T T Te
   0.7500000000000001    0.1717009272502921    0.7088926956204029 T T T Te
