Zr12 Ge12 Te12
1.0
   3.7733467568101711    0.0000000000000000    0.0000000000000002
   0.0000000000000033   20.3123647302383112   -3.7733467568101688
   0.0000000000000000    0.0000000000000000   30.1867740544813685
Zr Ge Te Zr Ge Te Zr Ge Te
4 4 4 4 4 4 4 4 4
Selective dynamics
direct
   0.0000000000000000    0.1068946907445784    0.3571118363430723 T T T Zr
   0.0000000000000000    0.6068946907445785    0.4196118363430723 T T T Zr
   0.5000000000000000    0.3931053092554215    0.3303881636569277 T T T Zr
   0.5000000000000000    0.8931053092554215    0.3928881636569277 T T T Zr
   0.0000000000000000    0.0000000000000000    0.4062500000000000 T T T Ge
   0.0000000000000000    0.5000000000000000    0.3437500000000000 T T T Ge
   0.5000000000000000    0.0000000000000000    0.3437500000000000 T T T Ge
   0.5000000000000000    0.4999999999999999    0.4062500000000000 T T T Ge
   0.0000000000000000    0.3282990727497079    0.3847873840937135 T T T Te
   0.0000000000000000    0.8282990727497078    0.3222873840937135 T T T Te
   0.5000000000000000    0.1717009272502921    0.4277126159062865 F F F Te
   0.5000000000000000    0.6717009272502921    0.3652126159062865 T T T Te
   0.0000000000000000    0.1068946907445784    0.4821118363430723 F F F Zr
   0.0000000000000000    0.6068946907445785    0.5446118363430723 F F F Zr
   0.5000000000000000    0.3931053092554215    0.4553881636569277 F F F Zr
   0.5000000000000000    0.8931053092554215    0.5178881636569277 F F F Zr
   0.0000000000000000    0.0000000000000000    0.5312500000000000 F F F Ge
   0.0000000000000000    0.5000000000000000    0.4687500000000000 F F F Ge
   0.5000000000000000    0.0000000000000000    0.4687500000000000 F F F Ge
   0.5000000000000000    0.4999999999999999    0.5312500000000000 F F F Ge
   0.0000000000000000    0.3282990727497079    0.5097873840937135 F F F Te
   0.0000000000000000    0.8282990727497078    0.4472873840937135 F F F Te
   0.5000000000000000    0.1717009272502921    0.5527126159062865 F F F Te
   0.5000000000000000    0.6717009272502921    0.4902126159062865 F F F Te
   0.0000000000000000    0.1068946907445784    0.6071118363430723 T T T Zr
   0.0000000000000000    0.6068946907445785    0.6696118363430723 T T T Zr
   0.5000000000000000    0.3931053092554215    0.5803881636569277 T T T Zr
   0.5000000000000000    0.8931053092554215    0.6428881636569277 T T T Zr
   0.0000000000000000    0.0000000000000000    0.6562500000000000 T T T Ge
   0.0000000000000000    0.5000000000000000    0.5937500000000000 T T T Ge
   0.5000000000000000    0.0000000000000000    0.5937500000000000 T T T Ge
   0.5000000000000000    0.4999999999999999    0.6562500000000000 T T T Ge
   0.0000000000000000    0.3282990727497079    0.6347873840937135 T T T Te
   0.0000000000000000    0.8282990727497078    0.5722873840937135 F F F Te
   0.5000000000000000    0.1717009272502921    0.6777126159062865 T T T Te
   0.5000000000000000    0.6717009272502921    0.6152126159062865 T T T Te
