Sr48 In24 Pt48
1.0
  20.8766254831096738    0.0000000000000000   -6.0458650414779189
  18.9229932139934931    8.1740181212642096    0.0000000000000013
   0.0000000000000000    0.0000000000000000   42.3210552903454413
Sr In Pt Sr In Pt Sr In Pt
16 8 16 16 8 16 16 8 16
Selective dynamics
direct
   0.6767935121998185    0.6471155568443621    0.3548880873293490 T T T Sr
   0.1767935121998185    0.6471155568443621    0.4263166587579204 F F F Sr
   0.3232064878001815    0.8528844431556379    0.3043756552722580 T T T Sr
   0.8232064878001815    0.8528844431556379    0.3758042267008294 T T T Sr
   0.8232064878001815    0.3528844431556379    0.4165404840992225 F F F Sr
   0.3232064878001814    0.3528844431556379    0.3451119126706511 T T T Sr
   0.1767935121998185    0.1471155568443621    0.3241957732991707 T T T Sr
   0.6767935121998185    0.1471155568443621    0.3956243447277420 F F F Sr
   0.4267935121998185    0.6471155568443621    0.3906023730436347 F F F Sr
   0.9267935121998185    0.6471155568443621    0.3191738016150632 T T T Sr
   0.5732064878001815    0.8528844431556379    0.4115185124151151 F F F Sr
   0.0732064878001814    0.8528844431556379    0.3400899409865436 T T T Sr
   0.0732064878001815    0.3528844431556379    0.3808261983849368 F F F Sr
   0.5732064878001815    0.3528844431556379    0.3093976269563654 T T T Sr
   0.9267935121998185    0.1471155568443621    0.3599100590134564 T T T Sr
   0.4267935121998185    0.1471155568443621    0.2884814875848850 T T T Sr
   0.5000000000000000    0.7500000000000000    0.4022765569039204 F F F In
   0.0000000000000000    0.7500000000000000    0.3308479854753490 T T T In
   0.9999999999999999    0.2500000000000001    0.3691520145246510 T T T In
   0.4999999999999999    0.2500000000000001    0.2977234430960796 T T T In
   0.7500000000000000    0.7500000000000000    0.3665622711896347 T T T In
   0.2500000000000000    0.7500000000000000    0.2951336997610633 T T T In
   0.2500000000000000    0.2500000000000001    0.3334377288103653 T T T In
   0.7499999999999999    0.2500000000000001    0.4048663002389367 F F F In
   0.3167304439446073    0.0022432073851986    0.4150770496053477 F F F Pt
   0.8167304439446073    0.0022432073851986    0.3436484781767762 T T T Pt
   0.6832695560553927    0.4977567926148014    0.3245826370497456 T T T Pt
   0.1832695560553927    0.4977567926148014    0.3960112084783170 F F F Pt
   0.1832695560553927    0.9977567926148014    0.3563515218232237 T T T Pt
   0.6832695560553927    0.9977567926148014    0.4277800932517952 F F F Pt
   0.8167304439446073    0.5022432073851986    0.3039887915216830 T T T Pt
   0.3167304439446073    0.5022432073851986    0.3754173629502544 T T T Pt
   0.0667304439446073    0.0022432073851986    0.3079341924624905 T T T Pt
   0.5667304439446071    0.0022432073851986    0.3793627638910619 F F F Pt
   0.9332695560553927    0.4977567926148014    0.2888683513354598 T T T Pt
   0.4332695560553927    0.4977567926148014    0.3602969227640312 T T T Pt
   0.4332695560553927    0.9977567926148014    0.3206372361089381 T T T Pt
   0.9332695560553927    0.9977567926148014    0.3920658075375095 F F F Pt
   0.5667304439446073    0.5022432073851986    0.3397030772359687 T T T Pt
   0.0667304439446072    0.5022432073851986    0.4111316486645401 F F F Pt
   0.6767935121998185    0.6471155568443621    0.4977452301864918 F F F Sr
   0.1767935121998185    0.6471155568443621    0.5691738016150633 F F F Sr
   0.3232064878001815    0.8528844431556379    0.4472327981294008 F F F Sr
   0.8232064878001815    0.8528844431556379    0.5186613695579723 F F F Sr
   0.8232064878001815    0.3528844431556379    0.5593976269563653 F F F Sr
   0.3232064878001814    0.3528844431556379    0.4879690555277939 F F F Sr
   0.1767935121998185    0.1471155568443621    0.4670529161563135 F F F Sr
   0.6767935121998185    0.1471155568443621    0.5384814875848849 F F F Sr
   0.4267935121998185    0.6471155568443621    0.5334595159007776 F F F Sr
   0.9267935121998185    0.6471155568443621    0.4620309444722061 F F F Sr
   0.5732064878001815    0.8528844431556379    0.5543756552722579 F F F Sr
   0.0732064878001814    0.8528844431556379    0.4829470838436865 F F F Sr
   0.0732064878001815    0.3528844431556379    0.5236833412420796 F F F Sr
   0.5732064878001815    0.3528844431556379    0.4522547698135082 F F F Sr
   0.9267935121998185    0.1471155568443621    0.5027672018705993 F F F Sr
   0.4267935121998185    0.1471155568443621    0.4313386304420278 F F F Sr
   0.5000000000000000    0.7500000000000000    0.5451336997610633 F F F In
   0.0000000000000000    0.7500000000000000    0.4737051283324918 F F F In
   0.9999999999999999    0.2500000000000001    0.5120091573817939 F F F In
   0.4999999999999999    0.2500000000000001    0.4405805859532224 F F F In
   0.7500000000000000    0.7500000000000000    0.5094194140467776 F F F In
   0.2500000000000000    0.7500000000000000    0.4379908426182061 F F F In
   0.2500000000000000    0.2500000000000001    0.4762948716675081 F F F In
   0.7499999999999999    0.2500000000000001    0.5477234430960796 F F F In
   0.3167304439446073    0.0022432073851986    0.5579341924624905 F F F Pt
   0.8167304439446073    0.0022432073851986    0.4865056210339191 F F F Pt
   0.6832695560553927    0.4977567926148014    0.4674397799068885 F F F Pt
   0.1832695560553927    0.4977567926148014    0.5388683513354598 F F F Pt
   0.1832695560553927    0.9977567926148014    0.4992086646803666 F F F Pt
   0.6832695560553927    0.9977567926148014    0.5706372361089380 F F F Pt
   0.8167304439446073    0.5022432073851986    0.4468459343788258 F F F Pt
   0.3167304439446073    0.5022432073851986    0.5182745058073972 F F F Pt
   0.0667304439446073    0.0022432073851986    0.4507913353196333 F F F Pt
   0.5667304439446071    0.0022432073851986    0.5222199067482047 F F F Pt
   0.9332695560553927    0.4977567926148014    0.4317254941926028 F F F Pt
   0.4332695560553927    0.4977567926148014    0.5031540656211742 F F F Pt
   0.4332695560553927    0.9977567926148014    0.4634943789660809 F F F Pt
   0.9332695560553927    0.9977567926148014    0.5349229503946523 F F F Pt
   0.5667304439446073    0.5022432073851986    0.4825602200931116 F F F Pt
   0.0667304439446072    0.5022432073851986    0.5539887915216830 F F F Pt
   0.6767935121998185    0.6471155568443621    0.6406023730436347 T T T Sr
   0.1767935121998185    0.6471155568443621    0.7120309444722061 T T T Sr
   0.3232064878001815    0.8528844431556379    0.5900899409865437 F F F Sr
   0.8232064878001815    0.8528844431556379    0.6615185124151151 T T T Sr
   0.8232064878001815    0.3528844431556379    0.7022547698135082 T T T Sr
   0.3232064878001814    0.3528844431556379    0.6308261983849368 T T T Sr
   0.1767935121998185    0.1471155568443621    0.6099100590134563 F F F Sr
   0.6767935121998185    0.1471155568443621    0.6813386304420277 T T T Sr
   0.4267935121998185    0.6471155568443621    0.6763166587579204 T T T Sr
   0.9267935121998185    0.6471155568443621    0.6048880873293490 F F F Sr
   0.5732064878001815    0.8528844431556379    0.6972327981294008 T T T Sr
   0.0732064878001814    0.8528844431556379    0.6258042267008292 T T T Sr
   0.0732064878001815    0.3528844431556379    0.6665404840992225 T T T Sr
   0.5732064878001815    0.3528844431556379    0.5951119126706510 F F F Sr
   0.9267935121998185    0.1471155568443621    0.6456243447277421 T T T Sr
   0.4267935121998185    0.1471155568443621    0.5741957732991707 F F F Sr
   0.5000000000000000    0.7500000000000000    0.6879908426182062 T T T In
   0.0000000000000000    0.7500000000000000    0.6165622711896347 F F F In
   0.9999999999999999    0.2500000000000001    0.6548663002389368 T T T In
   0.4999999999999999    0.2500000000000001    0.5834377288103653 F F F In
   0.7500000000000000    0.7500000000000000    0.6522765569039204 T T T In
   0.2500000000000000    0.7500000000000000    0.5808479854753490 F F F In
   0.2500000000000000    0.2500000000000001    0.6191520145246510 F F F In
   0.7499999999999999    0.2500000000000001    0.6905805859532224 T T T In
   0.3167304439446073    0.0022432073851986    0.7007913353196333 T T T Pt
   0.8167304439446073    0.0022432073851986    0.6293627638910619 T T T Pt
   0.6832695560553927    0.4977567926148014    0.6102969227640314 F F F Pt
   0.1832695560553927    0.4977567926148014    0.6817254941926028 T T T Pt
   0.1832695560553927    0.9977567926148014    0.6420658075375094 T T T Pt
   0.6832695560553927    0.9977567926148014    0.7134943789660808 T T T Pt
   0.8167304439446073    0.5022432073851986    0.5897030772359687 F F F Pt
   0.3167304439446073    0.5022432073851986    0.6611316486645401 T T T Pt
   0.0667304439446073    0.0022432073851986    0.5936484781767762 F F F Pt
   0.5667304439446071    0.0022432073851986    0.6650770496053476 T T T Pt
   0.9332695560553927    0.4977567926148014    0.5745826370497455 F F F Pt
   0.4332695560553927    0.4977567926148014    0.6460112084783169 T T T Pt
   0.4332695560553927    0.9977567926148014    0.6063515218232238 F F F Pt
   0.9332695560553927    0.9977567926148014    0.6777800932517952 T T T Pt
   0.5667304439446073    0.5022432073851986    0.6254173629502544 F F F Pt
   0.0667304439446072    0.5022432073851986    0.6968459343788258 T T T Pt
