Sr24 In12 Pt24
1.0
  10.4383127415548387    0.0000000000000000    0.0000000000000006
  -1.9536322691161787    8.1740181212642096   -6.0458650414779198
   0.0000000000000000    0.0000000000000000   42.3210552903454413
Sr In Pt Sr In Pt Sr In Pt
8 4 8 8 4 8 8 4 8
Selective dynamics
direct
   0.6478181380883612    0.6471155568443621    0.3435055222785695 T T T Sr
   0.3521818619116387    0.8528844431556379    0.3729010774658946 T T T Sr
   0.3521818619116387    0.3528844431556378    0.3422087634357163 T T T Sr
   0.6478181380883612    0.1471155568443619    0.3128132082483912 T T T Sr
   0.1478181380883612    0.6471155568443621    0.4149340937071408 F F F Sr
   0.8521818619116388    0.8528844431556379    0.3014725060373231 T T T Sr
   0.8521818619116388    0.3528844431556378    0.4136373348642877 F F F Sr
   0.1478181380883612    0.1471155568443619    0.3842417796769626 F F F Sr
   0.5000000000000000    0.7500000000000000    0.4308479854753490 F F F In
   0.4999999999999999    0.2500000000000000    0.3977234430960796 F F F In
   0.0000000000000000    0.7500000000000000    0.3594194140467776 T T T In
   0.0000000000000000    0.2499999999999999    0.3262948716675081 T T T In
   0.6379473026596116    0.0022432073851985    0.3630074443825750 T T T Pt
   0.3620526973403884    0.4977567926148013    0.2909379565582326 T T T Pt
   0.3620526973403884    0.9977567926148014    0.3227068413317107 T T T Pt
   0.6379473026596116    0.5022432073851985    0.3947763291560532 F F F Pt
   0.1379473026596115    0.0022432073851985    0.2915788729540035 T T T Pt
   0.8620526973403884    0.4977567926148013    0.3623665279868040 T T T Pt
   0.8620526973403884    0.9977567926148014    0.3941354127602822 F F F Pt
   0.1379473026596115    0.5022432073851986    0.3233477577274818 T T T Pt
   0.6478181380883612    0.6471155568443621    0.4863626651357123 F F F Sr
   0.3521818619116387    0.8528844431556379    0.5157582203230375 F F F Sr
   0.3521818619116387    0.3528844431556378    0.4850659062928591 F F F Sr
   0.6478181380883612    0.1471155568443619    0.4556703511055340 F F F Sr
   0.1478181380883612    0.6471155568443621    0.5577912365642836 F F F Sr
   0.8521818619116388    0.8528844431556379    0.4443296488944660 F F F Sr
   0.8521818619116388    0.3528844431556378    0.5564944777214306 F F F Sr
   0.1478181380883612    0.1471155568443619    0.5270989225341054 F F F Sr
   0.5000000000000000    0.7500000000000000    0.5737051283324919 F F F In
   0.4999999999999999    0.2500000000000000    0.5405805859532224 F F F In
   0.0000000000000000    0.7500000000000000    0.5022765569039205 F F F In
   0.0000000000000000    0.2499999999999999    0.4691520145246510 F F F In
   0.6379473026596116    0.0022432073851985    0.5058645872397178 F F F Pt
   0.3620526973403884    0.4977567926148013    0.4337950994153754 F F F Pt
   0.3620526973403884    0.9977567926148014    0.4655639841888536 F F F Pt
   0.6379473026596116    0.5022432073851985    0.5376334720131961 F F F Pt
   0.1379473026596115    0.0022432073851985    0.4344360158111464 F F F Pt
   0.8620526973403884    0.4977567926148013    0.5052236708439468 F F F Pt
   0.8620526973403884    0.9977567926148014    0.5369925556174251 F F F Pt
   0.1379473026596115    0.5022432073851986    0.4662049005846246 F F F Pt
   0.6478181380883612    0.6471155568443621    0.6292198079928552 T T T Sr
   0.3521818619116387    0.8528844431556379    0.6586153631801803 T T T Sr
   0.3521818619116387    0.3528844431556378    0.6279230491500020 F F F Sr
   0.6478181380883612    0.1471155568443619    0.5985274939626768 F F F Sr
   0.1478181380883612    0.6471155568443621    0.7006483794214265 T T T Sr
   0.8521818619116388    0.8528844431556379    0.5871867917516088 F F F Sr
   0.8521818619116388    0.3528844431556378    0.6993516205785735 T T T Sr
   0.1478181380883612    0.1471155568443619    0.6699560653912483 T T T Sr
   0.5000000000000000    0.7500000000000000    0.7165622711896347 T T T In
   0.4999999999999999    0.2500000000000000    0.6834377288103652 T T T In
   0.0000000000000000    0.7500000000000000    0.6451336997610633 T T T In
   0.0000000000000000    0.2499999999999999    0.6120091573817938 F F F In
   0.6379473026596116    0.0022432073851985    0.6487217300968607 T T T Pt
   0.3620526973403884    0.4977567926148013    0.5766522422725182 F F F Pt
   0.3620526973403884    0.9977567926148014    0.6084211270459965 F F F Pt
   0.6379473026596116    0.5022432073851985    0.6804906148703389 T T T Pt
   0.1379473026596115    0.0022432073851985    0.5772931586682892 F F F Pt
   0.8620526973403884    0.4977567926148013    0.6480808137010897 T T T Pt
   0.8620526973403884    0.9977567926148014    0.6798496984745679 T T T Pt
   0.1379473026596115    0.5022432073851986    0.6090620434417675 F F F Pt
