Hf15 Ga15 Rh15
1.0
  12.6726839146409382    0.0000000000000000    0.0000000000000008
   6.3363419573204682    3.6582887347364954    3.2674293478262317
   0.0000000000000000    0.0000000000000000   39.2091521739147808
Hf Ga Rh Hf Ga Rh Hf Ga Rh Hf Ga Rh Hf Ga Rh
3 3 3 3 3 3 3 3 3 3 3 3 3 3 3
Selective dynamics
direct
   0.0000000000000000    0.6098180054414968    0.2964040551020975 T T T Hf
   0.3901819945585032    0.6098180054414968    0.2964040551020975 T T T Hf
   0.6098180054414968    0.7803639891170064    0.3655252231291384 T T T Hf
   0.0000000000000000    0.2756759516878162    0.3659158929149042 T T T Ga
   0.7243240483121838    0.2756759516878162    0.3659158929149042 T T T Ga
   0.2756759516878162    0.4486480966243676    0.3515015475035250 T T T Ga
   0.6666666666666666    0.0000000000000001    0.3055555555555556 T T T Rh
   0.3333333333333333    0.0000000000000001    0.3055555555555556 T T T Rh
   0.0000000000000000    0.0000000000000000    0.3472222222222223 T T T Rh
   0.0000000000000000    0.6098180054414968    0.3797373884354308 T T T Hf
   0.3901819945585032    0.6098180054414968    0.3797373884354308 T T T Hf
   0.6098180054414968    0.7803639891170064    0.4488585564624717 F F F Hf
   0.0000000000000000    0.2756759516878162    0.4492492262482375 F F F Ga
   0.7243240483121838    0.2756759516878162    0.4492492262482375 F F F Ga
   0.2756759516878162    0.4486480966243676    0.4348348808368583 F F F Ga
   0.6666666666666666    0.0000000000000001    0.3888888888888889 T T T Rh
   0.3333333333333333    0.0000000000000001    0.3888888888888889 T T T Rh
   0.0000000000000000    0.0000000000000000    0.4305555555555556 F F F Rh
   0.0000000000000000    0.6098180054414968    0.4630707217687642 F F F Hf
   0.3901819945585032    0.6098180054414968    0.4630707217687642 F F F Hf
   0.6098180054414968    0.7803639891170064    0.5321918897958050 F F F Hf
   0.0000000000000000    0.2756759516878162    0.5325825595815709 F F F Ga
   0.7243240483121838    0.2756759516878162    0.5325825595815709 F F F Ga
   0.2756759516878162    0.4486480966243676    0.5181682141701915 F F F Ga
   0.6666666666666666    0.0000000000000001    0.4722222222222222 F F F Rh
   0.3333333333333333    0.0000000000000001    0.4722222222222222 F F F Rh
   0.0000000000000000    0.0000000000000000    0.5138888888888888 F F F Rh
   0.0000000000000000    0.6098180054414968    0.5464040551020974 F F F Hf
   0.3901819945585032    0.6098180054414968    0.5464040551020974 F F F Hf
   0.6098180054414968    0.7803639891170064    0.6155252231291384 T T T Hf
   0.0000000000000000    0.2756759516878162    0.6159158929149042 T T T Ga
   0.7243240483121838    0.2756759516878162    0.6159158929149042 T T T Ga
   0.2756759516878162    0.4486480966243676    0.6015015475035250 T T T Ga
   0.6666666666666666    0.0000000000000001    0.5555555555555556 F F F Rh
   0.3333333333333333    0.0000000000000001    0.5555555555555556 F F F Rh
   0.0000000000000000    0.0000000000000000    0.5972222222222223 T T T Rh
   0.0000000000000000    0.6098180054414968    0.6297373884354308 T T T Hf
   0.3901819945585032    0.6098180054414968    0.6297373884354308 T T T Hf
   0.6098180054414968    0.7803639891170064    0.6988585564624716 T T T Hf
   0.0000000000000000    0.2756759516878162    0.6992492262482375 T T T Ga
   0.7243240483121838    0.2756759516878162    0.6992492262482375 T T T Ga
   0.2756759516878162    0.4486480966243676    0.6848348808368583 T T T Ga
   0.6666666666666666    0.0000000000000001    0.6388888888888888 T T T Rh
   0.3333333333333333    0.0000000000000001    0.6388888888888888 T T T Rh
   0.0000000000000000    0.0000000000000000    0.6805555555555556 T T T Rh
