Hf18 Al27 Cu9
1.0
   4.5641921347073380    0.0000000000000000   -2.6351375576064555
  -0.0000000000000063   12.4769012263252144  -10.5405502304258185
   0.0000000000000000    0.0000000000000000   42.1622009217032669
Hf Al Cu Hf Al Cu Hf Al Cu
6 9 3 6 9 3 6 9 3
Selective dynamics
direct
   0.6666666666666666    0.7915556210334624    0.4201111274805878 F F F Hf
   0.6666666666666667    0.5417777122998707    0.3576666502971899 T T T Hf
   0.0000000000000000    0.1248889543667957    0.3367777941472545 T T T Hf
   0.0000000000000000    0.8751110456332040    0.3993333169638565 T T T Hf
   0.3333333333333332    0.4582222877001292    0.3784444608139212 T T T Hf
   0.3333333333333335    0.2084443789665373    0.3159999836305232 T T T Hf
   0.8333333333333333    0.3333333333333333    0.3472222222222222 T T T Al
   0.0000000000000000    0.0000000000000000    0.3680555555555556 T T T Al
   0.5000000000000000    0.0000000000000000    0.3680555555555556 T T T Al
   0.1666666666666665    0.6666666666666666    0.3888888888888888 T T T Al
   0.3333333333333333    0.3333333333333333    0.4097222222222222 T T T Al
   0.8333333333333333    0.3333333333333333    0.4097222222222222 T T T Al
   0.5000000000000000    0.0000000000000000    0.4305555555555556 F F F Al
   0.6666666666666665    0.6666666666666666    0.3263888888888888 T T T Al
   0.1666666666666664    0.6666666666666666    0.3263888888888888 T T T Al
   0.6666666666666665    0.1666666666666667    0.3888888888888889 T T T Cu
   0.9999999999999998    0.4999999999999999    0.4305555555555555 F F F Cu
   0.3333333333333330    0.8333333333333333    0.3472222222222222 T T T Cu
   0.6666666666666666    0.7915556210334624    0.5451111274805878 F F F Hf
   0.6666666666666667    0.5417777122998707    0.4826666502971899 F F F Hf
   0.0000000000000000    0.1248889543667957    0.4617777941472545 F F F Hf
   0.0000000000000000    0.8751110456332040    0.5243333169638565 F F F Hf
   0.3333333333333332    0.4582222877001292    0.5034444608139212 F F F Hf
   0.3333333333333335    0.2084443789665373    0.4409999836305232 F F F Hf
   0.8333333333333333    0.3333333333333333    0.4722222222222222 F F F Al
   0.0000000000000000    0.0000000000000000    0.4930555555555556 F F F Al
   0.5000000000000000    0.0000000000000000    0.4930555555555556 F F F Al
   0.1666666666666665    0.6666666666666666    0.5138888888888888 F F F Al
   0.3333333333333333    0.3333333333333333    0.5347222222222222 F F F Al
   0.8333333333333333    0.3333333333333333    0.5347222222222222 F F F Al
   0.5000000000000000    0.0000000000000000    0.5555555555555556 F F F Al
   0.6666666666666665    0.6666666666666666    0.4513888888888888 F F F Al
   0.1666666666666664    0.6666666666666666    0.4513888888888888 F F F Al
   0.6666666666666665    0.1666666666666667    0.5138888888888888 F F F Cu
   0.9999999999999998    0.4999999999999999    0.5555555555555556 F F F Cu
   0.3333333333333330    0.8333333333333333    0.4722222222222222 F F F Cu
   0.6666666666666666    0.7915556210334624    0.6701111274805878 T T T Hf
   0.6666666666666667    0.5417777122998707    0.6076666502971899 T T T Hf
   0.0000000000000000    0.1248889543667957    0.5867777941472545 T T T Hf
   0.0000000000000000    0.8751110456332040    0.6493333169638565 T T T Hf
   0.3333333333333332    0.4582222877001292    0.6284444608139212 T T T Hf
   0.3333333333333335    0.2084443789665373    0.5659999836305232 F F F Hf
   0.8333333333333333    0.3333333333333333    0.5972222222222222 T T T Al
   0.0000000000000000    0.0000000000000000    0.6180555555555556 T T T Al
   0.5000000000000000    0.0000000000000000    0.6180555555555556 T T T Al
   0.1666666666666665    0.6666666666666666    0.6388888888888888 T T T Al
   0.3333333333333333    0.3333333333333333    0.6597222222222222 T T T Al
   0.8333333333333333    0.3333333333333333    0.6597222222222222 T T T Al
   0.5000000000000000    0.0000000000000000    0.6805555555555556 T T T Al
   0.6666666666666665    0.6666666666666666    0.5763888888888888 F F F Al
   0.1666666666666664    0.6666666666666666    0.5763888888888888 F F F Al
   0.6666666666666665    0.1666666666666667    0.6388888888888888 T T T Cu
   0.9999999999999998    0.4999999999999999    0.6805555555555556 T T T Cu
   0.3333333333333330    0.8333333333333333    0.5972222222222222 T T T Cu
