Hf60 Ga20 Co10
1.0
  20.5236335806395402    0.0000000000000000    0.0000000000000013
   5.8638953087541532    5.0782823025134904    6.6663970467442262
   0.0000000000000000    0.0000000000000000   43.3315808038374612
Hf Ga Co Hf Ga Co Hf Ga Co Hf Ga Co Hf Ga Co
12 4 2 12 4 2 12 4 2 12 4 2 12 4 2
Selective dynamics
direct
   0.8752288341840249    0.1247711658159751    0.3696933249172004 T T T Hf
   0.3752288341840249    0.6247711658159751    0.3696933249172004 T T T Hf
   0.6247711658159751    0.1256865025520746    0.3695525038808774 T T T Hf
   0.1247711658159751    0.6256865025520746    0.3695525038808774 T T T Hf
   0.5000000000000000    0.7495423316319503    0.3504977609455119 T T T Hf
   0.0000000000000000    0.2495423316319503    0.3504977609455119 T T T Hf
   0.7004662558276245    0.2995337441723755    0.3043452359392926 T T T Hf
   0.2004662558276245    0.7995337441723755    0.3043452359392926 T T T Hf
   0.7995337441723755    0.6013987674828734    0.3348275400453699 T T T Hf
   0.2995337441723755    0.1013987674828734    0.3348275400453699 T T T Hf
   0.5000000000000000    0.0990674883447511    0.3351861983743118 T T T Hf
   0.0000000000000000    0.5990674883447511    0.3351861983743118 T T T Hf
   0.8333333333333333    0.8333333333333335    0.3376068376068376 T T T Ga
   0.3333333333333333    0.3333333333333335    0.3376068376068376 T T T Ga
   0.6666666666666666    0.6666666666666667    0.3632478632478632 T T T Ga
   0.1666666666666667    0.1666666666666667    0.3632478632478632 T T T Ga
   0.5000000000000000    0.5000000000000000    0.3504273504273504 T T T Co
   0.0000000000000000    0.0000000000000000    0.3504273504273504 T T T Co
   0.8752288341840249    0.1247711658159751    0.4466164018402773 F F F Hf
   0.3752288341840249    0.6247711658159751    0.4466164018402773 F F F Hf
   0.6247711658159751    0.1256865025520746    0.4464755808039543 F F F Hf
   0.1247711658159751    0.6256865025520746    0.4464755808039543 F F F Hf
   0.5000000000000000    0.7495423316319503    0.4274208378685889 F F F Hf
   0.0000000000000000    0.2495423316319503    0.4274208378685889 F F F Hf
   0.7004662558276245    0.2995337441723755    0.3812683128623696 T T T Hf
   0.2004662558276245    0.7995337441723755    0.3812683128623696 T T T Hf
   0.7995337441723755    0.6013987674828734    0.4117506169684468 T T T Hf
   0.2995337441723755    0.1013987674828734    0.4117506169684468 T T T Hf
   0.5000000000000000    0.0990674883447511    0.4121092752973887 T T T Hf
   0.0000000000000000    0.5990674883447511    0.4121092752973887 T T T Hf
   0.8333333333333333    0.8333333333333335    0.4145299145299145 T T T Ga
   0.3333333333333333    0.3333333333333335    0.4145299145299145 T T T Ga
   0.6666666666666666    0.6666666666666667    0.4401709401709402 F F F Ga
   0.1666666666666667    0.1666666666666667    0.4401709401709402 F F F Ga
   0.5000000000000000    0.5000000000000000    0.4273504273504273 F F F Co
   0.0000000000000000    0.0000000000000000    0.4273504273504273 F F F Co
   0.8752288341840249    0.1247711658159751    0.5235394787633543 F F F Hf
   0.3752288341840249    0.6247711658159751    0.5235394787633543 F F F Hf
   0.6247711658159751    0.1256865025520746    0.5233986577270313 F F F Hf
   0.1247711658159751    0.6256865025520746    0.5233986577270313 F F F Hf
   0.5000000000000000    0.7495423316319503    0.5043439147916657 F F F Hf
   0.0000000000000000    0.2495423316319503    0.5043439147916657 F F F Hf
   0.7004662558276245    0.2995337441723755    0.4581913897854465 F F F Hf
   0.2004662558276245    0.7995337441723755    0.4581913897854465 F F F Hf
   0.7995337441723755    0.6013987674828734    0.4886736938915238 F F F Hf
   0.2995337441723755    0.1013987674828734    0.4886736938915238 F F F Hf
   0.5000000000000000    0.0990674883447511    0.4890323522204656 F F F Hf
   0.0000000000000000    0.5990674883447511    0.4890323522204656 F F F Hf
   0.8333333333333333    0.8333333333333335    0.4914529914529914 F F F Ga
   0.3333333333333333    0.3333333333333335    0.4914529914529914 F F F Ga
   0.6666666666666666    0.6666666666666667    0.5170940170940170 F F F Ga
   0.1666666666666667    0.1666666666666667    0.5170940170940170 F F F Ga
   0.5000000000000000    0.5000000000000000    0.5042735042735043 F F F Co
   0.0000000000000000    0.0000000000000000    0.5042735042735043 F F F Co
   0.8752288341840249    0.1247711658159751    0.6004625556864311 T T T Hf
   0.3752288341840249    0.6247711658159751    0.6004625556864311 T T T Hf
   0.6247711658159751    0.1256865025520746    0.6003217346501082 T T T Hf
   0.1247711658159751    0.6256865025520746    0.6003217346501082 T T T Hf
   0.5000000000000000    0.7495423316319503    0.5812669917147427 T T T Hf
   0.0000000000000000    0.2495423316319503    0.5812669917147427 T T T Hf
   0.7004662558276245    0.2995337441723755    0.5351144667085235 F F F Hf
   0.2004662558276245    0.7995337441723755    0.5351144667085235 F F F Hf
   0.7995337441723755    0.6013987674828734    0.5655967708146007 T T T Hf
   0.2995337441723755    0.1013987674828734    0.5655967708146007 T T T Hf
   0.5000000000000000    0.0990674883447511    0.5659554291435426 T T T Hf
   0.0000000000000000    0.5990674883447511    0.5659554291435426 T T T Hf
   0.8333333333333333    0.8333333333333335    0.5683760683760684 T T T Ga
   0.3333333333333333    0.3333333333333335    0.5683760683760684 T T T Ga
   0.6666666666666666    0.6666666666666667    0.5940170940170940 T T T Ga
   0.1666666666666667    0.1666666666666667    0.5940170940170940 T T T Ga
   0.5000000000000000    0.5000000000000000    0.5811965811965811 T T T Co
   0.0000000000000000    0.0000000000000000    0.5811965811965811 T T T Co
   0.8752288341840249    0.1247711658159751    0.6773856326095081 T T T Hf
   0.3752288341840249    0.6247711658159751    0.6773856326095081 T T T Hf
   0.6247711658159751    0.1256865025520746    0.6772448115731851 T T T Hf
   0.1247711658159751    0.6256865025520746    0.6772448115731851 T T T Hf
   0.5000000000000000    0.7495423316319503    0.6581900686378196 T T T Hf
   0.0000000000000000    0.2495423316319503    0.6581900686378196 T T T Hf
   0.7004662558276245    0.2995337441723755    0.6120375436316003 T T T Hf
   0.2004662558276245    0.7995337441723755    0.6120375436316003 T T T Hf
   0.7995337441723755    0.6013987674828734    0.6425198477376777 T T T Hf
   0.2995337441723755    0.1013987674828734    0.6425198477376777 T T T Hf
   0.5000000000000000    0.0990674883447511    0.6428785060666196 T T T Hf
   0.0000000000000000    0.5990674883447511    0.6428785060666196 T T T Hf
   0.8333333333333333    0.8333333333333335    0.6452991452991452 T T T Ga
   0.3333333333333333    0.3333333333333335    0.6452991452991452 T T T Ga
   0.6666666666666666    0.6666666666666667    0.6709401709401710 T T T Ga
   0.1666666666666667    0.1666666666666667    0.6709401709401710 T T T Ga
   0.5000000000000000    0.5000000000000000    0.6581196581196581 T T T Co
   0.0000000000000000    0.0000000000000000    0.6581196581196581 T T T Co
