Ti15 Re15 Si15
1.0
  11.8006006855423404    0.0000000000000000    0.0000000000000007
   5.9003003427711702    3.4065399911985792    3.2441912905440593
   0.0000000000000000    0.0000000000000000   38.9302954865287063
Ti Re Si Ti Re Si Ti Re Si Ti Re Si Ti Re Si
3 3 3 3 3 3 3 3 3 3 3 3 3 3 3
Selective dynamics
direct
   0.4030138966066374    0.1939722067867252    0.3217986123974025 T T T Ti
   0.0000000000000000    0.4030138966066374    0.3043784715790765 T T T Ti
   0.5969861033933626    0.4030138966066374    0.3043784715790765 T T T Ti
   0.7373485209951197    0.5253029580097606    0.3358543831288162 T T T Re
   0.0000000000000000    0.7373485209951198    0.3181839195467029 T T T Re
   0.2626514790048802    0.7373485209951198    0.3181839195467029 T T T Re
   0.3333333333333333    0.0000000000000000    0.3796296296296296 T T T Si
   0.6666666666666666    0.0000000000000000    0.3796296296296296 T T T Si
   0.0000000000000000    0.0000000000000000    0.3379629629629630 T T T Si
   0.4030138966066374    0.1939722067867252    0.4051319457307359 T T T Ti
   0.0000000000000000    0.4030138966066374    0.3877118049124098 T T T Ti
   0.5969861033933626    0.4030138966066374    0.3877118049124098 T T T Ti
   0.7373485209951197    0.5253029580097606    0.4191877164621496 F F F Re
   0.0000000000000000    0.7373485209951198    0.4015172528800363 T T T Re
   0.2626514790048802    0.7373485209951198    0.4015172528800363 T T T Re
   0.3333333333333333    0.0000000000000000    0.4629629629629629 F F F Si
   0.6666666666666666    0.0000000000000000    0.4629629629629629 F F F Si
   0.0000000000000000    0.0000000000000000    0.4212962962962963 F F F Si
   0.4030138966066374    0.1939722067867252    0.4884652790640692 F F F Ti
   0.0000000000000000    0.4030138966066374    0.4710451382457431 F F F Ti
   0.5969861033933626    0.4030138966066374    0.4710451382457431 F F F Ti
   0.7373485209951197    0.5253029580097606    0.5025210497954828 F F F Re
   0.0000000000000000    0.7373485209951198    0.4848505862133696 F F F Re
   0.2626514790048802    0.7373485209951198    0.4848505862133696 F F F Re
   0.3333333333333333    0.0000000000000000    0.5462962962962963 F F F Si
   0.6666666666666666    0.0000000000000000    0.5462962962962963 F F F Si
   0.0000000000000000    0.0000000000000000    0.5046296296296295 F F F Si
   0.4030138966066374    0.1939722067867252    0.5717986123974025 F F F Ti
   0.0000000000000000    0.4030138966066374    0.5543784715790765 F F F Ti
   0.5969861033933626    0.4030138966066374    0.5543784715790765 F F F Ti
   0.7373485209951197    0.5253029580097606    0.5858543831288162 F F F Re
   0.0000000000000000    0.7373485209951198    0.5681839195467029 F F F Re
   0.2626514790048802    0.7373485209951198    0.5681839195467029 F F F Re
   0.3333333333333333    0.0000000000000000    0.6296296296296295 T T T Si
   0.6666666666666666    0.0000000000000000    0.6296296296296295 T T T Si
   0.0000000000000000    0.0000000000000000    0.5879629629629630 F F F Si
   0.4030138966066374    0.1939722067867252    0.6551319457307359 T T T Ti
   0.0000000000000000    0.4030138966066374    0.6377118049124098 T T T Ti
   0.5969861033933626    0.4030138966066374    0.6377118049124098 T T T Ti
   0.7373485209951197    0.5253029580097606    0.6691877164621496 T T T Re
   0.0000000000000000    0.7373485209951198    0.6515172528800363 T T T Re
   0.2626514790048802    0.7373485209951198    0.6515172528800363 T T T Re
   0.3333333333333333    0.0000000000000000    0.7129629629629629 T T T Si
   0.6666666666666666    0.0000000000000000    0.7129629629629629 T T T Si
   0.0000000000000000    0.0000000000000000    0.6712962962962963 T T T Si
