Nb12 Zn36 Ga36
1.0
   4.7439834311276359    0.0000000000000000   -8.2168203329780063
  -0.0000000000000040   13.9808626909810307   -5.4778802219853366
   0.0000000000000000    0.0000000000000000   54.7788022198533469
Nb Zn Ga Nb Zn Ga Nb Zn Ga Nb Zn Ga
3 9 9 3 9 9 3 9 9 3 9 9
Selective dynamics
direct
   0.0000000000000000    0.0000000000000000    0.3904761904761905 T T T Nb
   0.3333333333333334    0.3333333333333333    0.3238095238095239 T T T Nb
   0.6666666666666667    0.6666666666666666    0.3571428571428572 T T T Nb
   0.1666666666666667    0.1666666666666667    0.3571428571428572 T T T Zn
   0.6666666666666670    0.1666666666666667    0.3571428571428572 T T T Zn
   0.1666666666666669    0.1666666666666667    0.3071428571428572 T T T Zn
   0.5000000000000001    0.5000000000000000    0.3904761904761905 T T T Zn
   0.0000000000000001    0.5000000000000000    0.3904761904761905 T T T Zn
   0.5000000000000001    0.5000000000000000    0.3404761904761905 T T T Zn
   0.8333333333333334    0.8333333333333333    0.3238095238095238 T T T Zn
   0.3333333333333336    0.8333333333333333    0.3238095238095239 T T T Zn
   0.8333333333333334    0.8333333333333333    0.3738095238095239 T T T Zn
   0.5000000000000001    0.0000000000000000    0.3404761904761905 T T T Ga
   0.0000000000000001    0.0000000000000000    0.3404761904761905 T T T Ga
   0.5000000000000001    0.0000000000000000    0.3904761904761905 T T T Ga
   0.8333333333333334    0.3333333333333333    0.3738095238095239 T T T Ga
   0.3333333333333334    0.3333333333333333    0.3738095238095238 T T T Ga
   0.8333333333333334    0.3333333333333333    0.3238095238095238 T T T Ga
   0.1666666666666666    0.6666666666666666    0.3071428571428572 T T T Ga
   0.6666666666666669    0.6666666666666666    0.3071428571428572 T T T Ga
   0.1666666666666666    0.6666666666666666    0.3571428571428572 T T T Ga
   0.0000000000000000    0.0000000000000000    0.4904761904761905 F F F Nb
   0.3333333333333334    0.3333333333333333    0.4238095238095239 F F F Nb
   0.6666666666666667    0.6666666666666666    0.4571428571428572 F F F Nb
   0.1666666666666667    0.1666666666666667    0.4571428571428572 F F F Zn
   0.6666666666666670    0.1666666666666667    0.4571428571428572 F F F Zn
   0.1666666666666669    0.1666666666666667    0.4071428571428573 T T T Zn
   0.5000000000000001    0.5000000000000000    0.4904761904761905 F F F Zn
   0.0000000000000001    0.5000000000000000    0.4904761904761905 F F F Zn
   0.5000000000000001    0.5000000000000000    0.4404761904761905 F F F Zn
   0.8333333333333334    0.8333333333333333    0.4238095238095239 F F F Zn
   0.3333333333333336    0.8333333333333333    0.4238095238095239 F F F Zn
   0.8333333333333334    0.8333333333333333    0.4738095238095239 F F F Zn
   0.5000000000000001    0.0000000000000000    0.4404761904761905 F F F Ga
   0.0000000000000001    0.0000000000000000    0.4404761904761905 F F F Ga
   0.5000000000000001    0.0000000000000000    0.4904761904761905 F F F Ga
   0.8333333333333334    0.3333333333333333    0.4738095238095239 F F F Ga
   0.3333333333333334    0.3333333333333333    0.4738095238095238 F F F Ga
   0.8333333333333334    0.3333333333333333    0.4238095238095239 F F F Ga
   0.1666666666666666    0.6666666666666666    0.4071428571428572 T T T Ga
   0.6666666666666669    0.6666666666666666    0.4071428571428572 T T T Ga
   0.1666666666666666    0.6666666666666666    0.4571428571428572 F F F Ga
   0.0000000000000000    0.0000000000000000    0.5904761904761905 T T T Nb
   0.3333333333333334    0.3333333333333333    0.5238095238095239 F F F Nb
   0.6666666666666667    0.6666666666666666    0.5571428571428572 F F F Nb
   0.1666666666666667    0.1666666666666667    0.5571428571428572 F F F Zn
   0.6666666666666670    0.1666666666666667    0.5571428571428572 F F F Zn
   0.1666666666666669    0.1666666666666667    0.5071428571428572 F F F Zn
   0.5000000000000001    0.5000000000000000    0.5904761904761906 T T T Zn
   0.0000000000000001    0.5000000000000000    0.5904761904761906 T T T Zn
   0.5000000000000001    0.5000000000000000    0.5404761904761906 F F F Zn
   0.8333333333333334    0.8333333333333333    0.5238095238095238 F F F Zn
   0.3333333333333336    0.8333333333333333    0.5238095238095239 F F F Zn
   0.8333333333333334    0.8333333333333333    0.5738095238095239 F F F Zn
   0.5000000000000001    0.0000000000000000    0.5404761904761906 F F F Ga
   0.0000000000000001    0.0000000000000000    0.5404761904761906 F F F Ga
   0.5000000000000001    0.0000000000000000    0.5904761904761906 T T T Ga
   0.8333333333333334    0.3333333333333333    0.5738095238095239 F F F Ga
   0.3333333333333334    0.3333333333333333    0.5738095238095239 F F F Ga
   0.8333333333333334    0.3333333333333333    0.5238095238095238 F F F Ga
   0.1666666666666666    0.6666666666666666    0.5071428571428571 F F F Ga
   0.6666666666666669    0.6666666666666666    0.5071428571428572 F F F Ga
   0.1666666666666666    0.6666666666666666    0.5571428571428572 F F F Ga
   0.0000000000000000    0.0000000000000000    0.6904761904761905 T T T Nb
   0.3333333333333334    0.3333333333333333    0.6238095238095238 T T T Nb
   0.6666666666666667    0.6666666666666666    0.6571428571428573 T T T Nb
   0.1666666666666667    0.1666666666666667    0.6571428571428573 T T T Zn
   0.6666666666666670    0.1666666666666667    0.6571428571428573 T T T Zn
   0.1666666666666669    0.1666666666666667    0.6071428571428572 T T T Zn
   0.5000000000000001    0.5000000000000000    0.6904761904761905 T T T Zn
   0.0000000000000001    0.5000000000000000    0.6904761904761905 T T T Zn
   0.5000000000000001    0.5000000000000000    0.6404761904761905 T T T Zn
   0.8333333333333334    0.8333333333333333    0.6238095238095238 T T T Zn
   0.3333333333333336    0.8333333333333333    0.6238095238095238 T T T Zn
   0.8333333333333334    0.8333333333333333    0.6738095238095239 T T T Zn
   0.5000000000000001    0.0000000000000000    0.6404761904761904 T T T Ga
   0.0000000000000001    0.0000000000000000    0.6404761904761904 T T T Ga
   0.5000000000000001    0.0000000000000000    0.6904761904761905 T T T Ga
   0.8333333333333334    0.3333333333333333    0.6738095238095239 T T T Ga
   0.3333333333333334    0.3333333333333333    0.6738095238095239 T T T Ga
   0.8333333333333334    0.3333333333333333    0.6238095238095238 T T T Ga
   0.1666666666666666    0.6666666666666666    0.6071428571428572 T T T Ga
   0.6666666666666669    0.6666666666666666    0.6071428571428572 T T T Ga
   0.1666666666666666    0.6666666666666666    0.6571428571428571 T T T Ga
