Sr8 Al24 Ag8
1.0
   4.3419225263036783    0.0000000000000000   -4.3419225263036774
  -0.0000000000000033   11.7220109173163287   -8.6838450526073547
   0.0000000000000000    0.0000000000000000   43.4192252630367790
Sr Al Ag Sr Al Ag Sr Al Ag Sr Al Ag
2 6 2 2 6 2 2 6 2 2 6 2
Selective dynamics
direct
   0.5000000000000000    0.4985925555943710    0.3697299849188750 T T T Sr
   0.0000000000000000    0.9985925555943709    0.3697299849188750 T T T Sr
   0.5000000000000000    0.2494431048828503    0.3699000947765708 T T T Al
   0.0000000000000000    0.2494431048828503    0.3699000947765708 T T T Al
   0.0000000000000000    0.3878338450339101    0.3475782428067828 T T T Al
   0.0000000000000000    0.7494431048828504    0.3699000947765709 T T T Al
   0.5000000000000000    0.7494431048828504    0.3699000947765709 T T T Al
   0.5000000000000000    0.8878338450339102    0.3475782428067828 T T T Al
   0.5000000000000000    0.1144005446059993    0.2928915827212006 T T T Ag
   0.0000000000000000    0.6144005446059992    0.2928915827212006 T T T Ag
   0.5000000000000000    0.4985925555943710    0.4697299849188750 F F F Sr
   0.0000000000000000    0.9985925555943709    0.4697299849188750 F F F Sr
   0.5000000000000000    0.2494431048828503    0.4699000947765709 F F F Al
   0.0000000000000000    0.2494431048828503    0.4699000947765709 F F F Al
   0.0000000000000000    0.3878338450339101    0.4475782428067828 F F F Al
   0.0000000000000000    0.7494431048828504    0.4699000947765709 F F F Al
   0.5000000000000000    0.7494431048828504    0.4699000947765709 F F F Al
   0.5000000000000000    0.8878338450339102    0.4475782428067828 F F F Al
   0.5000000000000000    0.1144005446059993    0.3928915827212006 T T T Ag
   0.0000000000000000    0.6144005446059992    0.3928915827212006 T T T Ag
   0.5000000000000000    0.4985925555943710    0.5697299849188751 T T T Sr
   0.0000000000000000    0.9985925555943709    0.5697299849188749 T T T Sr
   0.5000000000000000    0.2494431048828503    0.5699000947765709 T T T Al
   0.0000000000000000    0.2494431048828503    0.5699000947765709 T T T Al
   0.0000000000000000    0.3878338450339101    0.5475782428067828 F F F Al
   0.0000000000000000    0.7494431048828504    0.5699000947765709 T T T Al
   0.5000000000000000    0.7494431048828504    0.5699000947765709 T T T Al
   0.5000000000000000    0.8878338450339102    0.5475782428067828 F F F Al
   0.5000000000000000    0.1144005446059993    0.4928915827212006 F F F Ag
   0.0000000000000000    0.6144005446059992    0.4928915827212006 F F F Ag
   0.5000000000000000    0.4985925555943710    0.6697299849188749 T T T Sr
   0.0000000000000000    0.9985925555943709    0.6697299849188749 T T T Sr
   0.5000000000000000    0.2494431048828503    0.6699000947765709 T T T Al
   0.0000000000000000    0.2494431048828503    0.6699000947765709 T T T Al
   0.0000000000000000    0.3878338450339101    0.6475782428067828 T T T Al
   0.0000000000000000    0.7494431048828504    0.6699000947765709 T T T Al
   0.5000000000000000    0.7494431048828504    0.6699000947765709 T T T Al
   0.5000000000000000    0.8878338450339102    0.6475782428067828 T T T Al
   0.5000000000000000    0.1144005446059993    0.5928915827212007 T T T Ag
   0.0000000000000000    0.6144005446059992    0.5928915827212007 T T T Ag
