V36 Cr36 Si24
1.0
   5.6347423919700104    0.0000000000000000   -9.7596601104542557
  -0.0000000000000005    7.9579822073827904   -6.5064400736361661
   0.0000000000000000    0.0000000000000000   58.5579606627255203
V Cr Si V Cr Si V Cr Si V Cr Si
9 9 6 9 9 6 9 9 6 9 9 6
Selective dynamics
direct
   0.3333333333333334    0.3333333333333333    0.2893335961428621 T T T V
   0.5834976347142415    0.3333333333333333    0.3727216966031648 T T T V
   0.0831690319524253    0.3333333333333333    0.2893335961428621 T T T V
   0.6666666666666667    0.6666666666666666    0.3263706331798992 T T T V
   0.9168309680475748    0.6666666666666666    0.2986476225290908 T T T V
   0.4165023652857586    0.6666666666666666    0.3263706331798992 T T T V
   0.0000000000000001    0.0000000000000000    0.3634076702169362 T T T V
   0.2501643013809081    0.0000000000000000    0.3356846595661278 T T T V
   0.7498356986190919    0.0000000000000000    0.3634076702169362 T T T V
   0.0000000000000000    0.4999999999999999    0.3634072480347168 T T T Cr
   0.7501681010208827    0.4999999999999999    0.3912410594861221 T T T Cr
   0.2498318989791174    0.4999999999999999    0.3634072480347168 T T T Cr
   0.3333333333333333    0.8333333333333331    0.2893331739606427 T T T Cr
   0.0835014343542160    0.8333333333333333    0.3171669854120480 T T T Cr
   0.5831652323124507    0.8333333333333331    0.2893331739606427 T T T Cr
   0.6666666666666666    0.1666666666666665    0.3263702109976797 T T T Cr
   0.4168347676875493    0.1666666666666665    0.3542040224490851 T T T Cr
   0.9164985656457840    0.1666666666666665    0.3263702109976797 T T T Cr
   0.0000000000000000    0.2508427272437643    0.3079640067307887 T T T Si
   0.0000000000000000    0.7491572727562356    0.3633322895655077 T T T Si
   0.3333333333333333    0.5841760605770975    0.3450010437678257 T T T Si
   0.3333333333333333    0.0824906060895689    0.2892582154914336 T T T Si
   0.6666666666666666    0.9175093939104308    0.3820380808048627 T T T Si
   0.6666666666666666    0.4158239394229021    0.3262952525284706 T T T Si
   0.3333333333333334    0.3333333333333333    0.4004447072539732 F F F V
   0.5834976347142415    0.3333333333333333    0.4838328077142759 F F F V
   0.0831690319524253    0.3333333333333333    0.4004447072539732 F F F V
   0.6666666666666667    0.6666666666666666    0.4374817442910103 F F F V
   0.9168309680475748    0.6666666666666666    0.4097587336402019 F F F V
   0.4165023652857586    0.6666666666666666    0.4374817442910103 F F F V
   0.0000000000000001    0.0000000000000000    0.4745187813280473 F F F V
   0.2501643013809081    0.0000000000000000    0.4467957706772389 F F F V
   0.7498356986190919    0.0000000000000000    0.4745187813280473 F F F V
   0.0000000000000000    0.4999999999999999    0.4745183591458279 F F F Cr
   0.7501681010208827    0.4999999999999999    0.5023521705972332 F F F Cr
   0.2498318989791174    0.4999999999999999    0.4745183591458279 F F F Cr
   0.3333333333333333    0.8333333333333331    0.4004442850717538 F F F Cr
   0.0835014343542160    0.8333333333333333    0.4282780965231591 F F F Cr
   0.5831652323124507    0.8333333333333331    0.4004442850717538 F F F Cr
   0.6666666666666666    0.1666666666666665    0.4374813221087908 F F F Cr
   0.4168347676875493    0.1666666666666665    0.4653151335601962 F F F Cr
   0.9164985656457840    0.1666666666666665    0.4374813221087908 F F F Cr
   0.0000000000000000    0.2508427272437643    0.4190751178418998 F F F Si
   0.0000000000000000    0.7491572727562356    0.4744434006766188 F F F Si
   0.3333333333333333    0.5841760605770975    0.4561121548789368 F F F Si
   0.3333333333333333    0.0824906060895689    0.4003693266025448 F F F Si
   0.6666666666666666    0.9175093939104308    0.4931491919159738 F F F Si
   0.6666666666666666    0.4158239394229021    0.4374063636395817 F F F Si
   0.3333333333333334    0.3333333333333333    0.5115558183650843 F F F V
   0.5834976347142415    0.3333333333333333    0.5949439188253870 F F F V
   0.0831690319524253    0.3333333333333333    0.5115558183650843 F F F V
   0.6666666666666667    0.6666666666666666    0.5485928554021213 F F F V
   0.9168309680475748    0.6666666666666666    0.5208698447513129 F F F V
   0.4165023652857586    0.6666666666666666    0.5485928554021213 F F F V
   0.0000000000000001    0.0000000000000000    0.5856298924391584 F F F V
   0.2501643013809081    0.0000000000000000    0.5579068817883499 F F F V
   0.7498356986190919    0.0000000000000000    0.5856298924391584 F F F V
   0.0000000000000000    0.4999999999999999    0.5856294702569390 F F F Cr
   0.7501681010208827    0.4999999999999999    0.6134632817083443 F F F Cr
   0.2498318989791174    0.4999999999999999    0.5856294702569390 F F F Cr
   0.3333333333333333    0.8333333333333331    0.5115553961828649 F F F Cr
   0.0835014343542160    0.8333333333333333    0.5393892076342702 F F F Cr
   0.5831652323124507    0.8333333333333331    0.5115553961828649 F F F Cr
   0.6666666666666666    0.1666666666666665    0.5485924332199019 F F F Cr
   0.4168347676875493    0.1666666666666665    0.5764262446713073 F F F Cr
   0.9164985656457840    0.1666666666666665    0.5485924332199019 F F F Cr
   0.0000000000000000    0.2508427272437643    0.5301862289530108 F F F Si
   0.0000000000000000    0.7491572727562356    0.5855545117877299 F F F Si
   0.3333333333333333    0.5841760605770975    0.5672232659900479 F F F Si
   0.3333333333333333    0.0824906060895689    0.5114804377136558 F F F Si
   0.6666666666666666    0.9175093939104308    0.6042603030270850 F F F Si
   0.6666666666666666    0.4158239394229021    0.5485174747506929 F F F Si
   0.3333333333333334    0.3333333333333333    0.6226669294761954 T T T V
   0.5834976347142415    0.3333333333333333    0.7060550299364982 T T T V
   0.0831690319524253    0.3333333333333333    0.6226669294761955 T T T V
   0.6666666666666667    0.6666666666666666    0.6597039665132325 T T T V
   0.9168309680475748    0.6666666666666666    0.6319809558624241 T T T V
   0.4165023652857586    0.6666666666666666    0.6597039665132325 T T T V
   0.0000000000000001    0.0000000000000000    0.6967410035502695 T T T V
   0.2501643013809081    0.0000000000000000    0.6690179928994611 T T T V
   0.7498356986190919    0.0000000000000000    0.6967410035502695 T T T V
   0.0000000000000000    0.4999999999999999    0.6967405813680501 T T T Cr
   0.7501681010208827    0.4999999999999999    0.7245743928194555 T T T Cr
   0.2498318989791174    0.4999999999999999    0.6967405813680501 T T T Cr
   0.3333333333333333    0.8333333333333331    0.6226665072939760 T T T Cr
   0.0835014343542160    0.8333333333333333    0.6505003187453813 T T T Cr
   0.5831652323124507    0.8333333333333331    0.6226665072939760 T T T Cr
   0.6666666666666666    0.1666666666666665    0.6597035443310131 T T T Cr
   0.4168347676875493    0.1666666666666665    0.6875373557824184 T T T Cr
   0.9164985656457840    0.1666666666666665    0.6597035443310131 T T T Cr
   0.0000000000000000    0.2508427272437643    0.6412973400641220 T T T Si
   0.0000000000000000    0.7491572727562356    0.6966656228988410 T T T Si
   0.3333333333333333    0.5841760605770975    0.6783343771011590 T T T Si
   0.3333333333333333    0.0824906060895689    0.6225915488247669 T T T Si
   0.6666666666666666    0.9175093939104308    0.7153714141381960 T T T Si
   0.6666666666666666    0.4158239394229021    0.6596285858618040 T T T Si
