Hf8 Sc8 Ge32
1.0
  15.5215053868669113    0.0000000000000000    0.0000000000000010
   0.9572581085985046    3.7338644596123407    3.7911175196991613
   0.0000000000000000    0.0000000000000000   37.9111751969916213
Hf Sc Ge Hf Sc Ge Hf Sc Ge Hf Sc Ge
2 2 8 2 2 8 2 2 8 2 2 8
Selective dynamics
direct
   0.3958546019900846    0.1041453980099154    0.3979188100323418 T T T Hf
   0.8958546019900847    0.1041453980099153    0.3979188100323418 T T T Hf
   0.1033908857104103    0.8966091142895897    0.3686724384043744 T T T Sc
   0.6033908857104104    0.8966091142895896    0.3686724384043744 T T T Sc
   0.0588552220177263    0.4411447779822736    0.3642188720351059 T T T Ge
   0.4405334797614277    0.5594665202385722    0.3023866978094761 T T T Ge
   0.2509338731262375    0.7490661268737625    0.3334267371459571 T T T Ge
   0.2504309473941170    0.2495690526058829    0.3333764445727450 T T T Ge
   0.5588552220177264    0.4411447779822736    0.3642188720351059 T T T Ge
   0.9405334797614276    0.5594665202385725    0.3023866978094760 T T T Ge
   0.7509338731262376    0.7490661268737624    0.3334267371459571 T T T Ge
   0.7504309473941171    0.2495690526058829    0.3333764445727450 T T T Ge
   0.3958546019900846    0.1041453980099154    0.4979188100323417 F F F Hf
   0.8958546019900847    0.1041453980099153    0.4979188100323418 F F F Hf
   0.1033908857104103    0.8966091142895897    0.4686724384043743 F F F Sc
   0.6033908857104104    0.8966091142895896    0.4686724384043743 F F F Sc
   0.0588552220177263    0.4411447779822736    0.4642188720351059 F F F Ge
   0.4405334797614277    0.5594665202385722    0.4023866978094761 T T T Ge
   0.2509338731262375    0.7490661268737625    0.4334267371459570 F F F Ge
   0.2504309473941170    0.2495690526058829    0.4333764445727450 F F F Ge
   0.5588552220177264    0.4411447779822736    0.4642188720351059 F F F Ge
   0.9405334797614276    0.5594665202385725    0.4023866978094761 T T T Ge
   0.7509338731262376    0.7490661268737624    0.4334267371459570 F F F Ge
   0.7504309473941171    0.2495690526058829    0.4333764445727450 F F F Ge
   0.3958546019900846    0.1041453980099154    0.5979188100323418 T T T Hf
   0.8958546019900847    0.1041453980099153    0.5979188100323418 T T T Hf
   0.1033908857104103    0.8966091142895897    0.5686724384043743 F F F Sc
   0.6033908857104104    0.8966091142895896    0.5686724384043743 F F F Sc
   0.0588552220177263    0.4411447779822736    0.5642188720351059 F F F Ge
   0.4405334797614277    0.5594665202385722    0.5023866978094761 F F F Ge
   0.2509338731262375    0.7490661268737625    0.5334267371459571 F F F Ge
   0.2504309473941170    0.2495690526058829    0.5333764445727450 F F F Ge
   0.5588552220177264    0.4411447779822736    0.5642188720351060 F F F Ge
   0.9405334797614276    0.5594665202385725    0.5023866978094760 F F F Ge
   0.7509338731262376    0.7490661268737624    0.5334267371459571 F F F Ge
   0.7504309473941171    0.2495690526058829    0.5333764445727450 F F F Ge
   0.3958546019900846    0.1041453980099154    0.6979188100323417 T T T Hf
   0.8958546019900847    0.1041453980099153    0.6979188100323417 T T T Hf
   0.1033908857104103    0.8966091142895897    0.6686724384043743 T T T Sc
   0.6033908857104104    0.8966091142895896    0.6686724384043743 T T T Sc
   0.0588552220177263    0.4411447779822736    0.6642188720351059 T T T Ge
   0.4405334797614277    0.5594665202385722    0.6023866978094761 T T T Ge
   0.2509338731262375    0.7490661268737625    0.6334267371459570 T T T Ge
   0.2504309473941170    0.2495690526058829    0.6333764445727450 T T T Ge
   0.5588552220177264    0.4411447779822736    0.6642188720351059 T T T Ge
   0.9405334797614276    0.5594665202385725    0.6023866978094761 T T T Ge
   0.7509338731262376    0.7490661268737624    0.6334267371459570 T T T Ge
   0.7504309473941171    0.2495690526058829    0.6333764445727450 T T T Ge
