Ba8 Ag8 Bi8
1.0
   9.4321186560373427    0.0000000000000000    0.0000000000000006
   0.0000000000000007    4.3451437417241507   -7.5260097268561772
   0.0000000000000000    0.0000000000000000   50.1733981790411647
Ba Ag Bi Ba Ag Bi Ba Ag Bi Ba Ag Bi
2 2 2 2 2 2 2 2 2 2 2 2
Selective dynamics
direct
   0.5000000000000000    0.0000000000000000    0.3500000000000000 T T T Ba
   0.0000000000000000    0.0000000000000000    0.3500000000000000 T T T Ba
   0.7500000000000000    0.3333333333333334    0.3500000000000000 T T T Ag
   0.2500000000000000    0.6666666666666665    0.3499999999999999 T T T Ag
   0.2500000000000000    0.3333333333333334    0.3500000000000000 T T T Bi
   0.7500000000000000    0.6666666666666665    0.3499999999999999 T T T Bi
   0.5000000000000000    0.0000000000000000    0.4500000000000000 T T T Ba
   0.0000000000000000    0.0000000000000000    0.4500000000000000 T T T Ba
   0.7500000000000000    0.3333333333333334    0.4500000000000000 T T T Ag
   0.2500000000000000    0.6666666666666665    0.4500000000000000 T T T Ag
   0.2500000000000000    0.3333333333333334    0.4500000000000000 T T T Bi
   0.7500000000000000    0.6666666666666665    0.4500000000000000 T T T Bi
   0.5000000000000000    0.0000000000000000    0.5500000000000000 T T T Ba
   0.0000000000000000    0.0000000000000000    0.5500000000000000 T T T Ba
   0.7500000000000000    0.3333333333333334    0.5500000000000000 T T T Ag
   0.2500000000000000    0.6666666666666665    0.5499999999999999 T T T Ag
   0.2500000000000000    0.3333333333333334    0.5500000000000000 T T T Bi
   0.7500000000000000    0.6666666666666665    0.5499999999999999 T T T Bi
   0.5000000000000000    0.0000000000000000    0.6499999999999999 T T T Ba
   0.0000000000000000    0.0000000000000000    0.6499999999999999 T T T Ba
   0.7500000000000000    0.3333333333333334    0.6499999999999999 T T T Ag
   0.2500000000000000    0.6666666666666665    0.6499999999999999 T T T Ag
   0.2500000000000000    0.3333333333333334    0.6499999999999999 T T T Bi
   0.7500000000000000    0.6666666666666665    0.6499999999999999 T T T Bi
