Mn12 Be24 Pt12
1.0
   5.6033537227983636    0.0000000000000000    0.0000000000000003
   0.0000000000000009    5.6033537227983636   -5.6033537227983627
   0.0000000000000000    0.0000000000000000   39.2234760595885490
Mn Be Pt Mn Be Pt Mn Be Pt
4 8 4 4 8 4 4 8 4
Selective dynamics
direct
   0.0000000000000000    0.0000000000000000    0.3214285714285714 T T T Mn
   0.5000000000000000    0.5000000000000000    0.3928571428571428 T T T Mn
   0.5000000000000000    0.0000000000000000    0.3928571428571428 T T T Mn
   0.0000000000000000    0.5000000000000000    0.3214285714285714 T T T Mn
   0.2500000000000000    0.7500000000000000    0.3214285714285714 T T T Be
   0.2500000000000001    0.2500000000000000    0.3928571428571428 T T T Be
   0.7500000000000000    0.2500000000000000    0.3928571428571428 T T T Be
   0.7500000000000000    0.7500000000000000    0.3214285714285714 T T T Be
   0.7500000000000000    0.7500000000000000    0.3928571428571428 T T T Be
   0.7500000000000000    0.2500000000000000    0.3214285714285714 T T T Be
   0.2500000000000000    0.2500000000000000    0.3214285714285714 T T T Be
   0.2500000000000001    0.7500000000000000    0.3928571428571428 T T T Be
   0.0000000000000000    0.0000000000000000    0.3928571428571428 T T T Pt
   0.5000000000000000    0.5000000000000000    0.3214285714285714 T T T Pt
   0.5000000000000000    0.0000000000000000    0.3214285714285714 T T T Pt
   0.0000000000000000    0.5000000000000000    0.3928571428571428 T T T Pt
   0.0000000000000000    0.0000000000000000    0.4642857142857142 F F F Mn
   0.5000000000000000    0.5000000000000000    0.5357142857142857 F F F Mn
   0.5000000000000000    0.0000000000000000    0.5357142857142857 F F F Mn
   0.0000000000000000    0.5000000000000000    0.4642857142857142 F F F Mn
   0.2500000000000000    0.7500000000000000    0.4642857142857142 F F F Be
   0.2500000000000001    0.2500000000000000    0.5357142857142857 F F F Be
   0.7500000000000000    0.2500000000000000    0.5357142857142857 F F F Be
   0.7500000000000000    0.7500000000000000    0.4642857142857142 F F F Be
   0.7500000000000000    0.7500000000000000    0.5357142857142857 F F F Be
   0.7500000000000000    0.2500000000000000    0.4642857142857142 F F F Be
   0.2500000000000000    0.2500000000000000    0.4642857142857142 F F F Be
   0.2500000000000001    0.7500000000000000    0.5357142857142857 F F F Be
   0.0000000000000000    0.0000000000000000    0.5357142857142857 F F F Pt
   0.5000000000000000    0.5000000000000000    0.4642857142857142 F F F Pt
   0.5000000000000000    0.0000000000000000    0.4642857142857142 F F F Pt
   0.0000000000000000    0.5000000000000000    0.5357142857142857 F F F Pt
   0.0000000000000000    0.0000000000000000    0.6071428571428571 T T T Mn
   0.5000000000000000    0.5000000000000000    0.6785714285714286 T T T Mn
   0.5000000000000000    0.0000000000000000    0.6785714285714286 T T T Mn
   0.0000000000000000    0.5000000000000000    0.6071428571428571 T T T Mn
   0.2500000000000000    0.7500000000000000    0.6071428571428571 T T T Be
   0.2500000000000001    0.2500000000000000    0.6785714285714286 T T T Be
   0.7500000000000000    0.2500000000000000    0.6785714285714286 T T T Be
   0.7500000000000000    0.7500000000000000    0.6071428571428571 T T T Be
   0.7500000000000000    0.7500000000000000    0.6785714285714286 T T T Be
   0.7500000000000000    0.2500000000000000    0.6071428571428571 T T T Be
   0.2500000000000000    0.2500000000000000    0.6071428571428571 T T T Be
   0.2500000000000001    0.7500000000000000    0.6785714285714286 T T T Be
   0.0000000000000000    0.0000000000000000    0.6785714285714286 T T T Pt
   0.5000000000000000    0.5000000000000000    0.6071428571428571 T T T Pt
   0.5000000000000000    0.0000000000000000    0.6071428571428571 T T T Pt
   0.0000000000000000    0.5000000000000000    0.6785714285714286 T T T Pt
