In8 Ga16 Au16
1.0
   3.7498280147757743    0.0000000000000000   -2.1649642137455922
  -0.0000000000000008   13.1028511322061849   -8.6598568549823725
   0.0000000000000000    0.0000000000000000   38.9693558474206796
In Ga Au In Ga Au In Ga Au In Ga Au
2 4 4 2 4 4 2 4 4 2 4 4
Selective dynamics
direct
   0.0000000000000000    0.2500000000000000    0.3111111111111111 T T T In
   0.0000000000000000    0.7500000000000001    0.3111111111111111 T T T In
   0.6666666666666666    0.9336567396494004    0.3889607569591260 T T T Ga
   0.3333333333333333    0.0663432603505996    0.3443725763742073 T T T Ga
   0.3333333333333333    0.4336567396494004    0.3148866828850519 T T T Ga
   0.6666666666666667    0.5663432603505996    0.3073355393371703 T T T Ga
   0.6666666666666666    0.3626206854168996    0.3731749671296814 T T T Au
   0.3333333333333333    0.6373793145831004    0.3601583662036519 T T T Au
   0.3333333333333333    0.8626206854168996    0.2991008930556073 T T T Au
   0.6666666666666667    0.1373793145831004    0.3231213291666149 T T T Au
   0.0000000000000000    0.2500000000000000    0.4222222222222222 F F F In
   0.0000000000000000    0.7500000000000001    0.4222222222222223 F F F In
   0.6666666666666666    0.9336567396494004    0.5000718680702372 F F F Ga
   0.3333333333333333    0.0663432603505996    0.4554836874853184 F F F Ga
   0.3333333333333333    0.4336567396494004    0.4259977939961631 F F F Ga
   0.6666666666666667    0.5663432603505996    0.4184466504482814 F F F Ga
   0.6666666666666666    0.3626206854168996    0.4842860782407925 F F F Au
   0.3333333333333333    0.6373793145831004    0.4712694773147630 F F F Au
   0.3333333333333333    0.8626206854168996    0.4102120041667184 F F F Au
   0.6666666666666667    0.1373793145831004    0.4342324402777260 F F F Au
   0.0000000000000000    0.2500000000000000    0.5333333333333333 F F F In
   0.0000000000000000    0.7500000000000001    0.5333333333333333 F F F In
   0.6666666666666666    0.9336567396494004    0.6111829791813482 F F F Ga
   0.3333333333333333    0.0663432603505996    0.5665947985964295 F F F Ga
   0.3333333333333333    0.4336567396494004    0.5371089051072742 F F F Ga
   0.6666666666666667    0.5663432603505996    0.5295577615593925 F F F Ga
   0.6666666666666666    0.3626206854168996    0.5953971893519037 F F F Au
   0.3333333333333333    0.6373793145831004    0.5823805884258741 F F F Au
   0.3333333333333333    0.8626206854168996    0.5213231152778295 F F F Au
   0.6666666666666667    0.1373793145831004    0.5453435513888372 F F F Au
   0.0000000000000000    0.2500000000000000    0.6444444444444444 T T T In
   0.0000000000000000    0.7500000000000001    0.6444444444444444 T T T In
   0.6666666666666666    0.9336567396494004    0.7222940902924594 T T T Ga
   0.3333333333333333    0.0663432603505996    0.6777059097075406 T T T Ga
   0.3333333333333333    0.4336567396494004    0.6482200162183853 T T T Ga
   0.6666666666666667    0.5663432603505996    0.6406688726705037 T T T Ga
   0.6666666666666666    0.3626206854168996    0.7065083004630147 T T T Au
   0.3333333333333333    0.6373793145831004    0.6934916995369853 T T T Au
   0.3333333333333333    0.8626206854168996    0.6324342263889406 T T T Au
   0.6666666666666667    0.1373793145831004    0.6564546624999482 T T T Au
