In10 Ga20 Au20
1.0
   3.7498280147757708    0.0000000000000000   -6.4948926412367811
  -0.0000000000000008   13.1028511322061849   -4.3299284274911871
   0.0000000000000000    0.0000000000000000   56.2890695573854174
In Ga Au In Ga Au In Ga Au In Ga Au In Ga Au
2 4 4 2 4 4 2 4 4 2 4 4 2 4 4
Selective dynamics
direct
   0.0000000000000000    0.2500000000000000    0.3115384615384616 T T T In
   0.0000000000000000    0.7500000000000001    0.3500000000000000 T T T In
   0.6666666666666666    0.9336567396494004    0.3641274415114924 T T T Ga
   0.3333333333333333    0.0663432603505996    0.3743340969500462 T T T Ga
   0.3333333333333333    0.4336567396494004    0.3256659030499539 T T T Ga
   0.6666666666666667    0.5663432603505996    0.3358725584885077 T T T Ga
   0.6666666666666666    0.3626206854168996    0.3202015911859154 T T T Au
   0.3333333333333333    0.6373793145831004    0.3413368703525462 T T T Au
   0.3333333333333333    0.8626206854168996    0.3586631296474538 T T T Au
   0.6666666666666667    0.1373793145831004    0.3797984088140847 T T T Au
   0.0000000000000000    0.2500000000000000    0.3884615384615385 T T T In
   0.0000000000000000    0.7500000000000001    0.4269230769230770 F F F In
   0.6666666666666666    0.9336567396494004    0.4410505184345693 F F F Ga
   0.3333333333333333    0.0663432603505996    0.4512571738731231 F F F Ga
   0.3333333333333333    0.4336567396494004    0.4025889799730308 T T T Ga
   0.6666666666666667    0.5663432603505996    0.4127956354115846 T T T Ga
   0.6666666666666666    0.3626206854168996    0.3971246681089923 T T T Au
   0.3333333333333333    0.6373793145831004    0.4182599472756232 T T T Au
   0.3333333333333333    0.8626206854168996    0.4355862065705308 F F F Au
   0.6666666666666667    0.1373793145831004    0.4567214857371616 F F F Au
   0.0000000000000000    0.2500000000000000    0.4653846153846154 F F F In
   0.0000000000000000    0.7500000000000001    0.5038461538461538 F F F In
   0.6666666666666666    0.9336567396494004    0.5179735953576462 F F F Ga
   0.3333333333333333    0.0663432603505996    0.5281802507962000 F F F Ga
   0.3333333333333333    0.4336567396494004    0.4795120568961078 F F F Ga
   0.6666666666666667    0.5663432603505996    0.4897187123346616 F F F Ga
   0.6666666666666666    0.3626206854168996    0.4740477450320693 F F F Au
   0.3333333333333333    0.6373793145831004    0.4951830241987001 F F F Au
   0.3333333333333333    0.8626206854168996    0.5125092834936077 F F F Au
   0.6666666666666667    0.1373793145831004    0.5336445626602385 F F F Au
   0.0000000000000000    0.2500000000000000    0.5423076923076924 F F F In
   0.0000000000000000    0.7500000000000001    0.5807692307692308 T T T In
   0.6666666666666666    0.9336567396494004    0.5948966722807232 T T T Ga
   0.3333333333333333    0.0663432603505996    0.6051033277192770 T T T Ga
   0.3333333333333333    0.4336567396494004    0.5564351338191846 F F F Ga
   0.6666666666666667    0.5663432603505996    0.5666417892577384 F F F Ga
   0.6666666666666666    0.3626206854168996    0.5509708219551461 F F F Au
   0.3333333333333333    0.6373793145831004    0.5721061011217770 F F F Au
   0.3333333333333333    0.8626206854168996    0.5894323604166847 T T T Au
   0.6666666666666667    0.1373793145831004    0.6105676395833155 T T T Au
   0.0000000000000000    0.2500000000000000    0.6192307692307693 T T T In
   0.0000000000000000    0.7500000000000001    0.6576923076923078 T T T In
   0.6666666666666666    0.9336567396494004    0.6718197492038001 T T T Ga
   0.3333333333333333    0.0663432603505996    0.6820264046423539 T T T Ga
   0.3333333333333333    0.4336567396494004    0.6333582107422616 T T T Ga
   0.6666666666666667    0.5663432603505996    0.6435648661808154 T T T Ga
   0.6666666666666666    0.3626206854168996    0.6278938988782231 T T T Au
   0.3333333333333333    0.6373793145831004    0.6490291780448539 T T T Au
   0.3333333333333333    0.8626206854168996    0.6663554373397615 T T T Au
   0.6666666666666667    0.1373793145831004    0.6874907165063924 T T T Au
