Na16 Ag8 As8
1.0
   7.4180192617727476    0.0000000000000000    0.0000000000000005
   0.0000000000000014    8.9174281210360391    0.0000000000000005
   0.0000000000000000    0.0000000000000000   28.4128190123392308
Na Ag As Na Ag As
8 4 4 8 4 4
Selective dynamics
direct
   0.3547767404851463    0.6774203834488475    0.3375000000000000 T T T Na
   0.6452232595148537    0.3225796165511525    0.4375000000000000 T T T Na
   0.3547767404851463    0.3225796165511525    0.3375000000000000 T T T Na
   0.6452232595148537    0.6774203834488475    0.4375000000000000 T T T Na
   0.8547767404851463    0.1774203834488475    0.3375000000000000 T T T Na
   0.1452232595148537    0.8225796165511525    0.4375000000000000 T T T Na
   0.8547767404851463    0.8225796165511525    0.3375000000000000 T T T Na
   0.1452232595148537    0.1774203834488475    0.4375000000000000 T T T Na
   0.5000000000000000    0.0000000000000000    0.3875000000000000 T T T Ag
   0.5000000000000000    0.0000000000000000    0.4875000000000000 F F F Ag
   0.0000000000000000    0.5000000000000000    0.3875000000000000 T T T Ag
   0.0000000000000000    0.5000000000000000    0.4875000000000000 F F F Ag
   0.7871490859534696    0.0000000000000000    0.4375000000000000 T T T As
   0.2128509140465305    0.0000000000000000    0.3375000000000000 T T T As
   0.2871490859534696    0.5000000000000000    0.4375000000000000 T T T As
   0.7128509140465304    0.5000000000000000    0.3375000000000000 T T T As
   0.3547767404851463    0.6774203834488475    0.5375000000000000 F F F Na
   0.6452232595148537    0.3225796165511525    0.6375000000000001 T T T Na
   0.3547767404851463    0.3225796165511525    0.5375000000000001 F F F Na
   0.6452232595148537    0.6774203834488475    0.6375000000000000 T T T Na
   0.8547767404851463    0.1774203834488475    0.5375000000000000 F F F Na
   0.1452232595148537    0.8225796165511525    0.6375000000000001 T T T Na
   0.8547767404851463    0.8225796165511525    0.5375000000000000 F F F Na
   0.1452232595148537    0.1774203834488475    0.6375000000000000 T T T Na
   0.5000000000000000    0.0000000000000000    0.5875000000000000 T T T Ag
   0.5000000000000000    0.0000000000000000    0.6875000000000000 T T T Ag
   0.0000000000000000    0.5000000000000000    0.5875000000000000 T T T Ag
   0.0000000000000000    0.5000000000000000    0.6875000000000000 T T T Ag
   0.7871490859534696    0.0000000000000000    0.6375000000000001 T T T As
   0.2128509140465305    0.0000000000000000    0.5375000000000000 F F F As
   0.2871490859534696    0.5000000000000000    0.6375000000000001 T T T As
   0.7128509140465304    0.5000000000000000    0.5375000000000000 F F F As
