Sc18 Ge18 Os18
1.0
   3.4742943443760677    0.0000000000000000    0.0000000000000002
   0.0000000000000019   12.1179820752349698  -13.9926404263439412
   0.0000000000000000    0.0000000000000000   48.9742414922037952
Sc Ge Os Sc Ge Os Sc Ge Os
6 6 6 6 6 6 6 6 6
Selective dynamics
direct
   0.5000000000000000    0.2991862160321191    0.3385401243312256 T T T Sc
   0.5000000000000000    0.7991862160321190    0.4099686957597970 F F F Sc
   0.5000000000000000    0.5000000000000000    0.3391213985939977 T T T Sc
   0.5000000000000000    0.0000000000000000    0.4105499700225692 F F F Sc
   0.5000000000000000    0.2008137839678810    0.3818622865985861 F F F Sc
   0.5000000000000000    0.7008137839678810    0.3104337151700147 T T T Sc
   0.0000000000000000    0.3333333333333334    0.3055555555555555 T T T Ge
   0.0000000000000000    0.8333333333333334    0.3769841269841270 F F F Ge
   0.0000000000000000    0.1666666666666667    0.3293650793650793 T T T Ge
   0.0000000000000000    0.6666666666666667    0.4007936507936508 F F F Ge
   0.5000000000000000    0.5000000000000000    0.2817460317460317 T T T Ge
   0.5000000000000000    0.0000000000000000    0.3531746031746031 T T T Ge
   0.0000000000000000    0.1279412643036260    0.4080065735904428 F F F Os
   0.0000000000000000    0.6279412643036260    0.3365780021618714 T T T Os
   0.0000000000000000    0.5000000000000000    0.3880485276592814 F F F Os
   0.0000000000000000    0.0000000000000000    0.3166199562307100 T T T Os
   0.0000000000000000    0.3720587356963740    0.4063258511312280 F F F Os
   0.0000000000000000    0.8720587356963740    0.3348972797026566 T T T Os
   0.5000000000000000    0.2991862160321191    0.4813972671883684 F F F Sc
   0.5000000000000000    0.7991862160321190    0.5528258386169399 F F F Sc
   0.5000000000000000    0.5000000000000000    0.4819785414511406 F F F Sc
   0.5000000000000000    0.0000000000000000    0.5534071128797120 F F F Sc
   0.5000000000000000    0.2008137839678810    0.5247194294557289 F F F Sc
   0.5000000000000000    0.7008137839678810    0.4532908580271575 F F F Sc
   0.0000000000000000    0.3333333333333334    0.4484126984126984 F F F Ge
   0.0000000000000000    0.8333333333333334    0.5198412698412698 F F F Ge
   0.0000000000000000    0.1666666666666667    0.4722222222222222 F F F Ge
   0.0000000000000000    0.6666666666666667    0.5436507936507936 F F F Ge
   0.5000000000000000    0.5000000000000000    0.4246031746031745 F F F Ge
   0.5000000000000000    0.0000000000000000    0.4960317460317460 F F F Ge
   0.0000000000000000    0.1279412643036260    0.5508637164475857 F F F Os
   0.0000000000000000    0.6279412643036260    0.4794351450190142 F F F Os
   0.0000000000000000    0.5000000000000000    0.5309056705164243 F F F Os
   0.0000000000000000    0.0000000000000000    0.4594770990878528 F F F Os
   0.0000000000000000    0.3720587356963740    0.5491829939883708 F F F Os
   0.0000000000000000    0.8720587356963740    0.4777544225597994 F F F Os
   0.5000000000000000    0.2991862160321191    0.6242544100455113 T T T Sc
   0.5000000000000000    0.7991862160321190    0.6956829814740827 T T T Sc
   0.5000000000000000    0.5000000000000000    0.6248356843082834 T T T Sc
   0.5000000000000000    0.0000000000000000    0.6962642557368548 T T T Sc
   0.5000000000000000    0.2008137839678810    0.6675765723128718 T T T Sc
   0.5000000000000000    0.7008137839678810    0.5961480008843004 F F F Sc
   0.0000000000000000    0.3333333333333334    0.5912698412698412 F F F Ge
   0.0000000000000000    0.8333333333333334    0.6626984126984127 T T T Ge
   0.0000000000000000    0.1666666666666667    0.6150793650793650 T T T Ge
   0.0000000000000000    0.6666666666666667    0.6865079365079365 T T T Ge
   0.5000000000000000    0.5000000000000000    0.5674603174603174 F F F Ge
   0.5000000000000000    0.0000000000000000    0.6388888888888888 T T T Ge
   0.0000000000000000    0.1279412643036260    0.6937208593047285 T T T Os
   0.0000000000000000    0.6279412643036260    0.6222922878761571 T T T Os
   0.0000000000000000    0.5000000000000000    0.6737628133735671 T T T Os
   0.0000000000000000    0.0000000000000000    0.6023342419449957 F F F Os
   0.0000000000000000    0.3720587356963740    0.6920401368455137 T T T Os
   0.0000000000000000    0.8720587356963740    0.6206115654169423 T T T Os
