K16 Cu8 As8
1.0
   5.9226659636334249    0.0000000000000000    0.0000000000000004
   0.0000000000000016   10.1574191222166714   -7.6525203863252766
   0.0000000000000000    0.0000000000000000   38.2626019316263921
K Cu As K Cu As
8 4 4 8 4 4
Selective dynamics
direct
   0.7500000000000000    0.6692001020815113    0.3383231204985933 T T T K
   0.2500000000000000    0.3307998979184887    0.4116768795014067 T T T K
   0.2500000000000001    0.6692001020815113    0.4793569203340112 F F F K
   0.7500000000000000    0.3307998979184887    0.4706430796659887 F F F K
   0.7500000000000000    0.1692001020815112    0.3383231204985932 T T T K
   0.2500000000000000    0.8307998979184887    0.4116768795014067 T T T K
   0.2500000000000001    0.1692001020815112    0.4793569203340112 F F F K
   0.7500000000000000    0.8307998979184887    0.4706430796659887 F F F K
   0.5000000000000000    0.0000000000000000    0.3750000000000000 T T T Cu
   0.0000000000000000    0.0000000000000000    0.3750000000000000 T T T Cu
   0.5000000000000000    0.5000000000000000    0.3750000000000000 T T T Cu
   0.0000000000000000    0.5000000000000000    0.3750000000000000 T T T Cu
   0.7500000000000000    0.0000000000000000    0.4229189410255074 T T T As
   0.2500000000000000    0.0000000000000000    0.3270810589744926 T T T As
   0.7500000000000000    0.5000000000000000    0.4229189410255074 T T T As
   0.2500000000000001    0.5000000000000000    0.3270810589744926 T T T As
   0.7500000000000000    0.6692001020815113    0.5383231204985933 F F F K
   0.2500000000000000    0.3307998979184887    0.6116768795014067 T T T K
   0.2500000000000001    0.6692001020815113    0.6793569203340113 T T T K
   0.7500000000000000    0.3307998979184887    0.6706430796659888 T T T K
   0.7500000000000000    0.1692001020815112    0.5383231204985932 F F F K
   0.2500000000000000    0.8307998979184887    0.6116768795014067 T T T K
   0.2500000000000001    0.1692001020815112    0.6793569203340113 T T T K
   0.7500000000000000    0.8307998979184887    0.6706430796659888 T T T K
   0.5000000000000000    0.0000000000000000    0.5750000000000000 F F F Cu
   0.0000000000000000    0.0000000000000000    0.5750000000000000 F F F Cu
   0.5000000000000000    0.5000000000000000    0.5750000000000000 F F F Cu
   0.0000000000000000    0.5000000000000000    0.5750000000000000 F F F Cu
   0.7500000000000000    0.0000000000000000    0.6229189410255074 T T T As
   0.2500000000000000    0.0000000000000000    0.5270810589744925 F F F As
   0.7500000000000000    0.5000000000000000    0.6229189410255074 T T T As
   0.2500000000000001    0.5000000000000000    0.5270810589744925 F F F As
