Mn12 Sb12
1.0
   3.5429536367332788    0.0000000000000000   -2.0455252358943210
  -0.0000000000000007   11.2025150377014100   -4.0910504717886429
   0.0000000000000000    0.0000000000000000   32.7284037743091503
Mn Sb Mn Sb Mn Sb
4 4 4 4 4 4
Selective dynamics
direct
   0.0000000000000000    0.2500000000000000    0.3359374999999999 T T T Mn
   0.0000000000000000    0.7500000000000000    0.3984374999999999 T T T Mn
   0.0000000000000000    0.0000000000000000    0.4296874999999999 F F F Mn
   0.0000000000000000    0.5000000000000000    0.3671874999999999 T T T Mn
   0.6666666666666667    0.1250000000000000    0.3619791666666666 T T T Sb
   0.6666666666666667    0.6250000000000001    0.4244791666666666 F F F Sb
   0.3333333333333335    0.3750000000000001    0.3098958333333333 T T T Sb
   0.3333333333333335    0.8750000000000002    0.3723958333333333 T T T Sb
   0.0000000000000000    0.2500000000000000    0.4609374999999999 F F F Mn
   0.0000000000000000    0.7500000000000000    0.5234375000000000 F F F Mn
   0.0000000000000000    0.0000000000000000    0.5546875000000000 F F F Mn
   0.0000000000000000    0.5000000000000000    0.4921874999999999 F F F Mn
   0.6666666666666667    0.1250000000000000    0.4869791666666666 F F F Sb
   0.6666666666666667    0.6250000000000001    0.5494791666666666 F F F Sb
   0.3333333333333335    0.3750000000000001    0.4348958333333333 F F F Sb
   0.3333333333333335    0.8750000000000002    0.4973958333333333 F F F Sb
   0.0000000000000000    0.2500000000000000    0.5859375000000000 T T T Mn
   0.0000000000000000    0.7500000000000000    0.6484375000000000 T T T Mn
   0.0000000000000000    0.0000000000000000    0.6796875000000000 T T T Mn
   0.0000000000000000    0.5000000000000000    0.6171875000000000 T T T Mn
   0.6666666666666667    0.1250000000000000    0.6119791666666666 T T T Sb
   0.6666666666666667    0.6250000000000001    0.6744791666666666 T T T Sb
   0.3333333333333335    0.3750000000000001    0.5598958333333333 F F F Sb
   0.3333333333333335    0.8750000000000002    0.6223958333333333 T T T Sb
