Ca3 Cu6 Sn6
1.0
   4.8507884363002054    0.0000000000000000   -0.0177169455690497
  -1.6690864802924992    5.2895560665379140   -2.0873511383118002
   0.0000000000000000    0.0000000000000000   29.7568866224950526
Ca Cu Sn Ca Cu Sn Ca Cu Sn
1 2 2 1 2 2 1 2 2
Selective dynamics
direct
   0.0000000000000000    0.0000000000000000    0.3857142857142857 T T T Ca
   0.1345571705180384    0.4774818305265020    0.3485170681251453 T T T Cu
   0.8654428294819616    0.5225181694734979    0.4229115033034261 F F F Cu
   0.4317009366477164    0.7161958450124030    0.2940251655133348 T T T Sn
   0.5682990633522838    0.2838041549875970    0.3345462630580938 T T T Sn
   0.0000000000000000    0.0000000000000000    0.5285714285714286 F F F Ca
   0.1345571705180384    0.4774818305265020    0.4913742109822882 F F F Cu
   0.8654428294819616    0.5225181694734979    0.5657686461605690 F F F Cu
   0.4317009366477164    0.7161958450124030    0.4368823083704777 F F F Sn
   0.5682990633522838    0.2838041549875970    0.4774034059152367 F F F Sn
   0.0000000000000000    0.0000000000000000    0.6714285714285715 T T T Ca
   0.1345571705180384    0.4774818305265020    0.6342313538394311 T T T Cu
   0.8654428294819616    0.5225181694734979    0.7086257890177119 T T T Cu
   0.4317009366477164    0.7161958450124030    0.5797394512276205 F F F Sn
   0.5682990633522838    0.2838041549875970    0.6202605487723796 T T T Sn
