Ca8 Cu16 Sn16
1.0
   8.5019108992355221    0.0000000000000000    4.8818730402097552
  10.5953442204419730    5.2895560665379175   -1.6303993396471532
   0.0000000000000000    0.0000000000000000   48.5082079074295365
Ca Cu Sn Ca Cu Sn Ca Cu Sn Ca Cu Sn
2 4 4 2 4 4 2 4 4 2 4 4
Selective dynamics
direct
   0.5000000000000000    0.0000000000000000    0.3250000000000000 T T T Ca
   0.0000000000000000    0.0000000000000000    0.3750000000000000 T T T Ca
   0.6527084310354894    0.4774818305265020    0.3231848739482549 T T T Cu
   0.1527084310354895    0.4774818305265020    0.3731848739482549 T T T Cu
   0.8472915689645105    0.5225181694734981    0.3768151260517451 T T T Cu
   0.3472915689645105    0.5225181694734979    0.3268151260517451 T T T Cu
   0.6047160756909251    0.7161958450124030    0.3576984860956791 T T T Sn
   0.1047160756909251    0.7161958450124030    0.3076984860956791 T T T Sn
   0.8952839243090747    0.2838041549875971    0.3423015139043209 T T T Sn
   0.3952839243090747    0.2838041549875971    0.3923015139043209 T T T Sn
   0.5000000000000000    0.0000000000000000    0.4250000000000000 F F F Ca
   0.0000000000000000    0.0000000000000000    0.4750000000000000 F F F Ca
   0.6527084310354894    0.4774818305265020    0.4231848739482549 F F F Cu
   0.1527084310354895    0.4774818305265020    0.4731848739482549 F F F Cu
   0.8472915689645105    0.5225181694734981    0.4768151260517451 F F F Cu
   0.3472915689645105    0.5225181694734979    0.4268151260517451 F F F Cu
   0.6047160756909251    0.7161958450124030    0.4576984860956791 F F F Sn
   0.1047160756909251    0.7161958450124030    0.4076984860956791 T T T Sn
   0.8952839243090747    0.2838041549875971    0.4423015139043209 F F F Sn
   0.3952839243090747    0.2838041549875971    0.4923015139043209 F F F Sn
   0.5000000000000000    0.0000000000000000    0.5250000000000000 F F F Ca
   0.0000000000000000    0.0000000000000000    0.5750000000000000 F F F Ca
   0.6527084310354894    0.4774818305265020    0.5231848739482549 F F F Cu
   0.1527084310354895    0.4774818305265020    0.5731848739482549 F F F Cu
   0.8472915689645105    0.5225181694734981    0.5768151260517451 F F F Cu
   0.3472915689645105    0.5225181694734979    0.5268151260517451 F F F Cu
   0.6047160756909251    0.7161958450124030    0.5576984860956791 F F F Sn
   0.1047160756909251    0.7161958450124030    0.5076984860956791 F F F Sn
   0.8952839243090747    0.2838041549875971    0.5423015139043209 F F F Sn
   0.3952839243090747    0.2838041549875971    0.5923015139043208 T T T Sn
   0.5000000000000000    0.0000000000000000    0.6250000000000000 T T T Ca
   0.0000000000000000    0.0000000000000000    0.6750000000000000 T T T Ca
   0.6527084310354894    0.4774818305265020    0.6231848739482548 T T T Cu
   0.1527084310354895    0.4774818305265020    0.6731848739482549 T T T Cu
   0.8472915689645105    0.5225181694734981    0.6768151260517451 T T T Cu
   0.3472915689645105    0.5225181694734979    0.6268151260517452 T T T Cu
   0.6047160756909251    0.7161958450124030    0.6576984860956792 T T T Sn
   0.1047160756909251    0.7161958450124030    0.6076984860956791 T T T Sn
   0.8952839243090747    0.2838041549875971    0.6423015139043209 T T T Sn
   0.3952839243090747    0.2838041549875971    0.6923015139043209 T T T Sn
