Ca8 Cu16 Sn16
1.0
   4.8507884363002054    0.0000000000000000    4.2332668576445283
   3.3381729605849966   10.5791121330758262    8.4256860798371793
   0.0000000000000000    0.0000000000000000   42.5098380321357894
Ca Cu Sn Ca Cu Sn Ca Cu Sn Ca Cu Sn
2 4 4 2 4 4 2 4 4 2 4 4
Selective dynamics
direct
   0.0000000000000000    0.5000000000000000    0.3250000000000000 T T T Ca
   0.0000000000000000    0.0000000000000000    0.3750000000000000 T T T Ca
   0.8654428294819616    0.7387409152632509    0.3406196778378771 T T T Cu
   0.8654428294819616    0.2387409152632509    0.3906196778378770 T T T Cu
   0.1345571705180383    0.7612590847367491    0.3593803221621230 T T T Cu
   0.1345571705180383    0.2612590847367490    0.3093803221621230 T T T Cu
   0.5682990633522836    0.8580979225062014    0.3965426855548171 T T T Sn
   0.5682990633522836    0.3580979225062015    0.3465426855548171 T T T Sn
   0.4317009366477161    0.6419020774937986    0.3034573144451829 T T T Sn
   0.4317009366477162    0.1419020774937985    0.3534573144451829 T T T Sn
   0.0000000000000000    0.5000000000000000    0.4250000000000000 F F F Ca
   0.0000000000000000    0.0000000000000000    0.4750000000000000 F F F Ca
   0.8654428294819616    0.7387409152632509    0.4406196778378771 F F F Cu
   0.8654428294819616    0.2387409152632509    0.4906196778378771 F F F Cu
   0.1345571705180383    0.7612590847367491    0.4593803221621230 F F F Cu
   0.1345571705180383    0.2612590847367490    0.4093803221621230 F F F Cu
   0.5682990633522836    0.8580979225062014    0.4965426855548171 F F F Sn
   0.5682990633522836    0.3580979225062015    0.4465426855548171 F F F Sn
   0.4317009366477161    0.6419020774937986    0.4034573144451828 T T T Sn
   0.4317009366477162    0.1419020774937985    0.4534573144451829 F F F Sn
   0.0000000000000000    0.5000000000000000    0.5250000000000000 F F F Ca
   0.0000000000000000    0.0000000000000000    0.5750000000000000 F F F Ca
   0.8654428294819616    0.7387409152632509    0.5406196778378771 F F F Cu
   0.8654428294819616    0.2387409152632509    0.5906196778378771 F F F Cu
   0.1345571705180383    0.7612590847367491    0.5593803221621230 F F F Cu
   0.1345571705180383    0.2612590847367490    0.5093803221621229 F F F Cu
   0.5682990633522836    0.8580979225062014    0.5965426855548170 T T T Sn
   0.5682990633522836    0.3580979225062015    0.5465426855548171 F F F Sn
   0.4317009366477161    0.6419020774937986    0.5034573144451828 F F F Sn
   0.4317009366477162    0.1419020774937985    0.5534573144451829 F F F Sn
   0.0000000000000000    0.5000000000000000    0.6250000000000000 T T T Ca
   0.0000000000000000    0.0000000000000000    0.6750000000000000 T T T Ca
   0.8654428294819616    0.7387409152632509    0.6406196778378770 T T T Cu
   0.8654428294819616    0.2387409152632509    0.6906196778378770 T T T Cu
   0.1345571705180383    0.7612590847367491    0.6593803221621229 T T T Cu
   0.1345571705180383    0.2612590847367490    0.6093803221621230 T T T Cu
   0.5682990633522836    0.8580979225062014    0.6965426855548171 T T T Sn
   0.5682990633522836    0.3580979225062015    0.6465426855548171 T T T Sn
   0.4317009366477161    0.6419020774937986    0.6034573144451829 T T T Sn
   0.4317009366477162    0.1419020774937985    0.6534573144451828 T T T Sn
