Y9 In9 Au9
1.0
   7.7301877463982240    0.0000000000000000    0.0000000000000005
  -3.8650938731991147    6.6945389644040407    0.0000000000000005
   0.0000000000000000    0.0000000000000000   28.3435640923731036
Y In Au Y In Au Y In Au
3 3 3 3 3 3 3 3 3
Selective dynamics
direct
   0.0000000000000001    0.5940593266956569    0.3174603174603174 T T T Y
   0.5940593266956570    0.0000000000000000    0.3174603174603174 T T T Y
   0.4059406733043433    0.4059406733043431    0.3174603174603174 T T T Y
   0.0000000000000000    0.2587959904052184    0.3888888888888889 T T T In
   0.2587959904052184    0.0000000000000000    0.3888888888888889 T T T In
   0.7412040095947818    0.7412040095947816    0.3888888888888889 T T T In
   0.0000000000000000    0.0000000000000000    0.3174603174603174 T T T Au
   0.6666666666666667    0.3333333333333333    0.3888888888888889 T T T Au
   0.3333333333333335    0.6666666666666666    0.3888888888888889 T T T Au
   0.0000000000000001    0.5940593266956569    0.4603174603174603 F F F Y
   0.5940593266956570    0.0000000000000000    0.4603174603174603 F F F Y
   0.4059406733043433    0.4059406733043431    0.4603174603174603 F F F Y
   0.0000000000000000    0.2587959904052184    0.5317460317460317 F F F In
   0.2587959904052184    0.0000000000000000    0.5317460317460317 F F F In
   0.7412040095947818    0.7412040095947816    0.5317460317460317 F F F In
   0.0000000000000000    0.0000000000000000    0.4603174603174603 F F F Au
   0.6666666666666667    0.3333333333333333    0.5317460317460317 F F F Au
   0.3333333333333335    0.6666666666666666    0.5317460317460317 F F F Au
   0.0000000000000001    0.5940593266956569    0.6031746031746031 T T T Y
   0.5940593266956570    0.0000000000000000    0.6031746031746031 T T T Y
   0.4059406733043433    0.4059406733043431    0.6031746031746031 T T T Y
   0.0000000000000000    0.2587959904052184    0.6746031746031746 T T T In
   0.2587959904052184    0.0000000000000000    0.6746031746031746 T T T In
   0.7412040095947818    0.7412040095947816    0.6746031746031746 T T T In
   0.0000000000000000    0.0000000000000000    0.6031746031746031 T T T Au
   0.6666666666666667    0.3333333333333333    0.6746031746031746 T T T Au
   0.3333333333333335    0.6666666666666666    0.6746031746031746 T T T Au
