Y18 In18 Au18
1.0
  13.3890779288080832    0.0000000000000000    0.0000000000000008
   0.0000000000000012    7.7301877463982240   -4.0490805846247309
   0.0000000000000000    0.0000000000000000   32.3926446769978327
Y In Au Y In Au Y In Au
6 6 6 6 6 6 6 6 6
Selective dynamics
direct
   0.2029703366521715    0.7970296633478284    0.3183787079184787 T T T Y
   0.7029703366521716    0.2970296633478284    0.3808787079184787 T T T Y
   0.4999999999999999    0.9059406733043431    0.3319925841630430 T T T Y
   0.0000000000000000    0.4059406733043431    0.3944925841630430 T T T Y
   0.2970296633478284    0.2970296633478284    0.3808787079184787 T T T Y
   0.7970296633478284    0.7970296633478284    0.3183787079184787 T T T Y
   0.3706020047973907    0.6293979952026091    0.3599247494003263 T T T In
   0.8706020047973908    0.1293979952026092    0.4224247494003263 T T T In
   0.4999999999999999    0.2412040095947816    0.4364005011993478 F F F In
   0.0000000000000000    0.7412040095947816    0.3739005011993478 T T T In
   0.1293979952026092    0.1293979952026092    0.4224247494003263 T T T In
   0.6293979952026092    0.6293979952026092    0.3599247494003263 T T T In
   0.4999999999999999    0.4999999999999999    0.4062500000000001 T T T Au
   0.0000000000000000    0.0000000000000000    0.3437500000000001 T T T Au
   0.3333333333333333    0.0000000000000000    0.4062500000000001 T T T Au
   0.8333333333333334    0.5000000000000000    0.3437500000000001 T T T Au
   0.1666666666666667    0.5000000000000000    0.3437500000000001 T T T Au
   0.6666666666666667    0.0000000000000000    0.4062500000000001 T T T Au
   0.2029703366521715    0.7970296633478284    0.4433787079184787 F F F Y
   0.7029703366521716    0.2970296633478284    0.5058787079184787 F F F Y
   0.4999999999999999    0.9059406733043431    0.4569925841630430 F F F Y
   0.0000000000000000    0.4059406733043431    0.5194925841630430 F F F Y
   0.2970296633478284    0.2970296633478284    0.5058787079184787 F F F Y
   0.7970296633478284    0.7970296633478284    0.4433787079184787 F F F Y
   0.3706020047973907    0.6293979952026091    0.4849247494003263 F F F In
   0.8706020047973908    0.1293979952026092    0.5474247494003263 F F F In
   0.4999999999999999    0.2412040095947816    0.5614005011993478 F F F In
   0.0000000000000000    0.7412040095947816    0.4989005011993478 F F F In
   0.1293979952026092    0.1293979952026092    0.5474247494003263 F F F In
   0.6293979952026092    0.6293979952026092    0.4849247494003263 F F F In
   0.4999999999999999    0.4999999999999999    0.5312500000000001 F F F Au
   0.0000000000000000    0.0000000000000000    0.4687500000000001 F F F Au
   0.3333333333333333    0.0000000000000000    0.5312500000000001 F F F Au
   0.8333333333333334    0.5000000000000000    0.4687500000000001 F F F Au
   0.1666666666666667    0.5000000000000000    0.4687500000000001 F F F Au
   0.6666666666666667    0.0000000000000000    0.5312500000000001 F F F Au
   0.2029703366521715    0.7970296633478284    0.5683787079184787 F F F Y
   0.7029703366521716    0.2970296633478284    0.6308787079184787 T T T Y
   0.4999999999999999    0.9059406733043431    0.5819925841630430 T T T Y
   0.0000000000000000    0.4059406733043431    0.6444925841630430 T T T Y
   0.2970296633478284    0.2970296633478284    0.6308787079184787 T T T Y
   0.7970296633478284    0.7970296633478284    0.5683787079184787 F F F Y
   0.3706020047973907    0.6293979952026091    0.6099247494003263 T T T In
   0.8706020047973908    0.1293979952026092    0.6724247494003263 T T T In
   0.4999999999999999    0.2412040095947816    0.6864005011993478 T T T In
   0.0000000000000000    0.7412040095947816    0.6239005011993478 T T T In
   0.1293979952026092    0.1293979952026092    0.6724247494003263 T T T In
   0.6293979952026092    0.6293979952026092    0.6099247494003263 T T T In
   0.4999999999999999    0.4999999999999999    0.6562500000000001 T T T Au
   0.0000000000000000    0.0000000000000000    0.5937500000000001 T T T Au
   0.3333333333333333    0.0000000000000000    0.6562500000000001 T T T Au
   0.8333333333333334    0.5000000000000000    0.5937500000000001 T T T Au
   0.1666666666666667    0.5000000000000000    0.5937500000000001 T T T Au
   0.6666666666666667    0.0000000000000000    0.6562500000000001 T T T Au
