Sr8 Zn16 Sb16
1.0
   7.9032231755098703    0.0000000000000000   -9.1258560556926263
  -0.0000000000000022    7.7705470206257550   -4.5629280278463140
   0.0000000000000000    0.0000000000000000   45.6292802784631277
Sr Zn Sb Sr Zn Sb Sr Zn Sb Sr Zn Sb
2 4 4 2 4 4 2 4 4 2 4 4
Selective dynamics
direct
   0.0000000000000000    0.0000000000000000    0.3750000000000000 T T T Sr
   0.5000000000000000    0.0000000000000000    0.3250000000000000 T T T Sr
   0.1666666666666667    0.3660010794576040    0.3949334412790937 T T T Zn
   0.6666666666666667    0.3660010794576040    0.3449334412790937 T T T Zn
   0.3333333333333334    0.6339989205423963    0.3050665587209063 T T T Zn
   0.8333333333333334    0.6339989205423963    0.3550665587209063 T T T Zn
   0.3333333333333334    0.2707636812493064    0.3687430347915973 T T T Sb
   0.8333333333333334    0.2707636812493064    0.3187430347915973 T T T Sb
   0.1666666666666668    0.7292363187506937    0.3312569652084027 T T T Sb
   0.6666666666666667    0.7292363187506937    0.3812569652084027 T T T Sb
   0.0000000000000000    0.0000000000000000    0.4750000000000000 F F F Sr
   0.5000000000000000    0.0000000000000000    0.4250000000000000 F F F Sr
   0.1666666666666667    0.3660010794576040    0.4949334412790937 F F F Zn
   0.6666666666666667    0.3660010794576040    0.4449334412790937 F F F Zn
   0.3333333333333334    0.6339989205423963    0.4050665587209062 T T T Zn
   0.8333333333333334    0.6339989205423963    0.4550665587209063 F F F Zn
   0.3333333333333334    0.2707636812493064    0.4687430347915973 F F F Sb
   0.8333333333333334    0.2707636812493064    0.4187430347915973 F F F Sb
   0.1666666666666668    0.7292363187506937    0.4312569652084027 F F F Sb
   0.6666666666666667    0.7292363187506937    0.4812569652084027 F F F Sb
   0.0000000000000000    0.0000000000000000    0.5750000000000000 F F F Sr
   0.5000000000000000    0.0000000000000000    0.5250000000000000 F F F Sr
   0.1666666666666667    0.3660010794576040    0.5949334412790936 T T T Zn
   0.6666666666666667    0.3660010794576040    0.5449334412790937 F F F Zn
   0.3333333333333334    0.6339989205423963    0.5050665587209062 F F F Zn
   0.8333333333333334    0.6339989205423963    0.5550665587209063 F F F Zn
   0.3333333333333334    0.2707636812493064    0.5687430347915974 F F F Sb
   0.8333333333333334    0.2707636812493064    0.5187430347915973 F F F Sb
   0.1666666666666668    0.7292363187506937    0.5312569652084027 F F F Sb
   0.6666666666666667    0.7292363187506937    0.5812569652084028 F F F Sb
   0.0000000000000000    0.0000000000000000    0.6750000000000000 T T T Sr
   0.5000000000000000    0.0000000000000000    0.6250000000000000 T T T Sr
   0.1666666666666667    0.3660010794576040    0.6949334412790937 T T T Zn
   0.6666666666666667    0.3660010794576040    0.6449334412790937 T T T Zn
   0.3333333333333334    0.6339989205423963    0.6050665587209063 T T T Zn
   0.8333333333333334    0.6339989205423963    0.6550665587209062 T T T Zn
   0.3333333333333334    0.2707636812493064    0.6687430347915972 T T T Sb
   0.8333333333333334    0.2707636812493064    0.6187430347915972 T T T Sb
   0.1666666666666668    0.7292363187506937    0.6312569652084027 T T T Sb
   0.6666666666666667    0.7292363187506937    0.6812569652084026 T T T Sb
