Y6 Ga9 Ag3
1.0
   3.8998174904726990    0.0000000000000000   -2.2515606779148225
   0.0000000000000012    7.2529121682495488   -4.5031213558296468
   0.0000000000000000    0.0000000000000000   36.0249708466371743
Y Ga Ag Y Ga Ag Y Ga Ag
2 3 1 2 3 1 2 3 1
Selective dynamics
direct
   0.3333333333333333    0.2407537775689193    0.4050942432377819 T T T Y
   0.3333333333333333    0.7575184171647182    0.3446898231872567 T T T Y
   0.6666666666666666    0.9702620577004597    0.3296161115875578 T T T Ga
   0.6666666666666666    0.5471372468078997    0.4017255102259877 T T T Ga
   0.0000000000000000    0.4543874078918153    0.3484651136948105 T T T Ga
   0.0000000000000000    0.0299400828661760    0.4204091980666056 T T T Ag
   0.3333333333333333    0.2407537775689193    0.5300942432377819 F F F Y
   0.3333333333333333    0.7575184171647182    0.4696898231872567 F F F Y
   0.6666666666666666    0.9702620577004597    0.4546161115875578 F F F Ga
   0.6666666666666666    0.5471372468078997    0.5267255102259878 F F F Ga
   0.0000000000000000    0.4543874078918153    0.4734651136948105 F F F Ga
   0.0000000000000000    0.0299400828661760    0.5454091980666056 F F F Ag
   0.3333333333333333    0.2407537775689193    0.6550942432377819 T T T Y
   0.3333333333333333    0.7575184171647182    0.5946898231872567 T T T Y
   0.6666666666666666    0.9702620577004597    0.5796161115875578 T T T Ga
   0.6666666666666666    0.5471372468078997    0.6517255102259878 T T T Ga
   0.0000000000000000    0.4543874078918153    0.5984651136948105 T T T Ga
   0.0000000000000000    0.0299400828661760    0.6704091980666056 T T T Ag
