Cd12 Ga12 Rh24
1.0
   6.2703538584306955    0.0000000000000000    0.0000000000000004
   0.0000000000000010    6.2703538584306955   -6.2703538584306946
   0.0000000000000000    0.0000000000000000   43.8924770090148684
Cd Ga Rh Cd Ga Rh Cd Ga Rh
4 4 8 4 4 8 4 4 8
Selective dynamics
direct
   0.0000000000000000    0.0000000000000000    0.3214285714285715 T T T Cd
   0.5000000000000000    0.5000000000000000    0.3928571428571428 T T T Cd
   0.5000000000000000    0.0000000000000000    0.3928571428571428 T T T Cd
   0.0000000000000000    0.5000000000000000    0.3214285714285715 T T T Cd
   0.0000000000000000    0.0000000000000000    0.3928571428571428 T T T Ga
   0.5000000000000000    0.5000000000000000    0.3214285714285715 T T T Ga
   0.5000000000000000    0.0000000000000000    0.3214285714285715 T T T Ga
   0.0000000000000000    0.5000000000000000    0.3928571428571428 T T T Ga
   0.2500000000000000    0.2500000000000000    0.3928571428571428 T T T Rh
   0.2500000000000000    0.7500000000000000    0.3214285714285715 T T T Rh
   0.7500000000000000    0.7500000000000000    0.3214285714285715 T T T Rh
   0.7500000000000000    0.2500000000000000    0.3928571428571428 T T T Rh
   0.7500000000000000    0.2500000000000000    0.3214285714285714 T T T Rh
   0.7500000000000000    0.7500000000000000    0.3928571428571428 T T T Rh
   0.2500000000000000    0.7500000000000000    0.3928571428571428 T T T Rh
   0.2499999999999999    0.2500000000000000    0.3214285714285714 T T T Rh
   0.0000000000000000    0.0000000000000000    0.4642857142857143 F F F Cd
   0.5000000000000000    0.5000000000000000    0.5357142857142857 F F F Cd
   0.5000000000000000    0.0000000000000000    0.5357142857142857 F F F Cd
   0.0000000000000000    0.5000000000000000    0.4642857142857143 F F F Cd
   0.0000000000000000    0.0000000000000000    0.5357142857142857 F F F Ga
   0.5000000000000000    0.5000000000000000    0.4642857142857143 F F F Ga
   0.5000000000000000    0.0000000000000000    0.4642857142857143 F F F Ga
   0.0000000000000000    0.5000000000000000    0.5357142857142857 F F F Ga
   0.2500000000000000    0.2500000000000000    0.5357142857142857 F F F Rh
   0.2500000000000000    0.7500000000000000    0.4642857142857143 F F F Rh
   0.7500000000000000    0.7500000000000000    0.4642857142857143 F F F Rh
   0.7500000000000000    0.2500000000000000    0.5357142857142857 F F F Rh
   0.7500000000000000    0.2500000000000000    0.4642857142857142 F F F Rh
   0.7500000000000000    0.7500000000000000    0.5357142857142857 F F F Rh
   0.2500000000000000    0.7500000000000000    0.5357142857142857 F F F Rh
   0.2499999999999999    0.2500000000000000    0.4642857142857142 F F F Rh
   0.0000000000000000    0.0000000000000000    0.6071428571428572 T T T Cd
   0.5000000000000000    0.5000000000000000    0.6785714285714286 T T T Cd
   0.5000000000000000    0.0000000000000000    0.6785714285714286 T T T Cd
   0.0000000000000000    0.5000000000000000    0.6071428571428572 T T T Cd
   0.0000000000000000    0.0000000000000000    0.6785714285714286 T T T Ga
   0.5000000000000000    0.5000000000000000    0.6071428571428572 T T T Ga
   0.5000000000000000    0.0000000000000000    0.6071428571428572 T T T Ga
   0.0000000000000000    0.5000000000000000    0.6785714285714286 T T T Ga
   0.2500000000000000    0.2500000000000000    0.6785714285714286 T T T Rh
   0.2500000000000000    0.7500000000000000    0.6071428571428572 T T T Rh
   0.7500000000000000    0.7500000000000000    0.6071428571428572 T T T Rh
   0.7500000000000000    0.2500000000000000    0.6785714285714286 T T T Rh
   0.7500000000000000    0.2500000000000000    0.6071428571428571 T T T Rh
   0.7500000000000000    0.7500000000000000    0.6785714285714286 T T T Rh
   0.2500000000000000    0.7500000000000000    0.6785714285714286 T T T Rh
   0.2499999999999999    0.2500000000000000    0.6071428571428571 T T T Rh
