Ba2 Sn6 Au2
1.0
   5.1083789460890143    0.0000000000000000    0.0000000000000003
   0.0000000000000008    5.1083789460890143    0.0000000000000003
   0.0000000000000000    0.0000000000000000   33.9022124733772614
Ba Sn Au
2 6 2
Selective dynamics
direct
   0.0000000000000000    0.0000000000000000    0.6529012483738919 T T T Ba
   0.4999999999999999    0.4999999999999999    0.4862345817072252 F F F Ba
   0.4999999999999999    0.4999999999999999    0.3532083894905047 T T T Sn
   0.0000000000000000    0.4999999999999999    0.4026145989257732 T T T Sn
   0.4999999999999999    0.0000000000000000    0.4026145989257732 T T T Sn
   0.0000000000000000    0.0000000000000000    0.5198750561571714 F F F Sn
   0.4999999999999999    0.0000000000000000    0.5692812655924400 T T T Sn
   0.0000000000000000    0.4999999999999999    0.5692812655924400 T T T Sn
   0.0000000000000000    0.0000000000000000    0.4386611642840567 T T T Au
   0.4999999999999999    0.4999999999999999    0.6053278309507235 T T T Au
