Ba6 Sn18 Au6
1.0
   5.1083789460890143    0.0000000000000000   -5.1083789460890134
  -0.0000000000000007   11.3007374911257532   -5.1083789460890143
   0.0000000000000000    0.0000000000000000   40.8670315687121146
Ba Sn Au Ba Sn Au Ba Sn Au
2 6 2 2 6 2 2 6 2
Selective dynamics
direct
   0.0000000000000000    0.0002817491216761    0.3948379681402094 T T T Ba
   0.4999999999999999    0.5002817491216761    0.3323379681402095 T T T Ba
   0.4999999999999999    0.1012031724715144    0.4074531460589392 T T T Sn
   0.4999999999999999    0.2494218007773200    0.3634804745971649 T T T Sn
   0.0000000000000000    0.2494218007773200    0.3634804745971649 T T T Sn
   0.0000000000000000    0.6012031724715144    0.3449531460589392 T T T Sn
   0.0000000000000000    0.7494218007773200    0.4259804745971649 F F F Sn
   0.4999999999999999    0.7494218007773200    0.4259804745971649 F F F Sn
   0.0000000000000000    0.3575614968521705    0.3144979366065213 T T T Au
   0.4999999999999999    0.8575614968521706    0.3769979366065213 T T T Au
   0.0000000000000000    0.0002817491216761    0.5198379681402094 F F F Ba
   0.4999999999999999    0.5002817491216761    0.4573379681402095 F F F Ba
   0.4999999999999999    0.1012031724715144    0.5324531460589392 F F F Sn
   0.4999999999999999    0.2494218007773200    0.4884804745971649 F F F Sn
   0.0000000000000000    0.2494218007773200    0.4884804745971649 F F F Sn
   0.0000000000000000    0.6012031724715144    0.4699531460589392 F F F Sn
   0.0000000000000000    0.7494218007773200    0.5509804745971649 F F F Sn
   0.4999999999999999    0.7494218007773200    0.5509804745971649 F F F Sn
   0.0000000000000000    0.3575614968521705    0.4394979366065213 F F F Au
   0.4999999999999999    0.8575614968521706    0.5019979366065213 F F F Au
   0.0000000000000000    0.0002817491216761    0.6448379681402094 T T T Ba
   0.4999999999999999    0.5002817491216761    0.5823379681402094 T T T Ba
   0.4999999999999999    0.1012031724715144    0.6574531460589392 T T T Sn
   0.4999999999999999    0.2494218007773200    0.6134804745971649 T T T Sn
   0.0000000000000000    0.2494218007773200    0.6134804745971649 T T T Sn
   0.0000000000000000    0.6012031724715144    0.5949531460589392 T T T Sn
   0.0000000000000000    0.7494218007773200    0.6759804745971649 T T T Sn
   0.4999999999999999    0.7494218007773200    0.6759804745971649 T T T Sn
   0.0000000000000000    0.3575614968521705    0.5644979366065213 F F F Au
   0.4999999999999999    0.8575614968521706    0.6269979366065213 T T T Au
