Al32 Pd32
1.0
   4.9042665981681388    0.0000000000000000    4.9042665981681344
   4.9042665981681370    9.8085331963362741    0.0000000000000007
   0.0000000000000000    0.0000000000000000   44.1383993835132316
Al Pd Al Pd Al Pd Al Pd
8 8 8 8 8 8 8 8
Selective dynamics
direct
   0.2336630000206732    0.9221123333264420    0.3247846296258012 T T T Al
   0.7336630000206730    0.4221123333264421    0.3803401851813568 F F F Al
   0.6721123333264425    0.6721123333264422    0.3106847777800748 T T T Al
   0.1721123333264423    0.1721123333264422    0.3662403333356304 T T T Al
   0.0778876666735580    0.5778876666735576    0.3211541851859508 T T T Al
   0.5778876666735577    0.0778876666735576    0.3767097407415064 T T T Al
   0.0163369999793270    0.8278876666735576    0.2933764074081731 T T T Al
   0.5163369999793268    0.3278876666735576    0.3489319629637286 T T T Al
   0.2795810045969209    0.5734729984676931    0.3533183324820517 T T T Pd
   0.7795810045969206    0.0734729984676931    0.2977627769264962 T T T Pd
   0.8234729984676934    0.8234729984676930    0.3713423338441023 T T T Pd
   0.3234729984676932    0.3234729984676931    0.3157867782885467 T T T Pd
   0.4265270015323068    0.9265270015323067    0.3598918890591452 T T T Pd
   0.9265270015323068    0.4265270015323067    0.3043363335035897 T T T Pd
   0.4704189954030796    0.6765270015323066    0.2765585557258118 T T T Pd
   0.9704189954030795    0.1765270015323067    0.3321141112813674 T T T Pd
   0.2336630000206732    0.9221123333264420    0.4358957407369123 F F F Al
   0.7336630000206730    0.4221123333264421    0.4914512962924679 F F F Al
   0.6721123333264425    0.6721123333264422    0.4217958888911859 F F F Al
   0.1721123333264423    0.1721123333264422    0.4773514444467415 F F F Al
   0.0778876666735580    0.5778876666735576    0.4322652962970619 F F F Al
   0.5778876666735577    0.0778876666735576    0.4878208518526175 F F F Al
   0.0163369999793270    0.8278876666735576    0.4044875185192842 F F F Al
   0.5163369999793268    0.3278876666735576    0.4600430740748397 F F F Al
   0.2795810045969209    0.5734729984676931    0.4644294435931628 F F F Pd
   0.7795810045969206    0.0734729984676931    0.4088738880376073 F F F Pd
   0.8234729984676934    0.8234729984676930    0.4824534449552134 F F F Pd
   0.3234729984676932    0.3234729984676931    0.4268978893996578 F F F Pd
   0.4265270015323068    0.9265270015323067    0.4710030001702563 F F F Pd
   0.9265270015323068    0.4265270015323067    0.4154474446147007 F F F Pd
   0.4704189954030796    0.6765270015323066    0.3876696668369229 F F F Pd
   0.9704189954030795    0.1765270015323067    0.4432252223924785 F F F Pd
   0.2336630000206732    0.9221123333264420    0.5470068518480234 F F F Al
   0.7336630000206730    0.4221123333264421    0.6025624074035790 F F F Al
   0.6721123333264425    0.6721123333264422    0.5329070000022971 F F F Al
   0.1721123333264423    0.1721123333264422    0.5884625555578527 F F F Al
   0.0778876666735580    0.5778876666735576    0.5433764074081731 F F F Al
   0.5778876666735577    0.0778876666735576    0.5989319629637286 F F F Al
   0.0163369999793270    0.8278876666735576    0.5155986296303953 F F F Al
   0.5163369999793268    0.3278876666735576    0.5711541851859508 F F F Al
   0.2795810045969209    0.5734729984676931    0.5755405547042739 F F F Pd
   0.7795810045969206    0.0734729984676931    0.5199849991487184 F F F Pd
   0.8234729984676934    0.8234729984676930    0.5935645560663245 F F F Pd
   0.3234729984676932    0.3234729984676931    0.5380090005107689 F F F Pd
   0.4265270015323068    0.9265270015323067    0.5821141112813675 F F F Pd
   0.9265270015323068    0.4265270015323067    0.5265585557258119 F F F Pd
   0.4704189954030796    0.6765270015323066    0.4987807779480340 F F F Pd
   0.9704189954030795    0.1765270015323067    0.5543363335035896 F F F Pd
   0.2336630000206732    0.9221123333264420    0.6581179629591345 T T T Al
   0.7336630000206730    0.4221123333264421    0.7136735185146901 T T T Al
   0.6721123333264425    0.6721123333264422    0.6440181111134081 T T T Al
   0.1721123333264423    0.1721123333264422    0.6995736666689637 T T T Al
   0.0778876666735580    0.5778876666735576    0.6544875185192841 T T T Al
   0.5778876666735577    0.0778876666735576    0.7100430740748398 T T T Al
   0.0163369999793270    0.8278876666735576    0.6267097407415063 T T T Al
   0.5163369999793268    0.3278876666735576    0.6822652962970619 T T T Al
   0.2795810045969209    0.5734729984676931    0.6866516658153851 T T T Pd
   0.7795810045969206    0.0734729984676931    0.6310961102598296 T T T Pd
   0.8234729984676934    0.8234729984676930    0.7046756671774356 T T T Pd
   0.3234729984676932    0.3234729984676931    0.6491201116218800 T T T Pd
   0.4265270015323068    0.9265270015323067    0.6932252223924785 T T T Pd
   0.9265270015323068    0.4265270015323067    0.6376696668369229 T T T Pd
   0.4704189954030796    0.6765270015323066    0.6098918890591452 F F F Pd
   0.9704189954030795    0.1765270015323067    0.6654474446147007 T T T Pd
