Y32 Mg16 Ni32
1.0
  16.5302718863504197    0.0000000000000000    0.0000000000000010
   3.3060543772700837    6.6121087545401673    3.7292108503522270
   0.0000000000000000    0.0000000000000000   33.5628976531700474
Y Mg Ni Y Mg Ni Y Mg Ni Y Mg Ni
8 4 8 8 4 8 8 4 8 8 4 8
Selective dynamics
direct
   0.8368489530015281    0.9894531409954156    0.3206163176671760 T T T Y
   0.3368489530015281    0.4894531409954157    0.3761718732227316 T T T Y
   0.9131510469984718    0.4131510469984719    0.3846498836668364 T T T Y
   0.4131510469984719    0.9131510469984720    0.3290943281112809 T T T Y
   0.5868489530015281    0.0868489530015281    0.3097945607776080 T T T Y
   0.0868489530015281    0.5868489530015282    0.3653501163331635 T T T Y
   0.6631510469984718    0.5105468590045845    0.3738281267772684 T T T Y
   0.1631510469984719    0.0105468590045844    0.3182725712217128 T T T Y
   0.7499999999999999    0.7500000000000000    0.2916666666666666 T T T Mg
   0.2500000000000000    0.2500000000000001    0.3472222222222222 T T T Mg
   0.4999999999999999    0.4999999999999999    0.3194444444444444 T T T Mg
   0.0000000000000000    0.0000000000000000    0.3750000000000000 T T T Mg
   0.8096436375314119    0.3096436375314120    0.3405951513853986 T T T Ni
   0.3096436375314119    0.8096436375314120    0.2850395958298431 T T T Ni
   0.9403563624685879    0.6789309125942360    0.2995632319339738 T T T Ni
   0.4403563624685879    0.1789309125942361    0.3551187874895293 T T T Ni
   0.5596436375314120    0.8210690874057640    0.2837701013993595 T T T Ni
   0.0596436375314120    0.3210690874057641    0.3393256569549151 T T T Ni
   0.6903563624685880    0.1903563624685879    0.3538492930590458 T T T Ni
   0.1903563624685880    0.6903563624685880    0.2982937375034902 T T T Ni
   0.8368489530015281    0.9894531409954156    0.4317274287782872 F F F Y
   0.3368489530015281    0.4894531409954157    0.4872829843338427 F F F Y
   0.9131510469984718    0.4131510469984719    0.4957609947779476 F F F Y
   0.4131510469984719    0.9131510469984720    0.4402054392223920 F F F Y
   0.5868489530015281    0.0868489530015281    0.4209056718887191 F F F Y
   0.0868489530015281    0.5868489530015282    0.4764612274442747 F F F Y
   0.6631510469984718    0.5105468590045845    0.4849392378883795 F F F Y
   0.1631510469984719    0.0105468590045844    0.4293836823328240 F F F Y
   0.7499999999999999    0.7500000000000000    0.4027777777777778 F F F Mg
   0.2500000000000000    0.2500000000000001    0.4583333333333333 F F F Mg
   0.4999999999999999    0.4999999999999999    0.4305555555555556 F F F Mg
   0.0000000000000000    0.0000000000000000    0.4861111111111111 F F F Mg
   0.8096436375314119    0.3096436375314120    0.4517062624965097 F F F Ni
   0.3096436375314119    0.8096436375314120    0.3961507069409542 F F F Ni
   0.9403563624685879    0.6789309125942360    0.4106743430450849 F F F Ni
   0.4403563624685879    0.1789309125942361    0.4662298986006404 F F F Ni
   0.5596436375314120    0.8210690874057640    0.3948812125104706 F F F Ni
   0.0596436375314120    0.3210690874057641    0.4504367680660262 F F F Ni
   0.6903563624685880    0.1903563624685879    0.4649604041701569 F F F Ni
   0.1903563624685880    0.6903563624685880    0.4094048486146013 F F F Ni
   0.8368489530015281    0.9894531409954156    0.5428385398893982 F F F Y
   0.3368489530015281    0.4894531409954157    0.5983940954449538 F F F Y
   0.9131510469984718    0.4131510469984719    0.6068721058890587 F F F Y
   0.4131510469984719    0.9131510469984720    0.5513165503335031 F F F Y
   0.5868489530015281    0.0868489530015281    0.5320167829998301 F F F Y
   0.0868489530015281    0.5868489530015282    0.5875723385553857 F F F Y
   0.6631510469984718    0.5105468590045845    0.5960503489994906 F F F Y
   0.1631510469984719    0.0105468590045844    0.5404947934439350 F F F Y
   0.7499999999999999    0.7500000000000000    0.5138888888888888 F F F Mg
   0.2500000000000000    0.2500000000000001    0.5694444444444444 F F F Mg
   0.4999999999999999    0.4999999999999999    0.5416666666666666 F F F Mg
   0.0000000000000000    0.0000000000000000    0.5972222222222222 F F F Mg
   0.8096436375314119    0.3096436375314120    0.5628173736076209 F F F Ni
   0.3096436375314119    0.8096436375314120    0.5072618180520653 F F F Ni
   0.9403563624685879    0.6789309125942360    0.5217854541561959 F F F Ni
   0.4403563624685879    0.1789309125942361    0.5773410097117515 F F F Ni
   0.5596436375314120    0.8210690874057640    0.5059923236215818 F F F Ni
   0.0596436375314120    0.3210690874057641    0.5615478791771373 F F F Ni
   0.6903563624685880    0.1903563624685879    0.5760715152812680 F F F Ni
   0.1903563624685880    0.6903563624685880    0.5205159597257124 F F F Ni
   0.8368489530015281    0.9894531409954156    0.6539496510005094 T T T Y
   0.3368489530015281    0.4894531409954157    0.7095052065560649 T T T Y
   0.9131510469984718    0.4131510469984719    0.7179832170001698 T T T Y
   0.4131510469984719    0.9131510469984720    0.6624276614446142 T T T Y
   0.5868489530015281    0.0868489530015281    0.6431278941109413 T T T Y
   0.0868489530015281    0.5868489530015282    0.6986834496664969 T T T Y
   0.6631510469984718    0.5105468590045845    0.7071614601106018 T T T Y
   0.1631510469984719    0.0105468590045844    0.6516059045550462 T T T Y
   0.7499999999999999    0.7500000000000000    0.6250000000000000 T T T Mg
   0.2500000000000000    0.2500000000000001    0.6805555555555556 T T T Mg
   0.4999999999999999    0.4999999999999999    0.6527777777777778 T T T Mg
   0.0000000000000000    0.0000000000000000    0.7083333333333333 T T T Mg
   0.8096436375314119    0.3096436375314120    0.6739284847187319 T T T Ni
   0.3096436375314119    0.8096436375314120    0.6183729291631764 T T T Ni
   0.9403563624685879    0.6789309125942360    0.6328965652673071 T T T Ni
   0.4403563624685879    0.1789309125942361    0.6884521208228627 T T T Ni
   0.5596436375314120    0.8210690874057640    0.6171034347326929 T T T Ni
   0.0596436375314120    0.3210690874057641    0.6726589902882484 T T T Ni
   0.6903563624685880    0.1903563624685879    0.6871826263923790 T T T Ni
   0.1903563624685880    0.6903563624685880    0.6316270708368235 T T T Ni
