Rb24 Te24 Pd12
1.0
   8.1698222109310130    0.0000000000000000   -4.1143800670529371
   0.0000000000000035   21.7862281372347333   -4.1143800670529362
   0.0000000000000000    0.0000000000000000   32.9150405364235112
Rb Te Pd Rb Te Pd Rb Te Pd
8 8 4 8 8 4 8 8 4
Selective dynamics
direct
   0.5000000000000000    0.0991484593005084    0.3780185574125635 T T T Rb
   0.5000000000000000    0.5991484593005083    0.3155185574125635 T T T Rb
   0.5000000000000000    0.4008515406994916    0.4157314425874364 T T T Rb
   0.5000000000000000    0.9008515406994917    0.3532314425874364 T T T Rb
   0.0000000000000000    0.3491484593005083    0.4092685574125635 T T T Rb
   0.0000000000000000    0.8491484593005082    0.3467685574125635 T T T Rb
   0.0000000000000000    0.1508515406994917    0.3844814425874364 T T T Rb
   0.0000000000000000    0.6508515406994917    0.3219814425874364 T T T Rb
   0.2118696151559406    0.0000000000000000    0.3921087018944925 T T T Te
   0.2118696151559406    0.4999999999999999    0.3296087018944925 T T T Te
   0.7881303848440594    0.0000000000000000    0.3391412981055074 T T T Te
   0.7881303848440594    0.5000000000000000    0.4016412981055074 T T T Te
   0.7118696151559406    0.2500000000000000    0.4233587018944925 F F F Te
   0.7118696151559406    0.7500000000000000    0.3608587018944925 T T T Te
   0.2881303848440595    0.2500000000000000    0.3703912981055074 T T T Te
   0.2881303848440595    0.7500000000000000    0.4328912981055074 F F F Te
   0.0000000000000000    0.0000000000000000    0.4281250000000000 F F F Pd
   0.0000000000000000    0.5000000000000000    0.3656250000000000 T T T Pd
   0.5000000000000000    0.2500000000000000    0.3343750000000000 T T T Pd
   0.5000000000000000    0.7500000000000000    0.3968750000000000 T T T Pd
   0.5000000000000000    0.0991484593005084    0.5030185574125635 F F F Rb
   0.5000000000000000    0.5991484593005083    0.4405185574125635 F F F Rb
   0.5000000000000000    0.4008515406994916    0.5407314425874364 F F F Rb
   0.5000000000000000    0.9008515406994917    0.4782314425874364 F F F Rb
   0.0000000000000000    0.3491484593005083    0.5342685574125635 F F F Rb
   0.0000000000000000    0.8491484593005082    0.4717685574125635 F F F Rb
   0.0000000000000000    0.1508515406994917    0.5094814425874364 F F F Rb
   0.0000000000000000    0.6508515406994917    0.4469814425874364 F F F Rb
   0.2118696151559406    0.0000000000000000    0.5171087018944925 F F F Te
   0.2118696151559406    0.4999999999999999    0.4546087018944925 F F F Te
   0.7881303848440594    0.0000000000000000    0.4641412981055074 F F F Te
   0.7881303848440594    0.5000000000000000    0.5266412981055074 F F F Te
   0.7118696151559406    0.2500000000000000    0.5483587018944925 F F F Te
   0.7118696151559406    0.7500000000000000    0.4858587018944925 F F F Te
   0.2881303848440595    0.2500000000000000    0.4953912981055074 F F F Te
   0.2881303848440595    0.7500000000000000    0.5578912981055074 F F F Te
   0.0000000000000000    0.0000000000000000    0.5531250000000000 F F F Pd
   0.0000000000000000    0.5000000000000000    0.4906250000000000 F F F Pd
   0.5000000000000000    0.2500000000000000    0.4593750000000000 F F F Pd
   0.5000000000000000    0.7500000000000000    0.5218750000000000 F F F Pd
   0.5000000000000000    0.0991484593005084    0.6280185574125635 T T T Rb
   0.5000000000000000    0.5991484593005083    0.5655185574125635 F F F Rb
   0.5000000000000000    0.4008515406994916    0.6657314425874364 T T T Rb
   0.5000000000000000    0.9008515406994917    0.6032314425874364 T T T Rb
   0.0000000000000000    0.3491484593005083    0.6592685574125635 T T T Rb
   0.0000000000000000    0.8491484593005082    0.5967685574125635 T T T Rb
   0.0000000000000000    0.1508515406994917    0.6344814425874364 T T T Rb
   0.0000000000000000    0.6508515406994917    0.5719814425874364 F F F Rb
   0.2118696151559406    0.0000000000000000    0.6421087018944925 T T T Te
   0.2118696151559406    0.4999999999999999    0.5796087018944925 T T T Te
   0.7881303848440594    0.0000000000000000    0.5891412981055074 T T T Te
   0.7881303848440594    0.5000000000000000    0.6516412981055074 T T T Te
   0.7118696151559406    0.2500000000000000    0.6733587018944925 T T T Te
   0.7118696151559406    0.7500000000000000    0.6108587018944925 T T T Te
   0.2881303848440595    0.2500000000000000    0.6203912981055074 T T T Te
   0.2881303848440595    0.7500000000000000    0.6828912981055074 T T T Te
   0.0000000000000000    0.0000000000000000    0.6781250000000000 T T T Pd
   0.0000000000000000    0.5000000000000000    0.6156250000000000 T T T Pd
   0.5000000000000000    0.2500000000000000    0.5843750000000000 T T T Pd
   0.5000000000000000    0.7500000000000000    0.6468750000000000 T T T Pd
