Rb16 Te16 Pd8
1.0
  10.8931140686173649    0.0000000000000000    0.0000000000000007
  -0.0000000000000005    8.2287601341058814    8.1698222109310095
   0.0000000000000000    0.0000000000000000   40.8491110546550544
Rb Te Pd Rb Te Pd
8 8 4 8 8 4
Selective dynamics
direct
   0.8017030813989834    0.0000000000000000    0.3850000000000000 T T T Rb
   0.8017030813989834    0.5000000000000001    0.4850000000000000 F F F Rb
   0.1982969186010167    0.0000000000000000    0.3850000000000000 T T T Rb
   0.1982969186010167    0.5000000000000001    0.4850000000000000 F F F Rb
   0.3017030813989834    0.2500000000000001    0.4350000000000000 F F F Rb
   0.3017030813989833    0.7500000000000001    0.3350000000000000 T T T Rb
   0.6982969186010166    0.2500000000000001    0.4350000000000000 F F F Rb
   0.6982969186010166    0.7500000000000001    0.3350000000000000 T T T Rb
   0.0000000000000000    0.2500000000000001    0.3926260769688119 T T T Te
   0.0000000000000000    0.7500000000000001    0.2926260769688119 T T T Te
   0.0000000000000000    0.2500000000000001    0.4773739230311881 F F F Te
   0.0000000000000000    0.7500000000000000    0.3773739230311881 T T T Te
   0.5000000000000000    0.0000000000000000    0.3426260769688119 T T T Te
   0.5000000000000000    0.5000000000000000    0.4426260769688119 F F F Te
   0.5000000000000000    0.0000000000000000    0.4273739230311881 F F F Te
   0.5000000000000000    0.5000000000000000    0.3273739230311881 T T T Te
   0.0000000000000000    0.0000000000000000    0.4850000000000000 F F F Pd
   0.0000000000000000    0.5000000000000000    0.3850000000000000 T T T Pd
   0.5000000000000000    0.2500000000000001    0.3350000000000000 T T T Pd
   0.5000000000000000    0.7500000000000001    0.4350000000000000 F F F Pd
   0.8017030813989834    0.0000000000000000    0.5850000000000000 T T T Rb
   0.8017030813989834    0.5000000000000001    0.6850000000000001 T T T Rb
   0.1982969186010167    0.0000000000000000    0.5850000000000000 T T T Rb
   0.1982969186010167    0.5000000000000001    0.6850000000000001 T T T Rb
   0.3017030813989834    0.2500000000000001    0.6350000000000000 T T T Rb
   0.3017030813989833    0.7500000000000001    0.5349999999999999 F F F Rb
   0.6982969186010166    0.2500000000000001    0.6350000000000000 T T T Rb
   0.6982969186010166    0.7500000000000001    0.5349999999999999 F F F Rb
   0.0000000000000000    0.2500000000000001    0.5926260769688119 T T T Te
   0.0000000000000000    0.7500000000000001    0.4926260769688119 F F F Te
   0.0000000000000000    0.2500000000000001    0.6773739230311882 T T T Te
   0.0000000000000000    0.7500000000000000    0.5773739230311881 F F F Te
   0.5000000000000000    0.0000000000000000    0.5426260769688118 F F F Te
   0.5000000000000000    0.5000000000000000    0.6426260769688119 T T T Te
   0.5000000000000000    0.0000000000000000    0.6273739230311881 T T T Te
   0.5000000000000000    0.5000000000000000    0.5273739230311881 F F F Te
   0.0000000000000000    0.0000000000000000    0.6850000000000001 T T T Pd
   0.0000000000000000    0.5000000000000000    0.5850000000000000 T T T Pd
   0.5000000000000000    0.2500000000000001    0.5350000000000000 F F F Pd
   0.5000000000000000    0.7500000000000001    0.6350000000000000 T T T Pd
