Rb48 Cd192 As144
1.0
   7.9084831260252706    0.0000000000000000   -9.1319297233846068
  -0.0000000000000380   75.2605337265849101   -4.5659648616923274
   0.0000000000000000    0.0000000000000000   45.6596486169230431
Rb Cd As Rb Cd As Rb Cd As Rb Cd As
12 48 36 12 48 36 12 48 36 12 48 36
Selective dynamics
direct
   0.8333333333333334    0.5833333333333334    0.3718750000000000 T T T Rb
   0.3333333333333333    0.0833333333333334    0.3718750000000000 T T T Rb
   0.3333333333333333    0.5833333333333335    0.3218750000000000 T T T Rb
   0.8333333333333334    0.0833333333333334    0.3218750000000000 T T T Rb
   0.0000000000000000    0.7500000000000001    0.3718750000000000 T T T Rb
   0.5000000000000000    0.2500000000000001    0.3718750000000000 T T T Rb
   0.5000000000000000    0.7500000000000001    0.3218750000000000 T T T Rb
   0.9999999999999999    0.2500000000000001    0.3218750000000000 T T T Rb
   0.6666666666666666    0.9166666666666669    0.3218750000000000 T T T Rb
   0.1666666666666666    0.4166666666666667    0.3218750000000000 T T T Rb
   0.1666666666666666    0.9166666666666669    0.3718750000000000 T T T Rb
   0.6666666666666666    0.4166666666666667    0.3718750000000000 T T T Rb
   0.6666666666666667    0.6235823617094171    0.3925665695042750 T T T Cd
   0.1666666666666667    0.1235823617094170    0.3925665695042750 T T T Cd
   0.1666666666666667    0.6235823617094171    0.3425665695042751 T T T Cd
   0.6666666666666667    0.1235823617094170    0.3425665695042751 T T T Cd
   0.5000000000000000    0.5430843049572497    0.3011834304957250 T T T Cd
   0.0000000000000000    0.0430843049572497    0.3011834304957250 T T T Cd
   0.0000000000000000    0.5430843049572497    0.3511834304957250 T T T Cd
   0.5000000000000000    0.0430843049572497    0.3511834304957250 T T T Cd
   0.6666666666666667    0.5153417625751899    0.3817425095908524 T T T Cd
   0.1666666666666667    0.0153417625751900    0.3817425095908524 T T T Cd
   0.1666666666666667    0.5153417625751900    0.3317425095908524 T T T Cd
   0.6666666666666667    0.0153417625751900    0.3317425095908523 T T T Cd
   0.5000000000000000    0.6513249040914767    0.3120074904091477 T T T Cd
   0.0000000000000000    0.1513249040914767    0.3120074904091477 T T T Cd
   0.0000000000000000    0.6513249040914767    0.3620074904091477 T T T Cd
   0.5000000000000000    0.1513249040914768    0.3620074904091477 T T T Cd
   0.8333333333333334    0.7902490283760836    0.3925665695042750 T T T Cd
   0.3333333333333334    0.2902490283760836    0.3925665695042750 T T T Cd
   0.3333333333333334    0.7902490283760836    0.3425665695042750 T T T Cd
   0.8333333333333334    0.2902490283760836    0.3425665695042751 T T T Cd
   0.6666666666666667    0.7097509716239164    0.3011834304957250 T T T Cd
   0.1666666666666667    0.2097509716239164    0.3011834304957250 T T T Cd
   0.1666666666666667    0.7097509716239165    0.3511834304957250 T T T Cd
   0.6666666666666667    0.2097509716239165    0.3511834304957250 T T T Cd
   0.8333333333333334    0.6820084292418567    0.3817425095908523 T T T Cd
   0.3333333333333334    0.1820084292418566    0.3817425095908523 T T T Cd
   0.3333333333333334    0.6820084292418567    0.3317425095908523 T T T Cd
   0.8333333333333334    0.1820084292418567    0.3317425095908524 T T T Cd
   0.6666666666666667    0.8179915707581434    0.3120074904091477 T T T Cd
   0.1666666666666667    0.3179915707581434    0.3120074904091477 T T T Cd
   0.1666666666666667    0.8179915707581435    0.3620074904091477 T T T Cd
   0.6666666666666667    0.3179915707581435    0.3620074904091477 T T T Cd
   0.5000000000000000    0.9569156950427502    0.3425665695042751 T T T Cd
   0.0000000000000000    0.4569156950427503    0.3425665695042751 T T T Cd
   0.0000000000000000    0.9569156950427503    0.3925665695042750 T T T Cd
   0.5000000000000000    0.4569156950427503    0.3925665695042750 T T T Cd
   0.8333333333333334    0.8764176382905831    0.3011834304957250 T T T Cd
   0.3333333333333334    0.3764176382905831    0.3011834304957250 T T T Cd
   0.3333333333333334    0.8764176382905832    0.3511834304957250 T T T Cd
   0.8333333333333334    0.3764176382905831    0.3511834304957250 T T T Cd
   0.5000000000000000    0.8486750959085233    0.3317425095908524 T T T Cd
   0.0000000000000000    0.3486750959085233    0.3317425095908524 T T T Cd
   0.0000000000000000    0.8486750959085233    0.3817425095908524 T T T Cd
   0.5000000000000000    0.3486750959085233    0.3817425095908524 T T T Cd
   0.8333333333333334    0.9846582374248101    0.3120074904091477 T T T Cd
   0.3333333333333334    0.4846582374248101    0.3120074904091477 T T T Cd
   0.3333333333333334    0.9846582374248101    0.3620074904091477 T T T Cd
   0.8333333333333334    0.4846582374248101    0.3620074904091477 T T T Cd
   0.6666666666666667    0.5511181712637595    0.3853201504597094 T T T As
   0.1666666666666667    0.0511181712637594    0.3853201504597093 T T T As
   0.1666666666666667    0.5511181712637595    0.3353201504597093 T T T As
   0.6666666666666667    0.0511181712637595    0.3353201504597093 T T T As
   0.5000000000000000    0.6155484954029072    0.3084298495402908 T T T As
   0.0000000000000000    0.1155484954029073    0.3084298495402908 T T T As
   0.0000000000000000    0.6155484954029072    0.3584298495402908 T T T As
   0.5000000000000000    0.1155484954029073    0.3584298495402908 T T T As
   0.5000000000000000    0.5000000000000000    0.3968750000000000 T T T As
   0.0000000000000000    0.0000000000000000    0.3968750000000000 T T T As
   0.0000000000000000    0.5000000000000000    0.3468750000000000 T T T As
   0.5000000000000000    0.0000000000000000    0.3468750000000000 T T T As
   0.8333333333333334    0.7177848379304261    0.3853201504597093 T T T As
   0.3333333333333334    0.2177848379304261    0.3853201504597092 T T T As
   0.3333333333333334    0.7177848379304261    0.3353201504597093 T T T As
   0.8333333333333334    0.2177848379304261    0.3353201504597093 T T T As
   0.6666666666666667    0.7822151620695740    0.3084298495402908 T T T As
   0.1666666666666667    0.2822151620695740    0.3084298495402907 T T T As
   0.1666666666666667    0.7822151620695740    0.3584298495402908 T T T As
   0.6666666666666667    0.2822151620695740    0.3584298495402907 T T T As
   0.6666666666666667    0.6666666666666667    0.3968750000000000 T T T As
   0.1666666666666667    0.1666666666666667    0.3968750000000000 T T T As
   0.1666666666666667    0.6666666666666667    0.3468750000000000 T T T As
   0.6666666666666667    0.1666666666666667    0.3468750000000000 T T T As
   0.5000000000000000    0.8844515045970928    0.3353201504597093 T T T As
   0.0000000000000000    0.3844515045970927    0.3353201504597093 T T T As
   0.0000000000000000    0.8844515045970929    0.3853201504597094 T T T As
   0.5000000000000000    0.3844515045970928    0.3853201504597093 T T T As
   0.8333333333333334    0.9488818287362407    0.3084298495402908 T T T As
   0.3333333333333334    0.4488818287362406    0.3084298495402907 T T T As
   0.3333333333333334    0.9488818287362407    0.3584298495402908 T T T As
   0.8333333333333334    0.4488818287362407    0.3584298495402908 T T T As
   0.8333333333333334    0.8333333333333334    0.3968750000000000 T T T As
   0.3333333333333334    0.3333333333333334    0.3968750000000000 T T T As
   0.3333333333333334    0.8333333333333334    0.3468750000000000 T T T As
   0.8333333333333334    0.3333333333333334    0.3468750000000000 T T T As
   0.8333333333333334    0.5833333333333334    0.4718750000000000 F F F Rb
   0.3333333333333333    0.0833333333333334    0.4718750000000000 F F F Rb
   0.3333333333333333    0.5833333333333335    0.4218750000000000 F F F Rb
   0.8333333333333334    0.0833333333333334    0.4218750000000000 F F F Rb
   0.0000000000000000    0.7500000000000001    0.4718750000000000 F F F Rb
   0.5000000000000000    0.2500000000000001    0.4718750000000000 F F F Rb
   0.5000000000000000    0.7500000000000001    0.4218750000000000 F F F Rb
   0.9999999999999999    0.2500000000000001    0.4218749999999999 F F F Rb
   0.6666666666666666    0.9166666666666669    0.4218750000000000 F F F Rb
   0.1666666666666666    0.4166666666666667    0.4218750000000000 F F F Rb
   0.1666666666666666    0.9166666666666669    0.4718750000000000 F F F Rb
   0.6666666666666666    0.4166666666666667    0.4718750000000000 F F F Rb
   0.6666666666666667    0.6235823617094171    0.4925665695042751 F F F Cd
   0.1666666666666667    0.1235823617094170    0.4925665695042751 F F F Cd
   0.1666666666666667    0.6235823617094171    0.4425665695042751 F F F Cd
   0.6666666666666667    0.1235823617094170    0.4425665695042750 F F F Cd
   0.5000000000000000    0.5430843049572497    0.4011834304957250 T T T Cd
   0.0000000000000000    0.0430843049572497    0.4011834304957250 T T T Cd
   0.0000000000000000    0.5430843049572497    0.4511834304957250 F F F Cd
   0.5000000000000000    0.0430843049572497    0.4511834304957250 F F F Cd
   0.6666666666666667    0.5153417625751899    0.4817425095908524 F F F Cd
   0.1666666666666667    0.0153417625751900    0.4817425095908524 F F F Cd
   0.1666666666666667    0.5153417625751900    0.4317425095908524 F F F Cd
   0.6666666666666667    0.0153417625751900    0.4317425095908524 F F F Cd
   0.5000000000000000    0.6513249040914767    0.4120074904091477 F F F Cd
   0.0000000000000000    0.1513249040914767    0.4120074904091477 F F F Cd
   0.0000000000000000    0.6513249040914767    0.4620074904091477 F F F Cd
   0.5000000000000000    0.1513249040914768    0.4620074904091477 F F F Cd
   0.8333333333333334    0.7902490283760836    0.4925665695042750 F F F Cd
   0.3333333333333334    0.2902490283760836    0.4925665695042750 F F F Cd
   0.3333333333333334    0.7902490283760836    0.4425665695042750 F F F Cd
   0.8333333333333334    0.2902490283760836    0.4425665695042750 F F F Cd
   0.6666666666666667    0.7097509716239164    0.4011834304957250 T T T Cd
   0.1666666666666667    0.2097509716239164    0.4011834304957250 T T T Cd
   0.1666666666666667    0.7097509716239165    0.4511834304957250 F F F Cd
   0.6666666666666667    0.2097509716239165    0.4511834304957250 F F F Cd
   0.8333333333333334    0.6820084292418567    0.4817425095908524 F F F Cd
   0.3333333333333334    0.1820084292418566    0.4817425095908524 F F F Cd
   0.3333333333333334    0.6820084292418567    0.4317425095908524 F F F Cd
   0.8333333333333334    0.1820084292418567    0.4317425095908524 F F F Cd
   0.6666666666666667    0.8179915707581434    0.4120074904091477 F F F Cd
   0.1666666666666667    0.3179915707581434    0.4120074904091477 F F F Cd
   0.1666666666666667    0.8179915707581435    0.4620074904091477 F F F Cd
   0.6666666666666667    0.3179915707581435    0.4620074904091477 F F F Cd
   0.5000000000000000    0.9569156950427502    0.4425665695042751 F F F Cd
   0.0000000000000000    0.4569156950427503    0.4425665695042751 F F F Cd
   0.0000000000000000    0.9569156950427503    0.4925665695042751 F F F Cd
   0.5000000000000000    0.4569156950427503    0.4925665695042751 F F F Cd
   0.8333333333333334    0.8764176382905831    0.4011834304957250 T T T Cd
   0.3333333333333334    0.3764176382905831    0.4011834304957250 T T T Cd
   0.3333333333333334    0.8764176382905832    0.4511834304957250 F F F Cd
   0.8333333333333334    0.3764176382905831    0.4511834304957250 F F F Cd
   0.5000000000000000    0.8486750959085233    0.4317425095908524 F F F Cd
   0.0000000000000000    0.3486750959085233    0.4317425095908524 F F F Cd
   0.0000000000000000    0.8486750959085233    0.4817425095908524 F F F Cd
   0.5000000000000000    0.3486750959085233    0.4817425095908524 F F F Cd
   0.8333333333333334    0.9846582374248101    0.4120074904091477 F F F Cd
   0.3333333333333334    0.4846582374248101    0.4120074904091477 F F F Cd
   0.3333333333333334    0.9846582374248101    0.4620074904091477 F F F Cd
   0.8333333333333334    0.4846582374248101    0.4620074904091477 F F F Cd
   0.6666666666666667    0.5511181712637595    0.4853201504597093 F F F As
   0.1666666666666667    0.0511181712637594    0.4853201504597093 F F F As
   0.1666666666666667    0.5511181712637595    0.4353201504597093 F F F As
   0.6666666666666667    0.0511181712637595    0.4353201504597093 F F F As
   0.5000000000000000    0.6155484954029072    0.4084298495402908 F F F As
   0.0000000000000000    0.1155484954029073    0.4084298495402908 F F F As
   0.0000000000000000    0.6155484954029072    0.4584298495402908 F F F As
   0.5000000000000000    0.1155484954029073    0.4584298495402908 F F F As
   0.5000000000000000    0.5000000000000000    0.4968750000000001 F F F As
   0.0000000000000000    0.0000000000000000    0.4968750000000001 F F F As
   0.0000000000000000    0.5000000000000000    0.4468750000000000 F F F As
   0.5000000000000000    0.0000000000000000    0.4468750000000000 F F F As
   0.8333333333333334    0.7177848379304261    0.4853201504597093 F F F As
   0.3333333333333334    0.2177848379304261    0.4853201504597093 F F F As
   0.3333333333333334    0.7177848379304261    0.4353201504597093 F F F As
   0.8333333333333334    0.2177848379304261    0.4353201504597093 F F F As
   0.6666666666666667    0.7822151620695740    0.4084298495402908 F F F As
   0.1666666666666667    0.2822151620695740    0.4084298495402908 F F F As
   0.1666666666666667    0.7822151620695740    0.4584298495402908 F F F As
   0.6666666666666667    0.2822151620695740    0.4584298495402908 F F F As
   0.6666666666666667    0.6666666666666667    0.4968750000000001 F F F As
   0.1666666666666667    0.1666666666666667    0.4968750000000001 F F F As
   0.1666666666666667    0.6666666666666667    0.4468750000000000 F F F As
   0.6666666666666667    0.1666666666666667    0.4468750000000000 F F F As
   0.5000000000000000    0.8844515045970928    0.4353201504597093 F F F As
   0.0000000000000000    0.3844515045970927    0.4353201504597093 F F F As
   0.0000000000000000    0.8844515045970929    0.4853201504597093 F F F As
   0.5000000000000000    0.3844515045970928    0.4853201504597093 F F F As
   0.8333333333333334    0.9488818287362407    0.4084298495402908 F F F As
   0.3333333333333334    0.4488818287362406    0.4084298495402908 F F F As
   0.3333333333333334    0.9488818287362407    0.4584298495402908 F F F As
   0.8333333333333334    0.4488818287362407    0.4584298495402908 F F F As
   0.8333333333333334    0.8333333333333334    0.4968750000000001 F F F As
   0.3333333333333334    0.3333333333333334    0.4968750000000001 F F F As
   0.3333333333333334    0.8333333333333334    0.4468750000000000 F F F As
   0.8333333333333334    0.3333333333333334    0.4468750000000000 F F F As
   0.8333333333333334    0.5833333333333334    0.5718750000000000 F F F Rb
   0.3333333333333333    0.0833333333333334    0.5718750000000000 F F F Rb
   0.3333333333333333    0.5833333333333335    0.5218750000000001 F F F Rb
   0.8333333333333334    0.0833333333333334    0.5218750000000001 F F F Rb
   0.0000000000000000    0.7500000000000001    0.5718750000000000 F F F Rb
   0.5000000000000000    0.2500000000000001    0.5718750000000000 F F F Rb
   0.5000000000000000    0.7500000000000001    0.5218750000000000 F F F Rb
   0.9999999999999999    0.2500000000000001    0.5218750000000000 F F F Rb
   0.6666666666666666    0.9166666666666669    0.5218750000000001 F F F Rb
   0.1666666666666666    0.4166666666666667    0.5218750000000000 F F F Rb
   0.1666666666666666    0.9166666666666669    0.5718750000000000 F F F Rb
   0.6666666666666666    0.4166666666666667    0.5718750000000000 F F F Rb
   0.6666666666666667    0.6235823617094171    0.5925665695042751 F F F Cd
   0.1666666666666667    0.1235823617094170    0.5925665695042751 F F F Cd
   0.1666666666666667    0.6235823617094171    0.5425665695042751 F F F Cd
   0.6666666666666667    0.1235823617094170    0.5425665695042751 F F F Cd
   0.5000000000000000    0.5430843049572497    0.5011834304957250 F F F Cd
   0.0000000000000000    0.0430843049572497    0.5011834304957250 F F F Cd
   0.0000000000000000    0.5430843049572497    0.5511834304957250 F F F Cd
   0.5000000000000000    0.0430843049572497    0.5511834304957250 F F F Cd
   0.6666666666666667    0.5153417625751899    0.5817425095908524 F F F Cd
   0.1666666666666667    0.0153417625751900    0.5817425095908524 F F F Cd
   0.1666666666666667    0.5153417625751900    0.5317425095908523 F F F Cd
   0.6666666666666667    0.0153417625751900    0.5317425095908523 F F F Cd
   0.5000000000000000    0.6513249040914767    0.5120074904091477 F F F Cd
   0.0000000000000000    0.1513249040914767    0.5120074904091477 F F F Cd
   0.0000000000000000    0.6513249040914767    0.5620074904091477 F F F Cd
   0.5000000000000000    0.1513249040914768    0.5620074904091477 F F F Cd
   0.8333333333333334    0.7902490283760836    0.5925665695042750 F F F Cd
   0.3333333333333334    0.2902490283760836    0.5925665695042750 F F F Cd
   0.3333333333333334    0.7902490283760836    0.5425665695042751 F F F Cd
   0.8333333333333334    0.2902490283760836    0.5425665695042751 F F F Cd
   0.6666666666666667    0.7097509716239164    0.5011834304957250 F F F Cd
   0.1666666666666667    0.2097509716239164    0.5011834304957250 F F F Cd
   0.1666666666666667    0.7097509716239165    0.5511834304957250 F F F Cd
   0.6666666666666667    0.2097509716239165    0.5511834304957250 F F F Cd
   0.8333333333333334    0.6820084292418567    0.5817425095908524 F F F Cd
   0.3333333333333334    0.1820084292418566    0.5817425095908524 F F F Cd
   0.3333333333333334    0.6820084292418567    0.5317425095908523 F F F Cd
   0.8333333333333334    0.1820084292418567    0.5317425095908523 F F F Cd
   0.6666666666666667    0.8179915707581434    0.5120074904091477 F F F Cd
   0.1666666666666667    0.3179915707581434    0.5120074904091477 F F F Cd
   0.1666666666666667    0.8179915707581435    0.5620074904091478 F F F Cd
   0.6666666666666667    0.3179915707581435    0.5620074904091477 F F F Cd
   0.5000000000000000    0.9569156950427502    0.5425665695042751 F F F Cd
   0.0000000000000000    0.4569156950427503    0.5425665695042751 F F F Cd
   0.0000000000000000    0.9569156950427503    0.5925665695042751 F F F Cd
   0.5000000000000000    0.4569156950427503    0.5925665695042751 F F F Cd
   0.8333333333333334    0.8764176382905831    0.5011834304957250 F F F Cd
   0.3333333333333334    0.3764176382905831    0.5011834304957250 F F F Cd
   0.3333333333333334    0.8764176382905832    0.5511834304957250 F F F Cd
   0.8333333333333334    0.3764176382905831    0.5511834304957250 F F F Cd
   0.5000000000000000    0.8486750959085233    0.5317425095908523 F F F Cd
   0.0000000000000000    0.3486750959085233    0.5317425095908523 F F F Cd
   0.0000000000000000    0.8486750959085233    0.5817425095908524 F F F Cd
   0.5000000000000000    0.3486750959085233    0.5817425095908524 F F F Cd
   0.8333333333333334    0.9846582374248101    0.5120074904091477 F F F Cd
   0.3333333333333334    0.4846582374248101    0.5120074904091477 F F F Cd
   0.3333333333333334    0.9846582374248101    0.5620074904091477 F F F Cd
   0.8333333333333334    0.4846582374248101    0.5620074904091477 F F F Cd
   0.6666666666666667    0.5511181712637595    0.5853201504597093 F F F As
   0.1666666666666667    0.0511181712637594    0.5853201504597093 F F F As
   0.1666666666666667    0.5511181712637595    0.5353201504597094 F F F As
   0.6666666666666667    0.0511181712637595    0.5353201504597093 F F F As
   0.5000000000000000    0.6155484954029072    0.5084298495402908 F F F As
   0.0000000000000000    0.1155484954029073    0.5084298495402908 F F F As
   0.0000000000000000    0.6155484954029072    0.5584298495402908 F F F As
   0.5000000000000000    0.1155484954029073    0.5584298495402908 F F F As
   0.5000000000000000    0.5000000000000000    0.5968750000000000 T T T As
   0.0000000000000000    0.0000000000000000    0.5968750000000000 T T T As
   0.0000000000000000    0.5000000000000000    0.5468750000000000 F F F As
   0.5000000000000000    0.0000000000000000    0.5468750000000000 F F F As
   0.8333333333333334    0.7177848379304261    0.5853201504597093 F F F As
   0.3333333333333334    0.2177848379304261    0.5853201504597093 F F F As
   0.3333333333333334    0.7177848379304261    0.5353201504597093 F F F As
   0.8333333333333334    0.2177848379304261    0.5353201504597094 F F F As
   0.6666666666666667    0.7822151620695740    0.5084298495402908 F F F As
   0.1666666666666667    0.2822151620695740    0.5084298495402908 F F F As
   0.1666666666666667    0.7822151620695740    0.5584298495402908 F F F As
   0.6666666666666667    0.2822151620695740    0.5584298495402907 F F F As
   0.6666666666666667    0.6666666666666667    0.5968750000000000 T T T As
   0.1666666666666667    0.1666666666666667    0.5968750000000000 T T T As
   0.1666666666666667    0.6666666666666667    0.5468750000000000 F F F As
   0.6666666666666667    0.1666666666666667    0.5468750000000000 F F F As
   0.5000000000000000    0.8844515045970928    0.5353201504597094 F F F As
   0.0000000000000000    0.3844515045970927    0.5353201504597094 F F F As
   0.0000000000000000    0.8844515045970929    0.5853201504597093 F F F As
   0.5000000000000000    0.3844515045970928    0.5853201504597093 F F F As
   0.8333333333333334    0.9488818287362407    0.5084298495402908 F F F As
   0.3333333333333334    0.4488818287362406    0.5084298495402908 F F F As
   0.3333333333333334    0.9488818287362407    0.5584298495402908 F F F As
   0.8333333333333334    0.4488818287362407    0.5584298495402908 F F F As
   0.8333333333333334    0.8333333333333334    0.5968750000000000 T T T As
   0.3333333333333334    0.3333333333333334    0.5968750000000000 T T T As
   0.3333333333333334    0.8333333333333334    0.5468750000000000 F F F As
   0.8333333333333334    0.3333333333333334    0.5468750000000000 F F F As
   0.8333333333333334    0.5833333333333334    0.6718750000000000 T T T Rb
   0.3333333333333333    0.0833333333333334    0.6718750000000000 T T T Rb
   0.3333333333333333    0.5833333333333335    0.6218750000000000 T T T Rb
   0.8333333333333334    0.0833333333333334    0.6218750000000000 T T T Rb
   0.0000000000000000    0.7500000000000001    0.6718750000000000 T T T Rb
   0.5000000000000000    0.2500000000000001    0.6718750000000000 T T T Rb
   0.5000000000000000    0.7500000000000001    0.6218750000000000 T T T Rb
   0.9999999999999999    0.2500000000000001    0.6218750000000000 T T T Rb
   0.6666666666666666    0.9166666666666669    0.6218750000000000 T T T Rb
   0.1666666666666666    0.4166666666666667    0.6218750000000000 T T T Rb
   0.1666666666666666    0.9166666666666669    0.6718750000000000 T T T Rb
   0.6666666666666666    0.4166666666666667    0.6718750000000000 T T T Rb
   0.6666666666666667    0.6235823617094171    0.6925665695042751 T T T Cd
   0.1666666666666667    0.1235823617094170    0.6925665695042751 T T T Cd
   0.1666666666666667    0.6235823617094171    0.6425665695042750 T T T Cd
   0.6666666666666667    0.1235823617094170    0.6425665695042750 T T T Cd
   0.5000000000000000    0.5430843049572497    0.6011834304957250 T T T Cd
   0.0000000000000000    0.0430843049572497    0.6011834304957250 T T T Cd
   0.0000000000000000    0.5430843049572497    0.6511834304957250 T T T Cd
   0.5000000000000000    0.0430843049572497    0.6511834304957250 T T T Cd
   0.6666666666666667    0.5153417625751899    0.6817425095908524 T T T Cd
   0.1666666666666667    0.0153417625751900    0.6817425095908524 T T T Cd
   0.1666666666666667    0.5153417625751900    0.6317425095908524 T T T Cd
   0.6666666666666667    0.0153417625751900    0.6317425095908523 T T T Cd
   0.5000000000000000    0.6513249040914767    0.6120074904091477 T T T Cd
   0.0000000000000000    0.1513249040914767    0.6120074904091477 T T T Cd
   0.0000000000000000    0.6513249040914767    0.6620074904091477 T T T Cd
   0.5000000000000000    0.1513249040914768    0.6620074904091477 T T T Cd
   0.8333333333333334    0.7902490283760836    0.6925665695042751 T T T Cd
   0.3333333333333334    0.2902490283760836    0.6925665695042751 T T T Cd
   0.3333333333333334    0.7902490283760836    0.6425665695042750 T T T Cd
   0.8333333333333334    0.2902490283760836    0.6425665695042750 T T T Cd
   0.6666666666666667    0.7097509716239164    0.6011834304957251 T T T Cd
   0.1666666666666667    0.2097509716239164    0.6011834304957250 T T T Cd
   0.1666666666666667    0.7097509716239165    0.6511834304957250 T T T Cd
   0.6666666666666667    0.2097509716239165    0.6511834304957249 T T T Cd
   0.8333333333333334    0.6820084292418567    0.6817425095908524 T T T Cd
   0.3333333333333334    0.1820084292418566    0.6817425095908523 T T T Cd
   0.3333333333333334    0.6820084292418567    0.6317425095908523 T T T Cd
   0.8333333333333334    0.1820084292418567    0.6317425095908524 T T T Cd
   0.6666666666666667    0.8179915707581434    0.6120074904091477 T T T Cd
   0.1666666666666667    0.3179915707581434    0.6120074904091477 T T T Cd
   0.1666666666666667    0.8179915707581435    0.6620074904091477 T T T Cd
   0.6666666666666667    0.3179915707581435    0.6620074904091476 T T T Cd
   0.5000000000000000    0.9569156950427502    0.6425665695042750 T T T Cd
   0.0000000000000000    0.4569156950427503    0.6425665695042750 T T T Cd
   0.0000000000000000    0.9569156950427503    0.6925665695042751 T T T Cd
   0.5000000000000000    0.4569156950427503    0.6925665695042751 T T T Cd
   0.8333333333333334    0.8764176382905831    0.6011834304957250 T T T Cd
   0.3333333333333334    0.3764176382905831    0.6011834304957250 T T T Cd
   0.3333333333333334    0.8764176382905832    0.6511834304957249 T T T Cd
   0.8333333333333334    0.3764176382905831    0.6511834304957249 T T T Cd
   0.5000000000000000    0.8486750959085233    0.6317425095908524 T T T Cd
   0.0000000000000000    0.3486750959085233    0.6317425095908524 T T T Cd
   0.0000000000000000    0.8486750959085233    0.6817425095908524 T T T Cd
   0.5000000000000000    0.3486750959085233    0.6817425095908524 T T T Cd
   0.8333333333333334    0.9846582374248101    0.6120074904091477 T T T Cd
   0.3333333333333334    0.4846582374248101    0.6120074904091477 T T T Cd
   0.3333333333333334    0.9846582374248101    0.6620074904091477 T T T Cd
   0.8333333333333334    0.4846582374248101    0.6620074904091477 T T T Cd
   0.6666666666666667    0.5511181712637595    0.6853201504597093 T T T As
   0.1666666666666667    0.0511181712637594    0.6853201504597093 T T T As
   0.1666666666666667    0.5511181712637595    0.6353201504597092 T T T As
   0.6666666666666667    0.0511181712637595    0.6353201504597092 T T T As
   0.5000000000000000    0.6155484954029072    0.6084298495402908 T T T As
   0.0000000000000000    0.1155484954029073    0.6084298495402908 T T T As
   0.0000000000000000    0.6155484954029072    0.6584298495402907 T T T As
   0.5000000000000000    0.1155484954029073    0.6584298495402907 T T T As
   0.5000000000000000    0.5000000000000000    0.6968750000000000 T T T As
   0.0000000000000000    0.0000000000000000    0.6968750000000000 T T T As
   0.0000000000000000    0.5000000000000000    0.6468750000000001 T T T As
   0.5000000000000000    0.0000000000000000    0.6468750000000001 T T T As
   0.8333333333333334    0.7177848379304261    0.6853201504597093 T T T As
   0.3333333333333334    0.2177848379304261    0.6853201504597093 T T T As
   0.3333333333333334    0.7177848379304261    0.6353201504597092 T T T As
   0.8333333333333334    0.2177848379304261    0.6353201504597092 T T T As
   0.6666666666666667    0.7822151620695740    0.6084298495402908 T T T As
   0.1666666666666667    0.2822151620695740    0.6084298495402907 T T T As
   0.1666666666666667    0.7822151620695740    0.6584298495402907 T T T As
   0.6666666666666667    0.2822151620695740    0.6584298495402907 T T T As
   0.6666666666666667    0.6666666666666667    0.6968750000000000 T T T As
   0.1666666666666667    0.1666666666666667    0.6968750000000000 T T T As
   0.1666666666666667    0.6666666666666667    0.6468750000000001 T T T As
   0.6666666666666667    0.1666666666666667    0.6468750000000001 T T T As
   0.5000000000000000    0.8844515045970928    0.6353201504597092 T T T As
   0.0000000000000000    0.3844515045970927    0.6353201504597092 T T T As
   0.0000000000000000    0.8844515045970929    0.6853201504597093 T T T As
   0.5000000000000000    0.3844515045970928    0.6853201504597093 T T T As
   0.8333333333333334    0.9488818287362407    0.6084298495402908 T T T As
   0.3333333333333334    0.4488818287362406    0.6084298495402907 T T T As
   0.3333333333333334    0.9488818287362407    0.6584298495402907 T T T As
   0.8333333333333334    0.4488818287362407    0.6584298495402907 T T T As
   0.8333333333333334    0.8333333333333334    0.6968750000000000 T T T As
   0.3333333333333334    0.3333333333333334    0.6968750000000000 T T T As
   0.3333333333333334    0.8333333333333334    0.6468750000000001 T T T As
   0.8333333333333334    0.3333333333333334    0.6468750000000001 T T T As
