Sc36 Co6 Te12
1.0
   7.7585102136074751    0.0000000000000000    0.0000000000000005
   7.7585102136074777   13.4381338810102076    3.7564767876418315
   0.0000000000000000    0.0000000000000000   30.0518143011346162
Sc Co Te Sc Co Te Sc Co Te
12 2 4 12 2 4 12 2 4
Selective dynamics
direct
   0.0000000000000000    0.3827760023915410    0.3584029997010574 T T T Sc
   0.0000000000000000    0.8827760023915410    0.4209029997010574 T T T Sc
   0.2344479952169181    0.5000000000000000    0.3437500000000000 T T T Sc
   0.2344479952169181    0.0000000000000000    0.4062500000000000 T T T Sc
   0.7655520047830821    0.1172239976084590    0.3915970002989426 T T T Sc
   0.7655520047830821    0.6172239976084590    0.3290970002989426 T T T Sc
   0.0000000000000000    0.1940891787583965    0.3194888526552004 T T T Sc
   0.0000000000000000    0.6940891787583965    0.3819888526552004 T T T Sc
   0.6118216424832070    0.5000000000000000    0.4062500000000000 T T T Sc
   0.6118216424832070    0.0000000000000000    0.3437500000000000 T T T Sc
   0.3881783575167930    0.3059108212416035    0.4305111473447996 F F F Sc
   0.3881783575167930    0.8059108212416035    0.3680111473447996 T T T Sc
   0.0000000000000000    0.5000000000000000    0.4062500000000000 T T T Co
   0.0000000000000000    0.0000000000000000    0.3437500000000000 T T T Co
   0.6666666666666667    0.3333333333333334    0.3645833333333333 T T T Te
   0.6666666666666666    0.8333333333333334    0.4270833333333333 F F F Te
   0.3333333333333334    0.1666666666666667    0.3854166666666667 T T T Te
   0.3333333333333334    0.6666666666666667    0.3229166666666667 T T T Te
   0.0000000000000000    0.3827760023915410    0.4834029997010574 F F F Sc
   0.0000000000000000    0.8827760023915410    0.5459029997010574 F F F Sc
   0.2344479952169181    0.5000000000000000    0.4687500000000000 F F F Sc
   0.2344479952169181    0.0000000000000000    0.5312500000000000 F F F Sc
   0.7655520047830821    0.1172239976084590    0.5165970002989426 F F F Sc
   0.7655520047830821    0.6172239976084590    0.4540970002989426 F F F Sc
   0.0000000000000000    0.1940891787583965    0.4444888526552004 F F F Sc
   0.0000000000000000    0.6940891787583965    0.5069888526552004 F F F Sc
   0.6118216424832070    0.5000000000000000    0.5312500000000000 F F F Sc
   0.6118216424832070    0.0000000000000000    0.4687500000000000 F F F Sc
   0.3881783575167930    0.3059108212416035    0.5555111473447996 F F F Sc
   0.3881783575167930    0.8059108212416035    0.4930111473447996 F F F Sc
   0.0000000000000000    0.5000000000000000    0.5312500000000000 F F F Co
   0.0000000000000000    0.0000000000000000    0.4687500000000000 F F F Co
   0.6666666666666667    0.3333333333333334    0.4895833333333333 F F F Te
   0.6666666666666666    0.8333333333333334    0.5520833333333333 F F F Te
   0.3333333333333334    0.1666666666666667    0.5104166666666667 F F F Te
   0.3333333333333334    0.6666666666666667    0.4479166666666666 F F F Te
   0.0000000000000000    0.3827760023915410    0.6084029997010574 T T T Sc
   0.0000000000000000    0.8827760023915410    0.6709029997010574 T T T Sc
   0.2344479952169181    0.5000000000000000    0.5937500000000000 T T T Sc
   0.2344479952169181    0.0000000000000000    0.6562500000000000 T T T Sc
   0.7655520047830821    0.1172239976084590    0.6415970002989426 T T T Sc
   0.7655520047830821    0.6172239976084590    0.5790970002989426 T T T Sc
   0.0000000000000000    0.1940891787583965    0.5694888526552004 F F F Sc
   0.0000000000000000    0.6940891787583965    0.6319888526552004 T T T Sc
   0.6118216424832070    0.5000000000000000    0.6562500000000000 T T T Sc
   0.6118216424832070    0.0000000000000000    0.5937500000000000 T T T Sc
   0.3881783575167930    0.3059108212416035    0.6805111473447996 T T T Sc
   0.3881783575167930    0.8059108212416035    0.6180111473447996 T T T Sc
   0.0000000000000000    0.5000000000000000    0.6562500000000000 T T T Co
   0.0000000000000000    0.0000000000000000    0.5937500000000000 T T T Co
   0.6666666666666667    0.3333333333333334    0.6145833333333333 T T T Te
   0.6666666666666666    0.8333333333333334    0.6770833333333333 T T T Te
   0.3333333333333334    0.1666666666666667    0.6354166666666667 T T T Te
   0.3333333333333334    0.6666666666666667    0.5729166666666667 F F F Te
