Y24 Ga24 Au24
1.0
   4.4893102114778527    0.0000000000000000    0.0000000000000003
   0.0000000000000017   10.6723175707403986  -20.0359260861535660
   0.0000000000000000    0.0000000000000000   73.5866870406300251
Y Ga Au Y Ga Au Y Ga Au
8 8 8 8 8 8 8 8 8
Selective dynamics
direct
   0.5000000000000000    0.1485400569375414    0.3003920963666586 T T T Y
   0.5000000000000000    0.6485400569375414    0.3718206677952300 T T T Y
   0.5000000000000000    0.3514599430624584    0.3186555226809604 T T T Y
   0.5000000000000000    0.8514599430624583    0.3900840941095318 F F F Y
   0.0000000000000000    0.1485400569375414    0.3718206677952301 T T T Y
   0.0000000000000000    0.6485400569375414    0.3003920963666586 T T T Y
   0.0000000000000000    0.3514599430624585    0.3900840941095318 F F F Y
   0.0000000000000000    0.8514599430624584    0.3186555226809604 T T T Y
   0.5000000000000000    0.4469602554400609    0.3864954846125166 T T T Ga
   0.5000000000000000    0.9469602554400609    0.3150669131839451 T T T Ga
   0.5000000000000000    0.0530397445599391    0.3754092772922453 T T T Ga
   0.5000000000000000    0.5530397445599390    0.3039807058636739 T T T Ga
   0.0000000000000000    0.4469602554400608    0.3150669131839451 T T T Ga
   0.0000000000000000    0.9469602554400608    0.3864954846125166 T T T Ga
   0.0000000000000000    0.0530397445599391    0.3039807058636739 T T T Ga
   0.0000000000000000    0.5530397445599390    0.3754092772922453 T T T Ga
   0.0000000000000000    0.3574105919481489    0.3500291629148626 T T T Au
   0.0000000000000000    0.8574105919481489    0.4214577343434341 F F F Au
   0.0000000000000000    0.1425894080518510    0.4118755989898992 F F F Au
   0.0000000000000000    0.6425894080518509    0.3404470275613278 T T T Au
   0.5000000000000000    0.3574105919481489    0.4214577343434341 F F F Au
   0.5000000000000000    0.8574105919481489    0.3500291629148626 T T T Au
   0.5000000000000000    0.1425894080518510    0.3404470275613278 T T T Au
   0.5000000000000000    0.6425894080518509    0.4118755989898992 F F F Au
   0.5000000000000000    0.1485400569375414    0.4432492392238015 F F F Y
   0.5000000000000000    0.6485400569375414    0.5146778106523729 F F F Y
   0.5000000000000000    0.3514599430624584    0.4615126655381032 F F F Y
   0.5000000000000000    0.8514599430624583    0.5329412369666746 F F F Y
   0.0000000000000000    0.1485400569375414    0.5146778106523729 F F F Y
   0.0000000000000000    0.6485400569375414    0.4432492392238015 F F F Y
   0.0000000000000000    0.3514599430624585    0.5329412369666746 F F F Y
   0.0000000000000000    0.8514599430624584    0.4615126655381032 F F F Y
   0.5000000000000000    0.4469602554400609    0.5293526274696594 F F F Ga
   0.5000000000000000    0.9469602554400609    0.4579240560410880 F F F Ga
   0.5000000000000000    0.0530397445599391    0.5182664201493882 F F F Ga
   0.5000000000000000    0.5530397445599390    0.4468378487208167 F F F Ga
   0.0000000000000000    0.4469602554400608    0.4579240560410880 F F F Ga
   0.0000000000000000    0.9469602554400608    0.5293526274696594 F F F Ga
   0.0000000000000000    0.0530397445599391    0.4468378487208168 F F F Ga
   0.0000000000000000    0.5530397445599390    0.5182664201493882 F F F Ga
   0.0000000000000000    0.3574105919481489    0.4928863057720055 F F F Au
   0.0000000000000000    0.8574105919481489    0.5643148772005769 F F F Au
   0.0000000000000000    0.1425894080518510    0.5547327418470420 F F F Au
   0.0000000000000000    0.6425894080518509    0.4833041704184706 F F F Au
   0.5000000000000000    0.3574105919481489    0.5643148772005769 F F F Au
   0.5000000000000000    0.8574105919481489    0.4928863057720055 F F F Au
   0.5000000000000000    0.1425894080518510    0.4833041704184707 F F F Au
   0.5000000000000000    0.6425894080518509    0.5547327418470420 F F F Au
   0.5000000000000000    0.1485400569375414    0.5861063820809443 F F F Y
   0.5000000000000000    0.6485400569375414    0.6575349535095157 T T T Y
   0.5000000000000000    0.3514599430624584    0.6043698083952460 F F F Y
   0.5000000000000000    0.8514599430624583    0.6757983798238174 T T T Y
   0.0000000000000000    0.1485400569375414    0.6575349535095159 T T T Y
   0.0000000000000000    0.6485400569375414    0.5861063820809443 F F F Y
   0.0000000000000000    0.3514599430624585    0.6757983798238175 T T T Y
   0.0000000000000000    0.8514599430624584    0.6043698083952460 F F F Y
   0.5000000000000000    0.4469602554400609    0.6722097703268023 T T T Ga
   0.5000000000000000    0.9469602554400609    0.6007811988982308 F F F Ga
   0.5000000000000000    0.0530397445599391    0.6611235630065311 T T T Ga
   0.5000000000000000    0.5530397445599390    0.5896949915779596 F F F Ga
   0.0000000000000000    0.4469602554400608    0.6007811988982308 F F F Ga
   0.0000000000000000    0.9469602554400608    0.6722097703268023 T T T Ga
   0.0000000000000000    0.0530397445599391    0.5896949915779596 F F F Ga
   0.0000000000000000    0.5530397445599390    0.6611235630065310 T T T Ga
   0.0000000000000000    0.3574105919481489    0.6357434486291483 T T T Au
   0.0000000000000000    0.8574105919481489    0.7071720200577198 T T T Au
   0.0000000000000000    0.1425894080518510    0.6975898847041849 T T T Au
   0.0000000000000000    0.6425894080518509    0.6261613132756134 T T T Au
   0.5000000000000000    0.3574105919481489    0.7071720200577198 T T T Au
   0.5000000000000000    0.8574105919481489    0.6357434486291483 T T T Au
   0.5000000000000000    0.1425894080518510    0.6261613132756135 T T T Au
   0.5000000000000000    0.6425894080518509    0.6975898847041849 T T T Au
