Ca8 Ni16 Ge16
1.0
   4.1000048803616291    0.0000000000000000   -4.1000048803616282
  -0.0000000000000028   10.0351019847696552   -8.2000097607232600
   0.0000000000000000    0.0000000000000000   41.0000488036162949
Ca Ni Ge Ca Ni Ge Ca Ni Ge Ca Ni Ge
2 4 4 2 4 4 2 4 4 2 4 4
Selective dynamics
direct
   0.0000000000000000    0.0000000000000000    0.3500000000000000 T T T Ca
   0.5000000000000000    0.5000000000000000    0.3500000000000000 T T T Ca
   0.5000000000000000    0.2500000000000001    0.3500000000000000 T T T Ni
   0.0000000000000000    0.2500000000000000    0.3500000000000000 T T T Ni
   0.0000000000000000    0.7500000000000000    0.3500000000000000 T T T Ni
   0.5000000000000000    0.7500000000000000    0.3500000000000000 T T T Ni
   0.0000000000000000    0.3679602536961256    0.3235920507392251 T T T Ge
   0.5000000000000000    0.1320397463038746    0.3764079492607749 T T T Ge
   0.5000000000000000    0.8679602536961256    0.3235920507392251 T T T Ge
   0.0000000000000000    0.6320397463038745    0.3764079492607749 T T T Ge
   0.0000000000000000    0.0000000000000000    0.4500000000000000 F F F Ca
   0.5000000000000000    0.5000000000000000    0.4500000000000000 F F F Ca
   0.5000000000000000    0.2500000000000001    0.4500000000000000 F F F Ni
   0.0000000000000000    0.2500000000000000    0.4500000000000000 F F F Ni
   0.0000000000000000    0.7500000000000000    0.4500000000000000 F F F Ni
   0.5000000000000000    0.7500000000000000    0.4500000000000000 F F F Ni
   0.0000000000000000    0.3679602536961256    0.4235920507392251 T T T Ge
   0.5000000000000000    0.1320397463038746    0.4764079492607749 F F F Ge
   0.5000000000000000    0.8679602536961256    0.4235920507392251 T T T Ge
   0.0000000000000000    0.6320397463038745    0.4764079492607749 F F F Ge
   0.0000000000000000    0.0000000000000000    0.5500000000000000 F F F Ca
   0.5000000000000000    0.5000000000000000    0.5500000000000000 F F F Ca
   0.5000000000000000    0.2500000000000001    0.5500000000000000 F F F Ni
   0.0000000000000000    0.2500000000000000    0.5500000000000000 F F F Ni
   0.0000000000000000    0.7500000000000000    0.5500000000000000 F F F Ni
   0.5000000000000000    0.7500000000000000    0.5500000000000000 F F F Ni
   0.0000000000000000    0.3679602536961256    0.5235920507392251 F F F Ge
   0.5000000000000000    0.1320397463038746    0.5764079492607750 T T T Ge
   0.5000000000000000    0.8679602536961256    0.5235920507392251 F F F Ge
   0.0000000000000000    0.6320397463038745    0.5764079492607750 T T T Ge
   0.0000000000000000    0.0000000000000000    0.6499999999999999 T T T Ca
   0.5000000000000000    0.5000000000000000    0.6499999999999999 T T T Ca
   0.5000000000000000    0.2500000000000001    0.6499999999999999 T T T Ni
   0.0000000000000000    0.2500000000000000    0.6499999999999999 T T T Ni
   0.0000000000000000    0.7500000000000000    0.6499999999999999 T T T Ni
   0.5000000000000000    0.7500000000000000    0.6499999999999999 T T T Ni
   0.0000000000000000    0.3679602536961256    0.6235920507392251 T T T Ge
   0.5000000000000000    0.1320397463038746    0.6764079492607749 T T T Ge
   0.5000000000000000    0.8679602536961256    0.6235920507392251 T T T Ge
   0.0000000000000000    0.6320397463038745    0.6764079492607749 T T T Ge
