Zr48 Co8 Bi16
1.0
  13.7616385818018738    0.0000000000000000    0.0000000000000008
   0.0000000000000013    7.9452857396936514   -3.6567746504053456
   0.0000000000000000    0.0000000000000000   32.9109718536480997
Zr Co Bi Zr Co Bi Zr Co Bi Zr Co Bi
12 2 4 12 2 4 12 2 4 12 2 4
Selective dynamics
direct
   0.5000000000000001    0.2646537634652831    0.3226158502615746 T T T Zr
   0.0000000000000000    0.7646537634652830    0.3781714058171302 T T T Zr
   0.3823268817326416    0.6176731182673586    0.3618402230173608 T T T Zr
   0.8823268817326415    0.1176731182673585    0.3062846674618053 T T T Zr
   0.1176731182673585    0.1176731182673585    0.3062846674618053 T T T Zr
   0.6176731182673585    0.6176731182673585    0.3618402230173608 T T T Zr
   0.5000000000000000    0.8928862148993701    0.3368639004209176 T T T Zr
   0.0000000000000000    0.3928862148993701    0.2813083448653621 T T T Zr
   0.1964431074496850    0.8035568925503149    0.3269384201599115 T T T Zr
   0.6964431074496851    0.3035568925503150    0.3824939757154671 F F F Zr
   0.3035568925503150    0.3035568925503150    0.3824939757154671 F F F Zr
   0.8035568925503149    0.8035568925503149    0.3269384201599115 T T T Zr
   0.5000000000000000    0.5000000000000000    0.2932098765432098 T T T Co
   0.0000000000000000    0.0000000000000000    0.3487654320987654 T T T Co
   0.1666666666666667    0.4999999999999999    0.3487654320987654 T T T Bi
   0.6666666666666667    0.0000000000000000    0.2932098765432098 T T T Bi
   0.3333333333333334    0.0000000000000000    0.2932098765432098 T T T Bi
   0.8333333333333334    0.5000000000000000    0.3487654320987654 T T T Bi
   0.5000000000000001    0.2646537634652831    0.4337269613726857 F F F Zr
   0.0000000000000000    0.7646537634652830    0.4892825169282413 F F F Zr
   0.3823268817326416    0.6176731182673586    0.4729513341284719 F F F Zr
   0.8823268817326415    0.1176731182673585    0.4173957785729163 F F F Zr
   0.1176731182673585    0.1176731182673585    0.4173957785729163 F F F Zr
   0.6176731182673585    0.6176731182673585    0.4729513341284719 F F F Zr
   0.5000000000000000    0.8928862148993701    0.4479750115320288 F F F Zr
   0.0000000000000000    0.3928862148993701    0.3924194559764732 F F F Zr
   0.1964431074496850    0.8035568925503149    0.4380495312710226 F F F Zr
   0.6964431074496851    0.3035568925503150    0.4936050868265782 F F F Zr
   0.3035568925503150    0.3035568925503150    0.4936050868265782 F F F Zr
   0.8035568925503149    0.8035568925503149    0.4380495312710226 F F F Zr
   0.5000000000000000    0.5000000000000000    0.4043209876543210 F F F Co
   0.0000000000000000    0.0000000000000000    0.4598765432098765 F F F Co
   0.1666666666666667    0.4999999999999999    0.4598765432098765 F F F Bi
   0.6666666666666667    0.0000000000000000    0.4043209876543210 F F F Bi
   0.3333333333333334    0.0000000000000000    0.4043209876543210 F F F Bi
   0.8333333333333334    0.5000000000000000    0.4598765432098765 F F F Bi
   0.5000000000000001    0.2646537634652831    0.5448380724837969 F F F Zr
   0.0000000000000000    0.7646537634652830    0.6003936280393525 F F F Zr
   0.3823268817326416    0.6176731182673586    0.5840624452395831 F F F Zr
   0.8823268817326415    0.1176731182673585    0.5285068896840275 F F F Zr
   0.1176731182673585    0.1176731182673585    0.5285068896840275 F F F Zr
   0.6176731182673585    0.6176731182673585    0.5840624452395831 F F F Zr
   0.5000000000000000    0.8928862148993701    0.5590861226431398 F F F Zr
   0.0000000000000000    0.3928862148993701    0.5035305670875843 F F F Zr
   0.1964431074496850    0.8035568925503149    0.5491606423821338 F F F Zr
   0.6964431074496851    0.3035568925503150    0.6047161979376893 F F F Zr
   0.3035568925503150    0.3035568925503150    0.6047161979376893 F F F Zr
   0.8035568925503149    0.8035568925503149    0.5491606423821338 F F F Zr
   0.5000000000000000    0.5000000000000000    0.5154320987654321 F F F Co
   0.0000000000000000    0.0000000000000000    0.5709876543209876 F F F Co
   0.1666666666666667    0.4999999999999999    0.5709876543209876 F F F Bi
   0.6666666666666667    0.0000000000000000    0.5154320987654321 F F F Bi
   0.3333333333333334    0.0000000000000000    0.5154320987654321 F F F Bi
   0.8333333333333334    0.5000000000000000    0.5709876543209876 F F F Bi
   0.5000000000000001    0.2646537634652831    0.6559491835949079 T T T Zr
   0.0000000000000000    0.7646537634652830    0.7115047391504635 T T T Zr
   0.3823268817326416    0.6176731182673586    0.6951735563506941 T T T Zr
   0.8823268817326415    0.1176731182673585    0.6396180007951386 T T T Zr
   0.1176731182673585    0.1176731182673585    0.6396180007951386 T T T Zr
   0.6176731182673585    0.6176731182673585    0.6951735563506941 T T T Zr
   0.5000000000000000    0.8928862148993701    0.6701972337542510 T T T Zr
   0.0000000000000000    0.3928862148993701    0.6146416781986954 F F F Zr
   0.1964431074496850    0.8035568925503149    0.6602717534932449 T T T Zr
   0.6964431074496851    0.3035568925503150    0.7158273090488003 T T T Zr
   0.3035568925503150    0.3035568925503150    0.7158273090488003 T T T Zr
   0.8035568925503149    0.8035568925503149    0.6602717534932449 T T T Zr
   0.5000000000000000    0.5000000000000000    0.6265432098765431 T T T Co
   0.0000000000000000    0.0000000000000000    0.6820987654320987 T T T Co
   0.1666666666666667    0.4999999999999999    0.6820987654320987 T T T Bi
   0.6666666666666667    0.0000000000000000    0.6265432098765431 T T T Bi
   0.3333333333333334    0.0000000000000000    0.6265432098765431 T T T Bi
   0.8333333333333334    0.5000000000000000    0.6820987654320987 T T T Bi
