Zr24 Co4 Bi8
1.0
   3.6567746504053442    0.0000000000000000    0.0000000000000002
   0.0000000000000022   13.7616385818018720  -15.8905714793873045
   0.0000000000000000    0.0000000000000000   39.7264286984682542
Zr Co Bi Zr Co Bi
12 2 4 12 2 4
Selective dynamics
direct
   0.5000000000000000    0.5000000000000000    0.3140418638041677 T T T Zr
   0.5000000000000000    0.0000000000000000    0.4140418638041677 T T T Zr
   0.5000000000000000    0.3823268817326415    0.3375764874576394 T T T Zr
   0.5000000000000000    0.8823268817326415    0.4375764874576394 F F F Zr
   0.5000000000000000    0.1176731182673584    0.3317149820715263 T T T Zr
   0.5000000000000000    0.6176731182673585    0.4317149820715263 F F F Zr
   0.0000000000000000    0.5000000000000000    0.4396883540909852 F F F Zr
   0.0000000000000000    0.0000000000000000    0.3396883540909852 T T T Zr
   0.0000000000000000    0.1964431074496850    0.5003997326010481 F F F Zr
   0.0000000000000000    0.6964431074496851    0.4003997326010482 T T T Zr
   0.0000000000000000    0.3035568925503149    0.4432452466413001 F F F Zr
   0.0000000000000000    0.8035568925503149    0.3432452466413001 T T T Zr
   0.0000000000000000    0.5000000000000000    0.3611111111111111 T T T Co
   0.0000000000000000    0.0000000000000000    0.4611111111111111 F F F Co
   0.5000000000000000    0.1666666666666667    0.4277777777777778 T T T Bi
   0.5000000000000000    0.6666666666666666    0.3277777777777778 T T T Bi
   0.5000000000000000    0.3333333333333333    0.3944444444444445 T T T Bi
   0.5000000000000000    0.8333333333333333    0.4944444444444445 F F F Bi
   0.5000000000000000    0.5000000000000000    0.5140418638041677 F F F Zr
   0.5000000000000000    0.0000000000000000    0.6140418638041678 T T T Zr
   0.5000000000000000    0.3823268817326415    0.5375764874576394 F F F Zr
   0.5000000000000000    0.8823268817326415    0.6375764874576395 T T T Zr
   0.5000000000000000    0.1176731182673584    0.5317149820715262 F F F Zr
   0.5000000000000000    0.6176731182673585    0.6317149820715263 T T T Zr
   0.0000000000000000    0.5000000000000000    0.6396883540909852 T T T Zr
   0.0000000000000000    0.0000000000000000    0.5396883540909851 F F F Zr
   0.0000000000000000    0.1964431074496850    0.7003997326010482 T T T Zr
   0.0000000000000000    0.6964431074496851    0.6003997326010482 T T T Zr
   0.0000000000000000    0.3035568925503149    0.6432452466413001 T T T Zr
   0.0000000000000000    0.8035568925503149    0.5432452466413001 F F F Zr
   0.0000000000000000    0.5000000000000000    0.5611111111111111 F F F Co
   0.0000000000000000    0.0000000000000000    0.6611111111111112 T T T Co
   0.5000000000000000    0.1666666666666667    0.6277777777777778 T T T Bi
   0.5000000000000000    0.6666666666666666    0.5277777777777778 F F F Bi
   0.5000000000000000    0.3333333333333333    0.5944444444444446 T T T Bi
   0.5000000000000000    0.8333333333333333    0.6944444444444445 T T T Bi
