Zr24 Co4 Bi8
1.0
   7.9452857396936523    0.0000000000000000    0.0000000000000005
   3.9726428698468208    6.8808192909009396    7.3135493008106884
   0.0000000000000000    0.0000000000000000   36.5677465040534457
Zr Co Bi Zr Co Bi Zr Co Bi Zr Co Bi
6 1 2 6 1 2 6 1 2 6 1 2
Selective dynamics
direct
   0.0000000000000000    0.7646537634652830    0.3637359139736101 T T T Zr
   0.2353462365347170    0.0000000000000000    0.3166666666666667 T T T Zr
   0.7646537634652830    0.2353462365347172    0.3695974193597232 T T T Zr
   0.0000000000000000    0.3928862148993701    0.2880894236867927 T T T Zr
   0.6071137851006299    0.0000000000000001    0.3666666666666667 T T T Zr
   0.3928862148993701    0.6071137851006300    0.3452439096465407 T T T Zr
   0.0000000000000000    0.0000000000000000    0.3666666666666667 T T T Co
   0.6666666666666666    0.6666666666666667    0.3833333333333334 T T T Bi
   0.3333333333333334    0.3333333333333335    0.3500000000000000 T T T Bi
   0.0000000000000000    0.7646537634652830    0.4637359139736101 F F F Zr
   0.2353462365347170    0.0000000000000000    0.4166666666666667 F F F Zr
   0.7646537634652830    0.2353462365347172    0.4695974193597233 F F F Zr
   0.0000000000000000    0.3928862148993701    0.3880894236867927 T T T Zr
   0.6071137851006299    0.0000000000000001    0.4666666666666667 F F F Zr
   0.3928862148993701    0.6071137851006300    0.4452439096465407 F F F Zr
   0.0000000000000000    0.0000000000000000    0.4666666666666667 F F F Co
   0.6666666666666666    0.6666666666666667    0.4833333333333333 F F F Bi
   0.3333333333333334    0.3333333333333335    0.4500000000000000 F F F Bi
   0.0000000000000000    0.7646537634652830    0.5637359139736101 T T T Zr
   0.2353462365347170    0.0000000000000000    0.5166666666666667 F F F Zr
   0.7646537634652830    0.2353462365347172    0.5695974193597233 T T T Zr
   0.0000000000000000    0.3928862148993701    0.4880894236867926 F F F Zr
   0.6071137851006299    0.0000000000000001    0.5666666666666667 T T T Zr
   0.3928862148993701    0.6071137851006300    0.5452439096465407 F F F Zr
   0.0000000000000000    0.0000000000000000    0.5666666666666667 T T T Co
   0.6666666666666666    0.6666666666666667    0.5833333333333334 T T T Bi
   0.3333333333333334    0.3333333333333335    0.5500000000000000 F F F Bi
   0.0000000000000000    0.7646537634652830    0.6637359139736101 T T T Zr
   0.2353462365347170    0.0000000000000000    0.6166666666666667 T T T Zr
   0.7646537634652830    0.2353462365347172    0.6695974193597233 T T T Zr
   0.0000000000000000    0.3928862148993701    0.5880894236867926 T T T Zr
   0.6071137851006299    0.0000000000000001    0.6666666666666667 T T T Zr
   0.3928862148993701    0.6071137851006300    0.6452439096465408 T T T Zr
   0.0000000000000000    0.0000000000000000    0.6666666666666667 T T T Co
   0.6666666666666666    0.6666666666666667    0.6833333333333333 T T T Bi
   0.3333333333333334    0.3333333333333335    0.6500000000000000 T T T Bi
