Zr42 Co7 As14
1.0
  13.0460333869293361    0.0000000000000000    0.0000000000000008
   6.5230166934646672    3.7660654439002554    7.1280914691024089
   0.0000000000000000    0.0000000000000000   60.5887774873704927
Zr Co As Zr Co As Zr Co As Zr Co As Zr Co As Zr Co As Zr Co As
6 1 2 6 1 2 6 1 2 6 1 2 6 1 2 6 1 2 6 1 2
Selective dynamics
direct
   0.0000000000000000    0.7527486109605377    0.3068661764883027 T T T Zr
   0.7527486109605377    0.4945027780789246    0.3372480391802571 T T T Zr
   0.2472513890394623    0.7527486109605377    0.3068661764883027 T T T Zr
   0.5860545858354129    0.4139454141645871    0.3173136114054733 T T T Zr
   0.4139454141645871    0.1721091716708258    0.3457649340517982 T T T Zr
   0.0000000000000000    0.4139454141645871    0.3173136114054733 T T T Zr
   0.0000000000000000    0.0000000000000000    0.3071895424836600 T T T Co
   0.6666666666666666    0.0000000000000000    0.3366013071895424 T T T As
   0.3333333333333333    0.0000000000000000    0.3366013071895424 T T T As
   0.0000000000000000    0.7527486109605377    0.3656897059000674 T T T Zr
   0.7527486109605377    0.4945027780789246    0.3960715685920219 T T T Zr
   0.2472513890394623    0.7527486109605377    0.3656897059000674 T T T Zr
   0.5860545858354129    0.4139454141645871    0.3761371408172380 T T T Zr
   0.4139454141645871    0.1721091716708258    0.4045884634635629 T T T Zr
   0.0000000000000000    0.4139454141645871    0.3761371408172380 T T T Zr
   0.0000000000000000    0.0000000000000000    0.3660130718954248 T T T Co
   0.6666666666666666    0.0000000000000000    0.3954248366013071 T T T As
   0.3333333333333333    0.0000000000000000    0.3954248366013071 T T T As
   0.0000000000000000    0.7527486109605377    0.4245132353118320 F F F Zr
   0.7527486109605377    0.4945027780789246    0.4548950980037866 F F F Zr
   0.2472513890394623    0.7527486109605377    0.4245132353118320 F F F Zr
   0.5860545858354129    0.4139454141645871    0.4349606702290028 F F F Zr
   0.4139454141645871    0.1721091716708258    0.4634119928753276 F F F Zr
   0.0000000000000000    0.4139454141645871    0.4349606702290028 F F F Zr
   0.0000000000000000    0.0000000000000000    0.4248366013071895 F F F Co
   0.6666666666666666    0.0000000000000000    0.4542483660130718 F F F As
   0.3333333333333333    0.0000000000000000    0.4542483660130718 F F F As
   0.0000000000000000    0.7527486109605377    0.4833367647235968 F F F Zr
   0.7527486109605377    0.4945027780789246    0.5137186274155513 F F F Zr
   0.2472513890394623    0.7527486109605377    0.4833367647235968 F F F Zr
   0.5860545858354129    0.4139454141645871    0.4937841996407675 F F F Zr
   0.4139454141645871    0.1721091716708258    0.5222355222870922 F F F Zr
   0.0000000000000000    0.4139454141645871    0.4937841996407675 F F F Zr
   0.0000000000000000    0.0000000000000000    0.4836601307189542 F F F Co
   0.6666666666666666    0.0000000000000000    0.5130718954248366 F F F As
   0.3333333333333333    0.0000000000000000    0.5130718954248366 F F F As
   0.0000000000000000    0.7527486109605377    0.5421602941353615 F F F Zr
   0.7527486109605377    0.4945027780789246    0.5725421568273159 F F F Zr
   0.2472513890394623    0.7527486109605377    0.5421602941353615 F F F Zr
   0.5860545858354129    0.4139454141645871    0.5526077290525322 F F F Zr
   0.4139454141645871    0.1721091716708258    0.5810590516988570 F F F Zr
   0.0000000000000000    0.4139454141645871    0.5526077290525322 F F F Zr
   0.0000000000000000    0.0000000000000000    0.5424836601307188 F F F Co
   0.6666666666666666    0.0000000000000000    0.5718954248366013 F F F As
   0.3333333333333333    0.0000000000000000    0.5718954248366013 F F F As
   0.0000000000000000    0.7527486109605377    0.6009838235471262 T T T Zr
   0.7527486109605377    0.4945027780789246    0.6313656862390806 T T T Zr
   0.2472513890394623    0.7527486109605377    0.6009838235471262 T T T Zr
   0.5860545858354129    0.4139454141645871    0.6114312584642969 T T T Zr
   0.4139454141645871    0.1721091716708258    0.6398825811106217 T T T Zr
   0.0000000000000000    0.4139454141645871    0.6114312584642969 T T T Zr
   0.0000000000000000    0.0000000000000000    0.6013071895424835 T T T Co
   0.6666666666666666    0.0000000000000000    0.6307189542483660 T T T As
   0.3333333333333333    0.0000000000000000    0.6307189542483660 T T T As
   0.0000000000000000    0.7527486109605377    0.6598073529588909 T T T Zr
   0.7527486109605377    0.4945027780789246    0.6901892156508453 T T T Zr
   0.2472513890394623    0.7527486109605377    0.6598073529588909 T T T Zr
   0.5860545858354129    0.4139454141645871    0.6702547878760616 T T T Zr
   0.4139454141645871    0.1721091716708258    0.6987061105223864 T T T Zr
   0.0000000000000000    0.4139454141645871    0.6702547878760616 T T T Zr
   0.0000000000000000    0.0000000000000000    0.6601307189542482 T T T Co
   0.6666666666666666    0.0000000000000000    0.6895424836601307 T T T As
   0.3333333333333333    0.0000000000000000    0.6895424836601307 T T T As
