Ge40 Os20
1.0
   9.0983608832366016    0.0000000000000000   -3.1322736572629255
  14.4118732035082857    6.7731668196416406    0.0000000000000010
   0.0000000000000000    0.0000000000000000   37.5872838871551096
Ge Os Ge Os Ge Os Ge Os Ge Os
8 4 8 4 8 4 8 4 8 4
Selective dynamics
direct
   0.0794207863196251    0.5322347397786059    0.2982850655266354 T T T Ge
   0.9205792136803748    0.4677652602213940    0.3683816011400312 T T T Ge
   0.6772032312108811    0.1108611185285946    0.3064336026009067 T T T Ge
   0.3227967687891189    0.8891388814714054    0.3602330640657599 T T T Ge
   0.5794207863196251    0.5322347397786059    0.2982850655266354 T T T Ge
   0.4205792136803747    0.4677652602213941    0.3683816011400312 T T T Ge
   0.1772032312108809    0.1108611185285946    0.3064336026009067 T T T Ge
   0.8227967687891190    0.8891388814714053    0.3602330640657599 T T T Ge
   0.7473832753765552    0.7992100958823144    0.3122819396147129 T T T Os
   0.2526167246234448    0.2007899041176855    0.3543847270519537 T T T Os
   0.2473832753765552    0.7992100958823144    0.3122819396147129 T T T Os
   0.7526167246234448    0.2007899041176855    0.3543847270519537 T T T Os
   0.0794207863196251    0.5322347397786059    0.3816183988599687 T T T Ge
   0.9205792136803748    0.4677652602213940    0.4517149344733645 F F F Ge
   0.6772032312108811    0.1108611185285946    0.3897669359342401 T T T Ge
   0.3227967687891189    0.8891388814714054    0.4435663973990932 F F F Ge
   0.5794207863196251    0.5322347397786059    0.3816183988599687 T T T Ge
   0.4205792136803747    0.4677652602213941    0.4517149344733645 F F F Ge
   0.1772032312108809    0.1108611185285946    0.3897669359342401 T T T Ge
   0.8227967687891190    0.8891388814714053    0.4435663973990932 F F F Ge
   0.7473832753765552    0.7992100958823144    0.3956152729480462 T T T Os
   0.2526167246234448    0.2007899041176855    0.4377180603852870 F F F Os
   0.2473832753765552    0.7992100958823144    0.3956152729480462 T T T Os
   0.7526167246234448    0.2007899041176855    0.4377180603852870 F F F Os
   0.0794207863196251    0.5322347397786059    0.4649517321933020 F F F Ge
   0.9205792136803748    0.4677652602213940    0.5350482678066979 F F F Ge
   0.6772032312108811    0.1108611185285946    0.4731002692675734 F F F Ge
   0.3227967687891189    0.8891388814714054    0.5268997307324266 F F F Ge
   0.5794207863196251    0.5322347397786059    0.4649517321933020 F F F Ge
   0.4205792136803747    0.4677652602213941    0.5350482678066979 F F F Ge
   0.1772032312108809    0.1108611185285946    0.4731002692675734 F F F Ge
   0.8227967687891190    0.8891388814714053    0.5268997307324266 F F F Ge
   0.7473832753765552    0.7992100958823144    0.4789486062813796 F F F Os
   0.2526167246234448    0.2007899041176855    0.5210513937186203 F F F Os
   0.2473832753765552    0.7992100958823144    0.4789486062813796 F F F Os
   0.7526167246234448    0.2007899041176855    0.5210513937186203 F F F Os
   0.0794207863196251    0.5322347397786059    0.5482850655266354 F F F Ge
   0.9205792136803748    0.4677652602213940    0.6183816011400312 T T T Ge
   0.6772032312108811    0.1108611185285946    0.5564336026009067 F F F Ge
   0.3227967687891189    0.8891388814714054    0.6102330640657598 T T T Ge
   0.5794207863196251    0.5322347397786059    0.5482850655266354 F F F Ge
   0.4205792136803747    0.4677652602213941    0.6183816011400312 T T T Ge
   0.1772032312108809    0.1108611185285946    0.5564336026009067 F F F Ge
   0.8227967687891190    0.8891388814714053    0.6102330640657598 T T T Ge
   0.7473832753765552    0.7992100958823144    0.5622819396147130 F F F Os
   0.2526167246234448    0.2007899041176855    0.6043847270519537 T T T Os
   0.2473832753765552    0.7992100958823144    0.5622819396147130 F F F Os
   0.7526167246234448    0.2007899041176855    0.6043847270519537 T T T Os
   0.0794207863196251    0.5322347397786059    0.6316183988599687 T T T Ge
   0.9205792136803748    0.4677652602213940    0.7017149344733645 T T T Ge
   0.6772032312108811    0.1108611185285946    0.6397669359342401 T T T Ge
   0.3227967687891189    0.8891388814714054    0.6935663973990932 T T T Ge
   0.5794207863196251    0.5322347397786059    0.6316183988599687 T T T Ge
   0.4205792136803747    0.4677652602213941    0.7017149344733645 T T T Ge
   0.1772032312108809    0.1108611185285946    0.6397669359342399 T T T Ge
   0.8227967687891190    0.8891388814714053    0.6935663973990932 T T T Ge
   0.7473832753765552    0.7992100958823144    0.6456152729480462 T T T Os
   0.2526167246234448    0.2007899041176855    0.6877180603852870 T T T Os
   0.2473832753765552    0.7992100958823144    0.6456152729480462 T T T Os
   0.7526167246234448    0.2007899041176855    0.6877180603852870 T T T Os
