Mn6 Al12 Te24
1.0
   5.9863128854169743    0.0000000000000000   -5.9863128854169734
  -0.0000000000000120   12.6250023848111930  -11.9726257708339539
   0.0000000000000000    0.0000000000000000   47.8905030833357870
Mn Al Te Mn Al Te Mn Al Te
2 4 8 2 4 8 2 4 8
Selective dynamics
direct
   0.0000000000000000    0.0000000000000000    0.3214285714285714 T T T Mn
   0.4999999999999999    0.4999999999999998    0.3214285714285714 T T T Mn
   0.4999999999999999    0.2499999999999999    0.3214285714285714 T T T Al
   0.0000000000000000    0.2499999999999999    0.3214285714285714 T T T Al
   0.0000000000000000    0.7499999999999998    0.3214285714285714 T T T Al
   0.4999999999999999    0.7499999999999998    0.3214285714285714 T T T Al
   0.2666410629591199    0.1217218976679604    0.4185193115853414 T T T Te
   0.7333589370408802    0.1217218976679603    0.4101987801057816 T T T Te
   0.2333589370408801    0.3782781023320395    0.4159980970115813 T T T Te
   0.7666410629591197    0.3782781023320395    0.4159980970115813 T T T Te
   0.7666410629591197    0.6217218976679602    0.4185193115853414 T T T Te
   0.2333589370408801    0.6217218976679603    0.4101987801057815 T T T Te
   0.7333589370408802    0.8782781023320394    0.4159980970115813 T T T Te
   0.2666410629591198    0.8782781023320395    0.4159980970115813 T T T Te
   0.0000000000000000    0.0000000000000000    0.4464285714285714 F F F Mn
   0.4999999999999999    0.4999999999999998    0.4464285714285714 F F F Mn
   0.4999999999999999    0.2499999999999999    0.4464285714285714 F F F Al
   0.0000000000000000    0.2499999999999999    0.4464285714285714 F F F Al
   0.0000000000000000    0.7499999999999998    0.4464285714285714 F F F Al
   0.4999999999999999    0.7499999999999998    0.4464285714285714 F F F Al
   0.2666410629591199    0.1217218976679604    0.5435193115853414 F F F Te
   0.7333589370408802    0.1217218976679603    0.5351987801057816 F F F Te
   0.2333589370408801    0.3782781023320395    0.5409980970115813 F F F Te
   0.7666410629591197    0.3782781023320395    0.5409980970115813 F F F Te
   0.7666410629591197    0.6217218976679602    0.5435193115853414 F F F Te
   0.2333589370408801    0.6217218976679603    0.5351987801057816 F F F Te
   0.7333589370408802    0.8782781023320394    0.5409980970115813 F F F Te
   0.2666410629591198    0.8782781023320395    0.5409980970115813 F F F Te
   0.0000000000000000    0.0000000000000000    0.5714285714285714 T T T Mn
   0.4999999999999999    0.4999999999999998    0.5714285714285714 T T T Mn
   0.4999999999999999    0.2499999999999999    0.5714285714285714 T T T Al
   0.0000000000000000    0.2499999999999999    0.5714285714285714 T T T Al
   0.0000000000000000    0.7499999999999998    0.5714285714285714 T T T Al
   0.4999999999999999    0.7499999999999998    0.5714285714285714 T T T Al
   0.2666410629591199    0.1217218976679604    0.6685193115853414 T T T Te
   0.7333589370408802    0.1217218976679603    0.6601987801057816 T T T Te
   0.2333589370408801    0.3782781023320395    0.6659980970115813 T T T Te
   0.7666410629591197    0.3782781023320395    0.6659980970115813 T T T Te
   0.7666410629591197    0.6217218976679602    0.6685193115853414 T T T Te
   0.2333589370408801    0.6217218976679603    0.6601987801057816 T T T Te
   0.7333589370408802    0.8782781023320394    0.6659980970115813 T T T Te
   0.2666410629591198    0.8782781023320395    0.6659980970115813 T T T Te
