Cs6 Fe12 As12
1.0
   3.7853218463660161    0.0000000000000000    0.0000000000000002
   0.0000000000000025   15.5035667241625390   -3.7853218463660143
   0.0000000000000000    0.0000000000000000   30.2825747709281288
Cs Fe As Cs Fe As Cs Fe As
2 4 4 2 4 4 2 4 4
Selective dynamics
direct
   0.0000000000000000    0.0000000000000000    0.4250000000000000 T T T Cs
   0.5000000000000000    0.4999999999999999    0.4250000000000000 T T T Cs
   0.5000000000000000    0.2500000000000000    0.3312500000000000 T T T Fe
   0.0000000000000000    0.2499999999999999    0.3937500000000000 T T T Fe
   0.0000000000000000    0.7499999999999999    0.3312500000000000 T T T Fe
   0.5000000000000000    0.7499999999999999    0.3937500000000000 T T T Fe
   0.5000000000000000    0.1608509220441635    0.3826063652555204 T T T As
   0.0000000000000000    0.3391490779558364    0.3423936347444795 T T T As
   0.0000000000000000    0.6608509220441635    0.3826063652555204 T T T As
   0.5000000000000000    0.8391490779558363    0.3423936347444795 T T T As
   0.0000000000000000    0.0000000000000000    0.5500000000000000 F F F Cs
   0.5000000000000000    0.4999999999999999    0.5500000000000000 F F F Cs
   0.5000000000000000    0.2500000000000000    0.4562500000000000 F F F Fe
   0.0000000000000000    0.2499999999999999    0.5187500000000000 F F F Fe
   0.0000000000000000    0.7499999999999999    0.4562500000000000 F F F Fe
   0.5000000000000000    0.7499999999999999    0.5187500000000000 F F F Fe
   0.5000000000000000    0.1608509220441635    0.5076063652555205 F F F As
   0.0000000000000000    0.3391490779558364    0.4673936347444795 F F F As
   0.0000000000000000    0.6608509220441635    0.5076063652555205 F F F As
   0.5000000000000000    0.8391490779558363    0.4673936347444795 F F F As
   0.0000000000000000    0.0000000000000000    0.6750000000000000 T T T Cs
   0.5000000000000000    0.4999999999999999    0.6750000000000000 T T T Cs
   0.5000000000000000    0.2500000000000000    0.5812500000000000 T T T Fe
   0.0000000000000000    0.2499999999999999    0.6437500000000000 T T T Fe
   0.0000000000000000    0.7499999999999999    0.5812500000000000 T T T Fe
   0.5000000000000000    0.7499999999999999    0.6437500000000000 T T T Fe
   0.5000000000000000    0.1608509220441635    0.6326063652555205 T T T As
   0.0000000000000000    0.3391490779558364    0.5923936347444796 T T T As
   0.0000000000000000    0.6608509220441635    0.6326063652555205 T T T As
   0.5000000000000000    0.8391490779558363    0.5923936347444796 T T T As
