Ca12 Cu24 Si24
1.0
   4.0774932335879583    0.0000000000000000    0.0000000000000002
   0.0000000000000032   19.7848044343762304   -4.0774932335879583
   0.0000000000000000    0.0000000000000000   28.5424526351157084
Ca Cu Si Ca Cu Si Ca Cu Si
4 8 8 4 8 8 4 8 8
Selective dynamics
direct
   0.0000000000000000    0.0000000000000000    0.4250000000000000 F F F Ca
   0.0000000000000000    0.5000000000000000    0.3535714285714285 T T T Ca
   0.5000000000000000    0.2500000000000000    0.3892857142857143 T T T Ca
   0.5000000000000000    0.7500000000000001    0.3178571428571428 T T T Ca
   0.5000000000000000    0.1250000000000000    0.3000000000000000 T T T Cu
   0.5000000000000000    0.6250000000000000    0.3714285714285714 T T T Cu
   0.0000000000000000    0.1250000000000000    0.3714285714285714 T T T Cu
   0.0000000000000000    0.6250000000000000    0.3000000000000000 T T T Cu
   0.0000000000000000    0.3750000000000001    0.4071428571428571 F F F Cu
   0.0000000000000000    0.8750000000000000    0.3357142857142857 T T T Cu
   0.5000000000000000    0.3750000000000000    0.3357142857142857 T T T Cu
   0.5000000000000000    0.8750000000000000    0.4071428571428571 F F F Cu
   0.5000000000000000    0.0599552536923369    0.3621364648131910 T T T Si
   0.5000000000000000    0.5599552536923370    0.2907078933846196 T T T Si
   0.0000000000000000    0.1900447463076631    0.3092921066153804 T T T Si
   0.0000000000000000    0.6900447463076631    0.3807206780439519 T T T Si
   0.0000000000000000    0.3099552536923369    0.3264221790989053 T T T Si
   0.0000000000000000    0.8099552536923369    0.3978507505274767 T T T Si
   0.5000000000000000    0.4400447463076632    0.4164349637582376 F F F Si
   0.5000000000000000    0.9400447463076632    0.3450063923296662 T T T Si
   0.0000000000000000    0.0000000000000000    0.5678571428571428 F F F Ca
   0.0000000000000000    0.5000000000000000    0.4964285714285714 F F F Ca
   0.5000000000000000    0.2500000000000000    0.5321428571428571 F F F Ca
   0.5000000000000000    0.7500000000000001    0.4607142857142857 F F F Ca
   0.5000000000000000    0.1250000000000000    0.4428571428571428 F F F Cu
   0.5000000000000000    0.6250000000000000    0.5142857142857142 F F F Cu
   0.0000000000000000    0.1250000000000000    0.5142857142857142 F F F Cu
   0.0000000000000000    0.6250000000000000    0.4428571428571428 F F F Cu
   0.0000000000000000    0.3750000000000001    0.5500000000000000 F F F Cu
   0.0000000000000000    0.8750000000000000    0.4785714285714285 F F F Cu
   0.5000000000000000    0.3750000000000000    0.4785714285714285 F F F Cu
   0.5000000000000000    0.8750000000000000    0.5500000000000000 F F F Cu
   0.5000000000000000    0.0599552536923369    0.5049936076703339 F F F Si
   0.5000000000000000    0.5599552536923370    0.4335650362417624 F F F Si
   0.0000000000000000    0.1900447463076631    0.4521492494725233 F F F Si
   0.0000000000000000    0.6900447463076631    0.5235778209010947 F F F Si
   0.0000000000000000    0.3099552536923369    0.4692793219560481 F F F Si
   0.0000000000000000    0.8099552536923369    0.5407078933846196 F F F Si
   0.5000000000000000    0.4400447463076632    0.5592921066153804 F F F Si
   0.5000000000000000    0.9400447463076632    0.4878635351868090 F F F Si
   0.0000000000000000    0.0000000000000000    0.7107142857142856 T T T Ca
   0.0000000000000000    0.5000000000000000    0.6392857142857142 T T T Ca
   0.5000000000000000    0.2500000000000000    0.6750000000000000 T T T Ca
   0.5000000000000000    0.7500000000000001    0.6035714285714285 T T T Ca
   0.5000000000000000    0.1250000000000000    0.5857142857142856 F F F Cu
   0.5000000000000000    0.6250000000000000    0.6571428571428571 T T T Cu
   0.0000000000000000    0.1250000000000000    0.6571428571428571 T T T Cu
   0.0000000000000000    0.6250000000000000    0.5857142857142856 F F F Cu
   0.0000000000000000    0.3750000000000001    0.6928571428571428 T T T Cu
   0.0000000000000000    0.8750000000000000    0.6214285714285714 T T T Cu
   0.5000000000000000    0.3750000000000000    0.6214285714285714 T T T Cu
   0.5000000000000000    0.8750000000000000    0.6928571428571428 T T T Cu
   0.5000000000000000    0.0599552536923369    0.6478507505274766 T T T Si
   0.5000000000000000    0.5599552536923370    0.5764221790989053 F F F Si
   0.0000000000000000    0.1900447463076631    0.5950063923296661 F F F Si
   0.0000000000000000    0.6900447463076631    0.6664349637582376 T T T Si
   0.0000000000000000    0.3099552536923369    0.6121364648131910 T T T Si
   0.0000000000000000    0.8099552536923369    0.6835650362417625 T T T Si
   0.5000000000000000    0.4400447463076632    0.7021492494725232 T T T Si
   0.5000000000000000    0.9400447463076632    0.6307206780439518 T T T Si
