Na32 As16 Au16
1.0
  11.4405320779906248    0.0000000000000000    0.0000000000000007
   8.9230515193067284   11.1601104772390709    5.8250106144898535
   0.0000000000000000    0.0000000000000000   29.1250530724492975
Na As Au Na As Au
16 8 8 16 8 8
Selective dynamics
direct
   0.6799077980309890    0.8332681926611034    0.4708463614677793 F F F Na
   0.6799077980309890    0.3332681926611034    0.3708463614677793 T T T Na
   0.3200922019690111    0.1667318073388966    0.5041536385322207 F F F Na
   0.3200922019690111    0.6667318073388966    0.4041536385322207 T T T Na
   0.3200922019690111    0.0131759906920922    0.4348648018615816 F F F Na
   0.3200922019690111    0.5131759906920923    0.3348648018615816 T T T Na
   0.6799077980309890    0.9868240093079077    0.3401351981384185 T T T Na
   0.6799077980309890    0.4868240093079077    0.4401351981384185 F F F Na
   0.1799077980309889    0.3332681926611034    0.3708463614677793 T T T Na
   0.1799077980309889    0.8332681926611034    0.4708463614677794 F F F Na
   0.8200922019690111    0.6667318073388966    0.4041536385322206 T T T Na
   0.8200922019690111    0.1667318073388966    0.5041536385322207 F F F Na
   0.8200922019690111    0.0131759906920924    0.4348648018615815 F F F Na
   0.8200922019690111    0.5131759906920923    0.3348648018615815 T T T Na
   0.1799077980309889    0.9868240093079077    0.3401351981384185 T T T Na
   0.1799077980309889    0.4868240093079077    0.4401351981384185 F F F Na
   0.0000000000000000    0.3950542437394482    0.4584891512521104 F F F As
   0.0000000000000000    0.8950542437394482    0.3584891512521104 T T T As
   0.0000000000000000    0.1049457562605518    0.4165108487478897 T T T As
   0.0000000000000000    0.6049457562605518    0.3165108487478897 T T T As
   0.5000000000000000    0.8950542437394482    0.3584891512521104 T T T As
   0.5000000000000000    0.3950542437394482    0.4584891512521104 F F F As
   0.5000000000000000    0.1049457562605517    0.4165108487478897 T T T As
   0.5000000000000000    0.6049457562605518    0.3165108487478897 T T T As
   0.0000000000000000    0.2500000000000000    0.3375000000000000 T T T Au
   0.0000000000000000    0.7500000000000000    0.4375000000000000 F F F Au
   0.0000000000000000    0.2500000000000000    0.4375000000000000 F F F Au
   0.0000000000000000    0.7500000000000000    0.3375000000000000 T T T Au
   0.5000000000000000    0.2500000000000000    0.3375000000000000 T T T Au
   0.5000000000000000    0.7500000000000000    0.4375000000000000 F F F Au
   0.5000000000000000    0.2500000000000000    0.4375000000000000 F F F Au
   0.5000000000000000    0.7500000000000000    0.3375000000000000 T T T Au
   0.6799077980309890    0.8332681926611034    0.6708463614677793 T T T Na
   0.6799077980309890    0.3332681926611034    0.5708463614677793 F F F Na
   0.3200922019690111    0.1667318073388966    0.7041536385322207 T T T Na
   0.3200922019690111    0.6667318073388966    0.6041536385322207 T T T Na
   0.3200922019690111    0.0131759906920922    0.6348648018615816 T T T Na
   0.3200922019690111    0.5131759906920923    0.5348648018615816 F F F Na
   0.6799077980309890    0.9868240093079077    0.5401351981384185 F F F Na
   0.6799077980309890    0.4868240093079077    0.6401351981384185 T T T Na
   0.1799077980309889    0.3332681926611034    0.5708463614677793 F F F Na
   0.1799077980309889    0.8332681926611034    0.6708463614677793 T T T Na
   0.8200922019690111    0.6667318073388966    0.6041536385322207 T T T Na
   0.8200922019690111    0.1667318073388966    0.7041536385322207 T T T Na
   0.8200922019690111    0.0131759906920924    0.6348648018615816 T T T Na
   0.8200922019690111    0.5131759906920923    0.5348648018615816 F F F Na
   0.1799077980309889    0.9868240093079077    0.5401351981384185 F F F Na
   0.1799077980309889    0.4868240093079077    0.6401351981384185 T T T Na
   0.0000000000000000    0.3950542437394482    0.6584891512521104 T T T As
   0.0000000000000000    0.8950542437394482    0.5584891512521104 F F F As
   0.0000000000000000    0.1049457562605518    0.6165108487478896 T T T As
   0.0000000000000000    0.6049457562605518    0.5165108487478897 F F F As
   0.5000000000000000    0.8950542437394482    0.5584891512521104 F F F As
   0.5000000000000000    0.3950542437394482    0.6584891512521104 T T T As
   0.5000000000000000    0.1049457562605517    0.6165108487478896 T T T As
   0.5000000000000000    0.6049457562605518    0.5165108487478897 F F F As
   0.0000000000000000    0.2500000000000000    0.5375000000000000 F F F Au
   0.0000000000000000    0.7500000000000000    0.6375000000000001 T T T Au
   0.0000000000000000    0.2500000000000000    0.6375000000000000 T T T Au
   0.0000000000000000    0.7500000000000000    0.5375000000000001 F F F Au
   0.5000000000000000    0.2500000000000000    0.5375000000000001 F F F Au
   0.5000000000000000    0.7500000000000000    0.6375000000000001 T T T Au
   0.5000000000000000    0.2500000000000000    0.6375000000000000 T T T Au
   0.5000000000000000    0.7500000000000000    0.5375000000000001 F F F Au
