Sr4 Sb4 Pt4
1.0
   3.9403683542845731    0.0000000000000000   -2.2749727300524798
   0.0000000000000007    4.6275314240250447   -4.5499454601049614
   0.0000000000000000    0.0000000000000000   40.9495091409446488
Sr Sb Pt Sr Sb Pt Sr Sb Pt Sr Sb Pt
1 1 1 1 1 1 1 1 1 1 1 1
Selective dynamics
direct
   0.0000000000000000    0.0000000000000000    0.3703703703703703 T T T Sr
   0.3333333333333335    0.5000000000000000    0.2777777777777777 T T T Sb
   0.6666666666666667    0.5000000000000000    0.3518518518518518 T T T Pt
   0.0000000000000000    0.0000000000000000    0.4814814814814815 F F F Sr
   0.3333333333333335    0.5000000000000000    0.3888888888888888 F F F Sb
   0.6666666666666667    0.5000000000000000    0.4629629629629629 F F F Pt
   0.0000000000000000    0.0000000000000000    0.5925925925925926 F F F Sr
   0.3333333333333335    0.5000000000000000    0.5000000000000000 F F F Sb
   0.6666666666666667    0.5000000000000000    0.5740740740740740 F F F Pt
   0.0000000000000000    0.0000000000000000    0.7037037037037037 T T T Sr
   0.3333333333333335    0.5000000000000000    0.6111111111111110 T T T Sb
   0.6666666666666667    0.5000000000000000    0.6851851851851851 T T T Pt
