Sc32 Sb16
1.0
   4.2310092915555888    0.0000000000000000    4.2310092915555888
   4.2310092915555844   15.7161828067061435    0.0000000000000010
   0.0000000000000000    0.0000000000000000   42.3100929155558845
Sc Sb Sc Sb Sc Sb Sc Sb
8 4 8 4 8 4 8 4
Selective dynamics
direct
   0.5000000000000002    0.5000000000000000    0.3250000000000000 T T T Sc
   0.0000000000000000    0.0000000000000000    0.3750000000000000 T T T Sc
   0.0000000000000004    0.4999999999999999    0.3250000000000000 T T T Sc
   0.5000000000000000    0.0000000000000000    0.3750000000000000 T T T Sc
   0.8278446012891404    0.6721553987108598    0.3922155398710859 T T T Sc
   0.3278446012891401    0.1721553987108599    0.3422155398710860 T T T Sc
   0.1721553987108604    0.8278446012891399    0.3077844601289139 T T T Sc
   0.6721553987108601    0.3278446012891400    0.3577844601289140 T T T Sc
   0.6401584065819822    0.8598415934180180    0.3109841593418017 T T T Sb
   0.1401584065819819    0.3598415934180181    0.3609841593418018 T T T Sb
   0.3598415934180186    0.6401584065819819    0.3890158406581981 T T T Sb
   0.8598415934180181    0.1401584065819818    0.3390158406581982 T T T Sb
   0.5000000000000002    0.5000000000000000    0.4249999999999999 F F F Sc
   0.0000000000000000    0.0000000000000000    0.4750000000000000 F F F Sc
   0.0000000000000004    0.4999999999999999    0.4249999999999999 F F F Sc
   0.5000000000000000    0.0000000000000000    0.4750000000000000 F F F Sc
   0.8278446012891404    0.6721553987108598    0.4922155398710860 F F F Sc
   0.3278446012891401    0.1721553987108599    0.4422155398710860 F F F Sc
   0.1721553987108604    0.8278446012891399    0.4077844601289140 T T T Sc
   0.6721553987108601    0.3278446012891400    0.4577844601289140 F F F Sc
   0.6401584065819822    0.8598415934180180    0.4109841593418018 F F F Sb
   0.1401584065819819    0.3598415934180181    0.4609841593418018 F F F Sb
   0.3598415934180186    0.6401584065819819    0.4890158406581981 F F F Sb
   0.8598415934180181    0.1401584065819818    0.4390158406581982 F F F Sb
   0.5000000000000002    0.5000000000000000    0.5249999999999999 F F F Sc
   0.0000000000000000    0.0000000000000000    0.5750000000000000 F F F Sc
   0.0000000000000004    0.4999999999999999    0.5249999999999999 F F F Sc
   0.5000000000000000    0.0000000000000000    0.5750000000000000 F F F Sc
   0.8278446012891404    0.6721553987108598    0.5922155398710860 T T T Sc
   0.3278446012891401    0.1721553987108599    0.5422155398710859 F F F Sc
   0.1721553987108604    0.8278446012891399    0.5077844601289140 F F F Sc
   0.6721553987108601    0.3278446012891400    0.5577844601289139 F F F Sc
   0.6401584065819822    0.8598415934180180    0.5109841593418017 F F F Sb
   0.1401584065819819    0.3598415934180181    0.5609841593418018 F F F Sb
   0.3598415934180186    0.6401584065819819    0.5890158406581981 F F F Sb
   0.8598415934180181    0.1401584065819818    0.5390158406581982 F F F Sb
   0.5000000000000002    0.5000000000000000    0.6250000000000000 T T T Sc
   0.0000000000000000    0.0000000000000000    0.6749999999999999 T T T Sc
   0.0000000000000004    0.4999999999999999    0.6250000000000000 T T T Sc
   0.5000000000000000    0.0000000000000000    0.6749999999999999 T T T Sc
   0.8278446012891404    0.6721553987108598    0.6922155398710860 T T T Sc
   0.3278446012891401    0.1721553987108599    0.6422155398710860 T T T Sc
   0.1721553987108604    0.8278446012891399    0.6077844601289140 T T T Sc
   0.6721553987108601    0.3278446012891400    0.6577844601289140 T T T Sc
   0.6401584065819822    0.8598415934180180    0.6109841593418017 T T T Sb
   0.1401584065819819    0.3598415934180181    0.6609841593418018 T T T Sb
   0.3598415934180186    0.6401584065819819    0.6890158406581981 T T T Sb
   0.8598415934180181    0.1401584065819818    0.6390158406581982 T T T Sb
