Sc24 Sb12
1.0
   5.9835507226444937    0.0000000000000000    0.0000000000000004
   5.9835507226444928    5.9835507226444937    7.8580914033530709
   0.0000000000000000    0.0000000000000000   55.0066398234714953
Sc Sb Sc Sb Sc Sb
8 4 8 4 8 4
Selective dynamics
direct
   0.0000000000000000    0.5000000000000000    0.3452380952380952 T T T Sc
   0.0000000000000000    0.0000000000000000    0.4166666666666667 F F F Sc
   0.5000000000000000    0.0000000000000000    0.4166666666666667 F F F Sc
   0.5000000000000000    0.5000000000000000    0.3452380952380952 T T T Sc
   0.0000000000000000    0.2500000000000000    0.2872824948697695 T T T Sc
   0.0000000000000000    0.7500000000000000    0.3587110662983409 T T T Sc
   0.5000000000000000    0.2500000000000001    0.3317651241778496 T T T Sc
   0.5000000000000000    0.7500000000000000    0.4031936956064210 F F F Sc
   0.0000000000000000    0.2500000000000000    0.3409071219289576 T T T Sb
   0.0000000000000000    0.7500000000000000    0.4123356933575290 F F F Sb
   0.5000000000000000    0.2500000000000001    0.2781404971186615 T T T Sb
   0.5000000000000000    0.7500000000000000    0.3495690685472329 T T T Sb
   0.0000000000000000    0.5000000000000000    0.4880952380952381 F F F Sc
   0.0000000000000000    0.0000000000000000    0.5595238095238095 F F F Sc
   0.5000000000000000    0.0000000000000000    0.5595238095238095 F F F Sc
   0.5000000000000000    0.5000000000000000    0.4880952380952381 F F F Sc
   0.0000000000000000    0.2500000000000000    0.4301396377269123 F F F Sc
   0.0000000000000000    0.7500000000000000    0.5015682091554838 F F F Sc
   0.5000000000000000    0.2500000000000001    0.4746222670349924 F F F Sc
   0.5000000000000000    0.7500000000000000    0.5460508384635638 F F F Sc
   0.0000000000000000    0.2500000000000000    0.4837642647861004 F F F Sb
   0.0000000000000000    0.7500000000000000    0.5551928362146719 F F F Sb
   0.5000000000000000    0.2500000000000001    0.4209976399758044 F F F Sb
   0.5000000000000000    0.7500000000000000    0.4924262114043758 F F F Sb
   0.0000000000000000    0.5000000000000000    0.6309523809523809 T T T Sc
   0.0000000000000000    0.0000000000000000    0.7023809523809523 T T T Sc
   0.5000000000000000    0.0000000000000000    0.7023809523809523 T T T Sc
   0.5000000000000000    0.5000000000000000    0.6309523809523809 T T T Sc
   0.0000000000000000    0.2500000000000000    0.5729967805840552 F F F Sc
   0.0000000000000000    0.7500000000000000    0.6444253520126266 T T T Sc
   0.5000000000000000    0.2500000000000001    0.6174794098921352 T T T Sc
   0.5000000000000000    0.7500000000000000    0.6889079813207066 T T T Sc
   0.0000000000000000    0.2500000000000000    0.6266214076432433 T T T Sb
   0.0000000000000000    0.7500000000000000    0.6980499790718147 T T T Sb
   0.5000000000000000    0.2500000000000001    0.5638547828329472 F F F Sb
   0.5000000000000000    0.7500000000000000    0.6352833542615186 T T T Sb
