Ba36 Zn24 As48
1.0
  17.0822974056344314    0.0000000000000000   -4.5177604743333344
  11.3253679551786526   13.4818181574272682    0.0000000000000011
   0.0000000000000000    0.0000000000000000   31.6243233203333105
Ba Zn As Ba Zn As Ba Zn As
12 8 16 12 8 16 12 8 16
Selective dynamics
direct
   0.3516223074122353    0.2925747257467712    0.3716603296303193 T T T Ba
   0.8516223074122352    0.7925747257467712    0.3002317582017479 T T T Ba
   0.6483776925877648    0.2074252742532288    0.3426253846553949 T T T Ba
   0.1483776925877646    0.7074252742532288    0.4140539560839663 F F F Ba
   0.5000000000000000    0.5000000000000000    0.3214285714285714 T T T Ba
   0.0000000000000000    0.0000000000000000    0.3928571428571428 T T T Ba
   0.8516223074122353    0.2925747257467712    0.3716603296303193 T T T Ba
   0.3516223074122352    0.7925747257467712    0.3002317582017479 T T T Ba
   0.1483776925877646    0.2074252742532288    0.3426253846553949 T T T Ba
   0.6483776925877647    0.7074252742532288    0.4140539560839663 F F F Ba
   0.0000000000000000    0.5000000000000000    0.3214285714285714 T T T Ba
   0.5000000000000000    0.0000000000000000    0.3928571428571428 T T T Ba
   0.8097022836780673    0.0194321751629227    0.2942431833825810 T T T Zn
   0.3097022836780672    0.5194321751629227    0.3656717548111524 T T T Zn
   0.1902977163219326    0.4805678248370773    0.4200425309031332 F F F Zn
   0.6902977163219326    0.9805678248370773    0.3486139594745618 T T T Zn
   0.3097022836780672    0.0194321751629227    0.2942431833825810 T T T Zn
   0.8097022836780672    0.5194321751629227    0.3656717548111524 T T T Zn
   0.6902977163219328    0.4805678248370773    0.4200425309031333 F F F Zn
   0.1902977163219328    0.9805678248370773    0.3486139594745618 T T T Zn
   0.6240536075101097    0.0814495968000666    0.4105790867871585 F F F As
   0.1240536075101096    0.5814495968000666    0.3391505153585871 T T T As
   0.3759463924898904    0.4185504031999335    0.3037066274985558 T T T As
   0.8759463924898903    0.9185504031999334    0.3751351989271272 T T T As
   0.8286711601821786    0.1599310438241270    0.2969530228831683 T T T As
   0.3286711601821785    0.6599310438241270    0.3683815943117398 T T T As
   0.1713288398178215    0.3400689561758731    0.4173326914025459 F F F As
   0.6713288398178214    0.8400689561758730    0.3459041199739745 T T T As
   0.1240536075101096    0.0814495968000666    0.4105790867871585 F F F As
   0.6240536075101095    0.5814495968000666    0.3391505153585870 T T T As
   0.8759463924898905    0.4185504031999335    0.3037066274985558 T T T As
   0.3759463924898904    0.9185504031999334    0.3751351989271272 T T T As
   0.3286711601821784    0.1599310438241270    0.2969530228831683 T T T As
   0.8286711601821783    0.6599310438241270    0.3683815943117398 T T T As
   0.6713288398178217    0.3400689561758731    0.4173326914025459 F F F As
   0.1713288398178217    0.8400689561758730    0.3459041199739745 T T T As
   0.3516223074122353    0.2925747257467712    0.5145174724874622 F F F Ba
   0.8516223074122352    0.7925747257467712    0.4430889010588908 F F F Ba
   0.6483776925877648    0.2074252742532288    0.4854825275125378 F F F Ba
   0.1483776925877646    0.7074252742532288    0.5569110989411092 F F F Ba
   0.5000000000000000    0.5000000000000000    0.4642857142857142 F F F Ba
   0.0000000000000000    0.0000000000000000    0.5357142857142857 F F F Ba
   0.8516223074122353    0.2925747257467712    0.5145174724874622 F F F Ba
   0.3516223074122352    0.7925747257467712    0.4430889010588908 F F F Ba
   0.1483776925877646    0.2074252742532288    0.4854825275125378 F F F Ba
   0.6483776925877647    0.7074252742532288    0.5569110989411092 F F F Ba
   0.0000000000000000    0.5000000000000000    0.4642857142857142 F F F Ba
   0.5000000000000000    0.0000000000000000    0.5357142857142857 F F F Ba
   0.8097022836780673    0.0194321751629227    0.4371003262397239 F F F Zn
   0.3097022836780672    0.5194321751629227    0.5085288976682953 F F F Zn
   0.1902977163219326    0.4805678248370773    0.5628996737602761 F F F Zn
   0.6902977163219326    0.9805678248370773    0.4914711023317047 F F F Zn
   0.3097022836780672    0.0194321751629227    0.4371003262397238 F F F Zn
   0.8097022836780672    0.5194321751629227    0.5085288976682953 F F F Zn
   0.6902977163219328    0.4805678248370773    0.5628996737602761 F F F Zn
   0.1902977163219328    0.9805678248370773    0.4914711023317047 F F F Zn
   0.6240536075101097    0.0814495968000666    0.5534362296443014 F F F As
   0.1240536075101096    0.5814495968000666    0.4820076582157299 F F F As
   0.3759463924898904    0.4185504031999335    0.4465637703556986 F F F As
   0.8759463924898903    0.9185504031999334    0.5179923417842700 F F F As
   0.8286711601821786    0.1599310438241270    0.4398101657403112 F F F As
   0.3286711601821785    0.6599310438241270    0.5112387371688827 F F F As
   0.1713288398178215    0.3400689561758731    0.5601898342596887 F F F As
   0.6713288398178214    0.8400689561758730    0.4887612628311173 F F F As
   0.1240536075101096    0.0814495968000666    0.5534362296443014 F F F As
   0.6240536075101095    0.5814495968000666    0.4820076582157299 F F F As
   0.8759463924898905    0.4185504031999335    0.4465637703556986 F F F As
   0.3759463924898904    0.9185504031999334    0.5179923417842700 F F F As
   0.3286711601821784    0.1599310438241270    0.4398101657403112 F F F As
   0.8286711601821783    0.6599310438241270    0.5112387371688826 F F F As
   0.6713288398178217    0.3400689561758731    0.5601898342596888 F F F As
   0.1713288398178217    0.8400689561758730    0.4887612628311174 F F F As
   0.3516223074122353    0.2925747257467712    0.6573746153446050 T T T Ba
   0.8516223074122352    0.7925747257467712    0.5859460439160336 F F F Ba
   0.6483776925877648    0.2074252742532288    0.6283396703696806 T T T Ba
   0.1483776925877646    0.7074252742532288    0.6997682417982520 T T T Ba
   0.5000000000000000    0.5000000000000000    0.6071428571428571 T T T Ba
   0.0000000000000000    0.0000000000000000    0.6785714285714286 T T T Ba
   0.8516223074122353    0.2925747257467712    0.6573746153446050 T T T Ba
   0.3516223074122352    0.7925747257467712    0.5859460439160336 F F F Ba
   0.1483776925877646    0.2074252742532288    0.6283396703696806 T T T Ba
   0.6483776925877647    0.7074252742532288    0.6997682417982520 T T T Ba
   0.0000000000000000    0.5000000000000000    0.6071428571428571 T T T Ba
   0.5000000000000000    0.0000000000000000    0.6785714285714286 T T T Ba
   0.8097022836780673    0.0194321751629227    0.5799574690968667 F F F Zn
   0.3097022836780672    0.5194321751629227    0.6513860405254381 T T T Zn
   0.1902977163219326    0.4805678248370773    0.7057568166174188 T T T Zn
   0.6902977163219326    0.9805678248370773    0.6343282451888475 T T T Zn
   0.3097022836780672    0.0194321751629227    0.5799574690968667 F F F Zn
   0.8097022836780672    0.5194321751629227    0.6513860405254381 T T T Zn
   0.6902977163219328    0.4805678248370773    0.7057568166174190 T T T Zn
   0.1902977163219328    0.9805678248370773    0.6343282451888475 T T T Zn
   0.6240536075101097    0.0814495968000666    0.6962933725014442 T T T As
   0.1240536075101096    0.5814495968000666    0.6248648010728728 T T T As
   0.3759463924898904    0.4185504031999335    0.5894209132128414 F F F As
   0.8759463924898903    0.9185504031999334    0.6608494846414128 T T T As
   0.8286711601821786    0.1599310438241270    0.5826673085974541 F F F As
   0.3286711601821785    0.6599310438241270    0.6540958800260255 T T T As
   0.1713288398178215    0.3400689561758731    0.7030469771168316 T T T As
   0.6713288398178214    0.8400689561758730    0.6316184056882601 T T T As
   0.1240536075101096    0.0814495968000666    0.6962933725014442 T T T As
   0.6240536075101095    0.5814495968000666    0.6248648010728728 T T T As
   0.8759463924898905    0.4185504031999335    0.5894209132128414 F F F As
   0.3759463924898904    0.9185504031999334    0.6608494846414129 T T T As
   0.3286711601821784    0.1599310438241270    0.5826673085974541 F F F As
   0.8286711601821783    0.6599310438241270    0.6540958800260255 T T T As
   0.6713288398178217    0.3400689561758731    0.7030469771168316 T T T As
   0.1713288398178217    0.8400689561758730    0.6316184056882602 T T T As
