K32 Bi16 Au16
1.0
  10.8630645453496264    0.0000000000000000    0.0000000000000007
   0.0000000000000022   13.6010541587155647   -7.9741707079926396
   0.0000000000000000    0.0000000000000000   39.8708535399631785
K Bi Au K Bi Au
16 8 8 16 8 8
Selective dynamics
direct
   0.1706660025301900    0.3750000000000001    0.3955164491023080 F F F K
   0.1706660025301900    0.8750000000000001    0.4955164491023080 F F F K
   0.1706660025301900    0.1250000000000000    0.4169835508976920 F F F K
   0.1706660025301900    0.6250000000000000    0.3169835508976920 T T T K
   0.8293339974698100    0.1250000000000000    0.4169835508976920 F F F K
   0.8293339974698100    0.6250000000000000    0.3169835508976920 T T T K
   0.8293339974698100    0.3750000000000000    0.3955164491023080 F F F K
   0.8293339974698100    0.8750000000000001    0.4955164491023080 F F F K
   0.6706660025301900    0.3750000000000000    0.4955164491023080 F F F K
   0.6706660025301900    0.8750000000000001    0.3955164491023080 F F F K
   0.6706660025301900    0.1250000000000000    0.3169835508976920 T T T K
   0.6706660025301900    0.6250000000000000    0.4169835508976920 F F F K
   0.3293339974698100    0.1250000000000000    0.3169835508976920 T T T K
   0.3293339974698100    0.6250000000000000    0.4169835508976920 F F F K
   0.3293339974698100    0.3750000000000001    0.4955164491023080 F F F K
   0.3293339974698100    0.8750000000000001    0.3955164491023080 F F F K
   0.0000000000000000    0.3750000000000001    0.4761219942011703 F F F Bi
   0.0000000000000000    0.8750000000000001    0.3761219942011704 T T T Bi
   0.0000000000000000    0.1250000000000000    0.3363780057988297 T T T Bi
   0.0000000000000000    0.6250000000000000    0.4363780057988297 F F F Bi
   0.5000000000000000    0.3750000000000000    0.3761219942011703 T T T Bi
   0.5000000000000000    0.8750000000000001    0.4761219942011703 F F F Bi
   0.5000000000000000    0.1250000000000000    0.4363780057988297 F F F Bi
   0.5000000000000000    0.6250000000000000    0.3363780057988297 T T T Bi
   0.0000000000000000    0.2500000000000000    0.3062500000000000 T T T Au
   0.0000000000000000    0.7500000000000000    0.4062500000000000 F F F Au
   0.0000000000000000    0.0000000000000000    0.4562500000000000 F F F Au
   0.0000000000000000    0.5000000000000000    0.3562500000000000 T T T Au
   0.5000000000000000    0.2500000000000000    0.4062500000000000 F F F Au
   0.5000000000000000    0.7500000000000001    0.3062500000000000 T T T Au
   0.5000000000000000    0.0000000000000000    0.3562500000000000 T T T Au
   0.5000000000000000    0.5000000000000001    0.4562500000000000 F F F Au
   0.1706660025301900    0.3750000000000001    0.5955164491023079 F F F K
   0.1706660025301900    0.8750000000000001    0.6955164491023080 T T T K
   0.1706660025301900    0.1250000000000000    0.6169835508976920 T T T K
   0.1706660025301900    0.6250000000000000    0.5169835508976921 F F F K
   0.8293339974698100    0.1250000000000000    0.6169835508976920 T T T K
   0.8293339974698100    0.6250000000000000    0.5169835508976921 F F F K
   0.8293339974698100    0.3750000000000000    0.5955164491023079 F F F K
   0.8293339974698100    0.8750000000000001    0.6955164491023080 T T T K
   0.6706660025301900    0.3750000000000000    0.6955164491023080 T T T K
   0.6706660025301900    0.8750000000000001    0.5955164491023081 F F F K
   0.6706660025301900    0.1250000000000000    0.5169835508976920 F F F K
   0.6706660025301900    0.6250000000000000    0.6169835508976920 T T T K
   0.3293339974698100    0.1250000000000000    0.5169835508976920 F F F K
   0.3293339974698100    0.6250000000000000    0.6169835508976921 T T T K
   0.3293339974698100    0.3750000000000001    0.6955164491023080 T T T K
   0.3293339974698100    0.8750000000000001    0.5955164491023081 F F F K
   0.0000000000000000    0.3750000000000001    0.6761219942011704 T T T Bi
   0.0000000000000000    0.8750000000000001    0.5761219942011704 F F F Bi
   0.0000000000000000    0.1250000000000000    0.5363780057988297 F F F Bi
   0.0000000000000000    0.6250000000000000    0.6363780057988297 T T T Bi
   0.5000000000000000    0.3750000000000000    0.5761219942011703 F F F Bi
   0.5000000000000000    0.8750000000000001    0.6761219942011704 T T T Bi
   0.5000000000000000    0.1250000000000000    0.6363780057988297 T T T Bi
   0.5000000000000000    0.6250000000000000    0.5363780057988298 F F F Bi
   0.0000000000000000    0.2500000000000000    0.5062500000000000 F F F Au
   0.0000000000000000    0.7500000000000000    0.6062500000000000 F F F Au
   0.0000000000000000    0.0000000000000000    0.6562500000000000 T T T Au
   0.0000000000000000    0.5000000000000000    0.5562500000000000 F F F Au
   0.5000000000000000    0.2500000000000000    0.6062500000000001 F F F Au
   0.5000000000000000    0.7500000000000001    0.5062500000000001 F F F Au
   0.5000000000000000    0.0000000000000000    0.5562500000000000 F F F Au
   0.5000000000000000    0.5000000000000001    0.6562500000000000 T T T Au
