Rb32 Ni16 As32
1.0
  20.0447226474360924    0.0000000000000000    0.0000000000000012
   9.6611645228546461   10.0158506066237578    5.9972794742177031
   0.0000000000000000    0.0000000000000000   29.9863973710885254
Rb Ni As Rb Ni As
16 8 16 16 8 16
Selective dynamics
direct
   0.2084361390089242    0.2915638609910757    0.3766872278017848 T T T Rb
   0.2084361390089242    0.7915638609910758    0.4766872278017847 F F F Rb
   0.2915638609910758    0.9584361390089242    0.3433127721982150 T T T Rb
   0.2915638609910758    0.4584361390089242    0.4433127721982151 F F F Rb
   0.0911583723195264    0.1588416276804736    0.4032316744639052 T T T Rb
   0.0911583723195264    0.6588416276804736    0.3032316744639053 T T T Rb
   0.4088416276804736    0.0911583723195264    0.3167683255360946 T T T Rb
   0.4088416276804736    0.5911583723195264    0.4167683255360947 F F F Rb
   0.7084361390089241    0.5415638609910758    0.3266872278017848 T T T Rb
   0.7084361390089241    0.0415638609910758    0.4266872278017848 F F F Rb
   0.7915638609910757    0.7084361390089242    0.3933127721982150 T T T Rb
   0.7915638609910757    0.2084361390089242    0.4933127721982151 F F F Rb
   0.5911583723195264    0.9088416276804735    0.4532316744639052 F F F Rb
   0.5911583723195264    0.4088416276804735    0.3532316744639052 T T T Rb
   0.9088416276804735    0.3411583723195264    0.4667683255360946 F F F Rb
   0.9088416276804735    0.8411583723195264    0.3667683255360947 T T T Rb
   0.0000000000000000    0.5000000000000000    0.4849999999999999 F F F Ni
   0.0000000000000000    0.0000000000000000    0.3850000000000000 T T T Ni
   0.0000000000000000    0.5000000000000000    0.3849999999999999 T T T Ni
   0.0000000000000000    0.0000000000000000    0.4850000000000000 F F F Ni
   0.4999999999999999    0.7500000000000000    0.4349999999999999 F F F Ni
   0.4999999999999999    0.2499999999999999    0.3350000000000000 T T T Ni
   0.4999999999999999    0.7500000000000000    0.3350000000000000 T T T Ni
   0.4999999999999999    0.2499999999999999    0.4349999999999999 F F F Ni
   0.4045094786305086    0.9333475048141722    0.4483304990371655 F F F As
   0.4045094786305086    0.4333475048141722    0.3483304990371655 T T T As
   0.0954905213694914    0.3166524951858278    0.4716695009628343 F F F As
   0.0954905213694914    0.8166524951858278    0.3716695009628344 T T T As
   0.4045094786305086    0.7576335379248107    0.4834732924150378 F F F As
   0.4045094786305086    0.2576335379248106    0.3834732924150378 T T T As
   0.0954905213694914    0.9923664620751893    0.3365267075849621 T T T As
   0.0954905213694914    0.4923664620751893    0.4365267075849621 F F F As
   0.9045094786305085    0.1833475048141722    0.3983304990371656 T T T As
   0.9045094786305085    0.6833475048141722    0.2983304990371655 T T T As
   0.5954905213694913    0.5666524951858278    0.4216695009628344 F F F As
   0.5954905213694913    0.0666524951858277    0.3216695009628344 T T T As
   0.9045094786305085    0.5076335379248107    0.3334732924150378 T T T As
   0.9045094786305085    0.0076335379248107    0.4334732924150377 F F F As
   0.5954905213694913    0.7423664620751893    0.3865267075849620 T T T As
   0.5954905213694913    0.2423664620751893    0.4865267075849621 F F F As
   0.2084361390089242    0.2915638609910757    0.5766872278017847 F F F Rb
   0.2084361390089242    0.7915638609910758    0.6766872278017848 T T T Rb
   0.2915638609910758    0.9584361390089242    0.5433127721982151 F F F Rb
   0.2915638609910758    0.4584361390089242    0.6433127721982150 T T T Rb
   0.0911583723195264    0.1588416276804736    0.6032316744639052 T T T Rb
   0.0911583723195264    0.6588416276804736    0.5032316744639053 F F F Rb
   0.4088416276804736    0.0911583723195264    0.5167683255360946 F F F Rb
   0.4088416276804736    0.5911583723195264    0.6167683255360947 T T T Rb
   0.7084361390089241    0.5415638609910758    0.5266872278017848 F F F Rb
   0.7084361390089241    0.0415638609910758    0.6266872278017848 T T T Rb
   0.7915638609910757    0.7084361390089242    0.5933127721982150 T T T Rb
   0.7915638609910757    0.2084361390089242    0.6933127721982151 T T T Rb
   0.5911583723195264    0.9088416276804735    0.6532316744639053 T T T Rb
   0.5911583723195264    0.4088416276804735    0.5532316744639052 F F F Rb
   0.9088416276804735    0.3411583723195264    0.6667683255360946 T T T Rb
   0.9088416276804735    0.8411583723195264    0.5667683255360947 F F F Rb
   0.0000000000000000    0.5000000000000000    0.6849999999999999 T T T Ni
   0.0000000000000000    0.0000000000000000    0.5850000000000000 T T T Ni
   0.0000000000000000    0.5000000000000000    0.5850000000000000 T T T Ni
   0.0000000000000000    0.0000000000000000    0.6850000000000001 T T T Ni
   0.4999999999999999    0.7500000000000000    0.6350000000000000 T T T Ni
   0.4999999999999999    0.2499999999999999    0.5349999999999999 F F F Ni
   0.4999999999999999    0.7500000000000000    0.5349999999999999 F F F Ni
   0.4999999999999999    0.2499999999999999    0.6350000000000000 T T T Ni
   0.4045094786305086    0.9333475048141722    0.6483304990371654 T T T As
   0.4045094786305086    0.4333475048141722    0.5483304990371656 F F F As
   0.0954905213694914    0.3166524951858278    0.6716695009628344 T T T As
   0.0954905213694914    0.8166524951858278    0.5716695009628343 F F F As
   0.4045094786305086    0.7576335379248107    0.6834732924150377 T T T As
   0.4045094786305086    0.2576335379248106    0.5834732924150379 T T T As
   0.0954905213694914    0.9923664620751893    0.5365267075849620 F F F As
   0.0954905213694914    0.4923664620751893    0.6365267075849621 T T T As
   0.9045094786305085    0.1833475048141722    0.5983304990371656 T T T As
   0.9045094786305085    0.6833475048141722    0.4983304990371655 F F F As
   0.5954905213694913    0.5666524951858278    0.6216695009628344 T T T As
   0.5954905213694913    0.0666524951858277    0.5216695009628344 F F F As
   0.9045094786305085    0.5076335379248107    0.5334732924150378 F F F As
   0.9045094786305085    0.0076335379248107    0.6334732924150377 T T T As
   0.5954905213694913    0.7423664620751893    0.5865267075849621 T T T As
   0.5954905213694913    0.2423664620751893    0.6865267075849621 T T T As
