Be96 Co48 Ir48
1.0
  10.8322349562100335    0.0000000000000000   -5.4161174781050168
  -0.0000000000000031   10.8322349562100335   -5.4161174781050168
   0.0000000000000000    0.0000000000000000   37.9128223467351262
Be Co Ir Be Co Ir Be Co Ir
32 16 16 32 16 16 32 16 16
Selective dynamics
direct
   0.6250000000000001    0.8750000000000000    0.3750000000000000 T T T Be
   0.1250000000000000    0.3750000000000000    0.3750000000000000 T T T Be
   0.1250000000000000    0.8750000000000001    0.3035714285714286 T T T Be
   0.6250000000000001    0.3750000000000000    0.3035714285714286 T T T Be
   0.8750000000000001    0.8750000000000000    0.4107142857142857 F F F Be
   0.3750000000000000    0.3750000000000001    0.4107142857142857 F F F Be
   0.3750000000000000    0.8750000000000001    0.3392857142857143 T T T Be
   0.8750000000000001    0.3750000000000001    0.3392857142857143 T T T Be
   0.8750000000000001    0.6250000000000000    0.3750000000000000 T T T Be
   0.3750000000000000    0.1250000000000000    0.3750000000000000 T T T Be
   0.3750000000000000    0.6250000000000001    0.3035714285714286 T T T Be
   0.8750000000000001    0.1250000000000000    0.3035714285714286 T T T Be
   0.6250000000000001    0.6250000000000000    0.3392857142857143 T T T Be
   0.1250000000000000    0.1250000000000001    0.3392857142857142 T T T Be
   0.1250000000000000    0.6250000000000001    0.4107142857142857 F F F Be
   0.6250000000000001    0.1250000000000001    0.4107142857142857 F F F Be
   0.6250000000000001    0.6250000000000000    0.4107142857142857 F F F Be
   0.1250000000000000    0.1250000000000001    0.4107142857142857 F F F Be
   0.1250000000000000    0.6250000000000001    0.3392857142857142 T T T Be
   0.6250000000000001    0.1250000000000001    0.3392857142857142 T T T Be
   0.8750000000000001    0.6250000000000000    0.3035714285714286 T T T Be
   0.3750000000000000    0.1250000000000001    0.3035714285714286 T T T Be
   0.3750000000000000    0.6250000000000001    0.3750000000000000 T T T Be
   0.8750000000000001    0.1250000000000001    0.3750000000000000 T T T Be
   0.8750000000000001    0.8750000000000001    0.3392857142857143 T T T Be
   0.3750000000000000    0.3750000000000001    0.3392857142857143 T T T Be
   0.3750000000000000    0.8750000000000002    0.4107142857142858 F F F Be
   0.8750000000000001    0.3750000000000001    0.4107142857142858 F F F Be
   0.6250000000000001    0.8750000000000001    0.3035714285714286 T T T Be
   0.1250000000000000    0.3750000000000002    0.3035714285714285 T T T Be
   0.1250000000000000    0.8750000000000002    0.3750000000000000 T T T Be
   0.6250000000000001    0.3750000000000001    0.3750000000000000 T T T Be
   0.5000000000000000    0.4999999999999999    0.4107142857142857 F F F Co
   0.0000000000000000    0.0000000000000000    0.4107142857142857 F F F Co
   0.0000000000000000    0.5000000000000000    0.3392857142857142 T T T Co
   0.5000000000000000    0.0000000000000000    0.3392857142857142 T T T Co
   0.7500000000000000    0.7499999999999999    0.3392857142857142 T T T Co
   0.2500000000000000    0.2500000000000000    0.3392857142857142 T T T Co
   0.2500000000000000    0.7500000000000000    0.4107142857142857 F F F Co
   0.7500000000000000    0.2500000000000001    0.4107142857142857 F F F Co
   0.5000000000000000    0.7500000000000000    0.3750000000000000 T T T Co
   0.0000000000000000    0.2500000000000001    0.3750000000000000 T T T Co
   0.0000000000000000    0.7500000000000000    0.3035714285714285 T T T Co
   0.5000000000000000    0.2500000000000001    0.3035714285714285 T T T Co
   0.7500000000000000    0.5000000000000000    0.3750000000000000 T T T Co
   0.2500000000000000    0.0000000000000001    0.3750000000000000 T T T Co
   0.2500000000000000    0.5000000000000001    0.3035714285714285 T T T Co
   0.7500000000000000    0.0000000000000001    0.3035714285714286 T T T Co
   0.5000000000000000    0.5000000000000000    0.3392857142857142 T T T Ir
   0.0000000000000000    0.0000000000000001    0.3392857142857142 T T T Ir
   0.0000000000000000    0.5000000000000001    0.4107142857142857 F F F Ir
   0.5000000000000000    0.0000000000000001    0.4107142857142857 F F F Ir
   0.7500000000000000    0.7500000000000000    0.4107142857142857 F F F Ir
   0.2500000000000000    0.2500000000000001    0.4107142857142857 F F F Ir
   0.2500000000000000    0.7500000000000000    0.3392857142857142 T T T Ir
   0.7500000000000000    0.2500000000000001    0.3392857142857143 T T T Ir
   0.5000000000000000    0.7499999999999999    0.3035714285714285 T T T Ir
   0.0000000000000000    0.2500000000000000    0.3035714285714285 T T T Ir
   0.0000000000000000    0.7500000000000000    0.3750000000000000 T T T Ir
   0.5000000000000000    0.2500000000000001    0.3750000000000000 T T T Ir
   0.7500000000000000    0.4999999999999999    0.3035714285714285 T T T Ir
   0.2500000000000000    0.0000000000000000    0.3035714285714285 T T T Ir
   0.2500000000000000    0.5000000000000000    0.3750000000000000 T T T Ir
   0.7500000000000000    0.0000000000000000    0.3750000000000000 T T T Ir
   0.6250000000000001    0.8750000000000000    0.5178571428571428 F F F Be
   0.1250000000000000    0.3750000000000000    0.5178571428571428 F F F Be
   0.1250000000000000    0.8750000000000001    0.4464285714285714 F F F Be
   0.6250000000000001    0.3750000000000000    0.4464285714285714 F F F Be
   0.8750000000000001    0.8750000000000000    0.5535714285714286 F F F Be
   0.3750000000000000    0.3750000000000001    0.5535714285714286 F F F Be
   0.3750000000000000    0.8750000000000001    0.4821428571428572 F F F Be
   0.8750000000000001    0.3750000000000001    0.4821428571428572 F F F Be
   0.8750000000000001    0.6250000000000000    0.5178571428571428 F F F Be
   0.3750000000000000    0.1250000000000000    0.5178571428571428 F F F Be
   0.3750000000000000    0.6250000000000001    0.4464285714285714 F F F Be
   0.8750000000000001    0.1250000000000000    0.4464285714285714 F F F Be
   0.6250000000000001    0.6250000000000000    0.4821428571428572 F F F Be
   0.1250000000000000    0.1250000000000001    0.4821428571428571 F F F Be
   0.1250000000000000    0.6250000000000001    0.5535714285714286 F F F Be
   0.6250000000000001    0.1250000000000001    0.5535714285714286 F F F Be
   0.6250000000000001    0.6250000000000000    0.5535714285714286 F F F Be
   0.1250000000000000    0.1250000000000001    0.5535714285714286 F F F Be
   0.1250000000000000    0.6250000000000001    0.4821428571428571 F F F Be
   0.6250000000000001    0.1250000000000001    0.4821428571428571 F F F Be
   0.8750000000000001    0.6250000000000000    0.4464285714285714 F F F Be
   0.3750000000000000    0.1250000000000001    0.4464285714285714 F F F Be
   0.3750000000000000    0.6250000000000001    0.5178571428571428 F F F Be
   0.8750000000000001    0.1250000000000001    0.5178571428571428 F F F Be
   0.8750000000000001    0.8750000000000001    0.4821428571428572 F F F Be
   0.3750000000000000    0.3750000000000001    0.4821428571428572 F F F Be
   0.3750000000000000    0.8750000000000002    0.5535714285714286 F F F Be
   0.8750000000000001    0.3750000000000001    0.5535714285714286 F F F Be
   0.6250000000000001    0.8750000000000001    0.4464285714285714 F F F Be
   0.1250000000000000    0.3750000000000002    0.4464285714285714 F F F Be
   0.1250000000000000    0.8750000000000002    0.5178571428571428 F F F Be
   0.6250000000000001    0.3750000000000001    0.5178571428571428 F F F Be
   0.5000000000000000    0.4999999999999999    0.5535714285714286 F F F Co
   0.0000000000000000    0.0000000000000000    0.5535714285714286 F F F Co
   0.0000000000000000    0.5000000000000000    0.4821428571428571 F F F Co
   0.5000000000000000    0.0000000000000000    0.4821428571428571 F F F Co
   0.7500000000000000    0.7499999999999999    0.4821428571428571 F F F Co
   0.2500000000000000    0.2500000000000000    0.4821428571428571 F F F Co
   0.2500000000000000    0.7500000000000000    0.5535714285714286 F F F Co
   0.7500000000000000    0.2500000000000001    0.5535714285714286 F F F Co
   0.5000000000000000    0.7500000000000000    0.5178571428571428 F F F Co
   0.0000000000000000    0.2500000000000001    0.5178571428571428 F F F Co
   0.0000000000000000    0.7500000000000000    0.4464285714285714 F F F Co
   0.5000000000000000    0.2500000000000001    0.4464285714285714 F F F Co
   0.7500000000000000    0.5000000000000000    0.5178571428571428 F F F Co
   0.2500000000000000    0.0000000000000001    0.5178571428571428 F F F Co
   0.2500000000000000    0.5000000000000001    0.4464285714285714 F F F Co
   0.7500000000000000    0.0000000000000001    0.4464285714285714 F F F Co
   0.5000000000000000    0.5000000000000000    0.4821428571428571 F F F Ir
   0.0000000000000000    0.0000000000000001    0.4821428571428571 F F F Ir
   0.0000000000000000    0.5000000000000001    0.5535714285714286 F F F Ir
   0.5000000000000000    0.0000000000000001    0.5535714285714286 F F F Ir
   0.7500000000000000    0.7500000000000000    0.5535714285714286 F F F Ir
   0.2500000000000000    0.2500000000000001    0.5535714285714286 F F F Ir
   0.2500000000000000    0.7500000000000000    0.4821428571428571 F F F Ir
   0.7500000000000000    0.2500000000000001    0.4821428571428572 F F F Ir
   0.5000000000000000    0.7499999999999999    0.4464285714285714 F F F Ir
   0.0000000000000000    0.2500000000000000    0.4464285714285714 F F F Ir
   0.0000000000000000    0.7500000000000000    0.5178571428571428 F F F Ir
   0.5000000000000000    0.2500000000000001    0.5178571428571428 F F F Ir
   0.7500000000000000    0.4999999999999999    0.4464285714285714 F F F Ir
   0.2500000000000000    0.0000000000000000    0.4464285714285714 F F F Ir
   0.2500000000000000    0.5000000000000000    0.5178571428571428 F F F Ir
   0.7500000000000000    0.0000000000000000    0.5178571428571428 F F F Ir
   0.6250000000000001    0.8750000000000000    0.6607142857142857 T T T Be
   0.1250000000000000    0.3750000000000000    0.6607142857142857 T T T Be
   0.1250000000000000    0.8750000000000001    0.5892857142857143 F F F Be
   0.6250000000000001    0.3750000000000000    0.5892857142857143 F F F Be
   0.8750000000000001    0.8750000000000000    0.6964285714285714 T T T Be
   0.3750000000000000    0.3750000000000001    0.6964285714285714 T T T Be
   0.3750000000000000    0.8750000000000001    0.6250000000000000 T T T Be
   0.8750000000000001    0.3750000000000001    0.6250000000000000 T T T Be
   0.8750000000000001    0.6250000000000000    0.6607142857142857 T T T Be
   0.3750000000000000    0.1250000000000000    0.6607142857142857 T T T Be
   0.3750000000000000    0.6250000000000001    0.5892857142857143 F F F Be
   0.8750000000000001    0.1250000000000000    0.5892857142857143 F F F Be
   0.6250000000000001    0.6250000000000000    0.6250000000000000 T T T Be
   0.1250000000000000    0.1250000000000001    0.6250000000000000 T T T Be
   0.1250000000000000    0.6250000000000001    0.6964285714285714 T T T Be
   0.6250000000000001    0.1250000000000001    0.6964285714285714 T T T Be
   0.6250000000000001    0.6250000000000000    0.6964285714285714 T T T Be
   0.1250000000000000    0.1250000000000001    0.6964285714285714 T T T Be
   0.1250000000000000    0.6250000000000001    0.6250000000000000 T T T Be
   0.6250000000000001    0.1250000000000001    0.6250000000000000 T T T Be
   0.8750000000000001    0.6250000000000000    0.5892857142857143 F F F Be
   0.3750000000000000    0.1250000000000001    0.5892857142857143 F F F Be
   0.3750000000000000    0.6250000000000001    0.6607142857142857 T T T Be
   0.8750000000000001    0.1250000000000001    0.6607142857142857 T T T Be
   0.8750000000000001    0.8750000000000001    0.6250000000000000 T T T Be
   0.3750000000000000    0.3750000000000001    0.6250000000000000 T T T Be
   0.3750000000000000    0.8750000000000002    0.6964285714285714 T T T Be
   0.8750000000000001    0.3750000000000001    0.6964285714285714 T T T Be
   0.6250000000000001    0.8750000000000001    0.5892857142857143 F F F Be
   0.1250000000000000    0.3750000000000002    0.5892857142857142 F F F Be
   0.1250000000000000    0.8750000000000002    0.6607142857142857 T T T Be
   0.6250000000000001    0.3750000000000001    0.6607142857142857 T T T Be
   0.5000000000000000    0.4999999999999999    0.6964285714285714 T T T Co
   0.0000000000000000    0.0000000000000000    0.6964285714285714 T T T Co
   0.0000000000000000    0.5000000000000000    0.6250000000000000 T T T Co
   0.5000000000000000    0.0000000000000000    0.6250000000000000 T T T Co
   0.7500000000000000    0.7499999999999999    0.6250000000000000 T T T Co
   0.2500000000000000    0.2500000000000000    0.6250000000000000 T T T Co
   0.2500000000000000    0.7500000000000000    0.6964285714285714 T T T Co
   0.7500000000000000    0.2500000000000001    0.6964285714285714 T T T Co
   0.5000000000000000    0.7500000000000000    0.6607142857142857 T T T Co
   0.0000000000000000    0.2500000000000001    0.6607142857142857 T T T Co
   0.0000000000000000    0.7500000000000000    0.5892857142857142 F F F Co
   0.5000000000000000    0.2500000000000001    0.5892857142857142 F F F Co
   0.7500000000000000    0.5000000000000000    0.6607142857142857 T T T Co
   0.2500000000000000    0.0000000000000001    0.6607142857142857 T T T Co
   0.2500000000000000    0.5000000000000001    0.5892857142857142 F F F Co
   0.7500000000000000    0.0000000000000001    0.5892857142857143 F F F Co
   0.5000000000000000    0.5000000000000000    0.6250000000000000 T T T Ir
   0.0000000000000000    0.0000000000000001    0.6250000000000000 T T T Ir
   0.0000000000000000    0.5000000000000001    0.6964285714285714 T T T Ir
   0.5000000000000000    0.0000000000000001    0.6964285714285714 T T T Ir
   0.7500000000000000    0.7500000000000000    0.6964285714285714 T T T Ir
   0.2500000000000000    0.2500000000000001    0.6964285714285714 T T T Ir
   0.2500000000000000    0.7500000000000000    0.6250000000000000 T T T Ir
   0.7500000000000000    0.2500000000000001    0.6250000000000000 T T T Ir
   0.5000000000000000    0.7499999999999999    0.5892857142857142 F F F Ir
   0.0000000000000000    0.2500000000000000    0.5892857142857142 F F F Ir
   0.0000000000000000    0.7500000000000000    0.6607142857142857 T T T Ir
   0.5000000000000000    0.2500000000000001    0.6607142857142857 T T T Ir
   0.7500000000000000    0.4999999999999999    0.5892857142857142 F F F Ir
   0.2500000000000000    0.0000000000000000    0.5892857142857142 F F F Ir
   0.2500000000000000    0.5000000000000000    0.6607142857142857 T T T Ir
   0.7500000000000000    0.0000000000000000    0.6607142857142857 T T T Ir
