Na10 Te10 Au10
1.0
   8.6892028085561730    0.0000000000000000    0.0000000000000005
   0.0000000000000007    4.0741629659025840   -7.0566572552587914
   0.0000000000000000    0.0000000000000000   56.4532580420703169
Na Te Au Na Te Au Na Te Au Na Te Au Na Te Au
2 2 2 2 2 2 2 2 2 2 2 2 2 2 2
Selective dynamics
direct
   0.5000000000000000    0.0000000000000000    0.3333333333333333 T T T Na
   0.0000000000000000    0.0000000000000000    0.3333333333333333 T T T Na
   0.7500000000000000    0.6666666666666667    0.3333333333333333 T T T Te
   0.2500000000000000    0.3333333333333333    0.3333333333333333 T T T Te
   0.2500000000000000    0.6666666666666667    0.3333333333333333 T T T Au
   0.7500000000000000    0.3333333333333333    0.3333333333333333 T T T Au
   0.5000000000000000    0.0000000000000000    0.4166666666666666 T T T Na
   0.0000000000000000    0.0000000000000000    0.4166666666666666 T T T Na
   0.7500000000000000    0.6666666666666667    0.4166666666666666 T T T Te
   0.2500000000000000    0.3333333333333333    0.4166666666666666 T T T Te
   0.2500000000000000    0.6666666666666667    0.4166666666666666 T T T Au
   0.7500000000000000    0.3333333333333333    0.4166666666666666 T T T Au
   0.5000000000000000    0.0000000000000000    0.5000000000000000 F F F Na
   0.0000000000000000    0.0000000000000000    0.5000000000000000 F F F Na
   0.7500000000000000    0.6666666666666667    0.5000000000000000 F F F Te
   0.2500000000000000    0.3333333333333333    0.4999999999999999 F F F Te
   0.2500000000000000    0.6666666666666667    0.5000000000000000 F F F Au
   0.7500000000000000    0.3333333333333333    0.4999999999999999 F F F Au
   0.5000000000000000    0.0000000000000000    0.5833333333333333 T T T Na
   0.0000000000000000    0.0000000000000000    0.5833333333333333 T T T Na
   0.7500000000000000    0.6666666666666667    0.5833333333333333 T T T Te
   0.2500000000000000    0.3333333333333333    0.5833333333333333 T T T Te
   0.2500000000000000    0.6666666666666667    0.5833333333333333 T T T Au
   0.7500000000000000    0.3333333333333333    0.5833333333333333 T T T Au
   0.5000000000000000    0.0000000000000000    0.6666666666666666 T T T Na
   0.0000000000000000    0.0000000000000000    0.6666666666666666 T T T Na
   0.7500000000000000    0.6666666666666667    0.6666666666666666 T T T Te
   0.2500000000000000    0.3333333333333333    0.6666666666666666 T T T Te
   0.2500000000000000    0.6666666666666667    0.6666666666666666 T T T Au
   0.7500000000000000    0.3333333333333333    0.6666666666666666 T T T Au
