Ba16 Si32 Ni32
1.0
  10.8232291586781724    0.0000000000000000    6.5029827788275565
  10.8232291586781706   11.4542139441184787   -0.0000000000000025
   0.0000000000000000    0.0000000000000000   32.5149138941377913
Ba Si Ni Ba Si Ni
8 16 16 8 16 16
Selective dynamics
direct
   0.3525684191703684    0.7499999999999999    0.4144863161659263 T T T Ba
   0.8525684191703684    0.7499999999999999    0.3144863161659263 T T T Ba
   0.1474315808296317    0.2500000000000000    0.4555136838340736 F F F Ba
   0.6474315808296317    0.2500000000000000    0.3555136838340736 T T T Ba
   0.6025684191703685    0.7500000000000000    0.4644863161659263 F F F Ba
   0.1025684191703684    0.7499999999999999    0.3644863161659263 T T T Ba
   0.8974315808296318    0.2500000000000000    0.4055136838340736 T T T Ba
   0.3974315808296318    0.2500000000000000    0.3055136838340736 T T T Ba
   0.7203272794584659    0.4349829842005125    0.3409345441083068 T T T Si
   0.2203272794584659    0.4349829842005125    0.4409345441083068 F F F Si
   0.4097067521405093    0.9349829842005124    0.4030586495718981 T T T Si
   0.9097067521405093    0.9349829842005124    0.3030586495718981 T T T Si
   0.0902932478594909    0.0650170157994875    0.4669413504281018 F F F Si
   0.5902932478594909    0.0650170157994875    0.3669413504281018 T T T Si
   0.7796727205415341    0.5650170157994875    0.3290654558916932 T T T Si
   0.2796727205415341    0.5650170157994875    0.4290654558916931 F F F Si
   0.9703272794584660    0.4349829842005125    0.3909345441083068 T T T Si
   0.4703272794584660    0.4349829842005125    0.4909345441083068 F F F Si
   0.1597067521405091    0.9349829842005125    0.3530586495718981 T T T Si
   0.6597067521405091    0.9349829842005125    0.4530586495718981 F F F Si
   0.3402932478594910    0.0650170157994875    0.3169413504281018 T T T Si
   0.8402932478594909    0.0650170157994875    0.4169413504281018 T T T Si
   0.5296727205415341    0.5650170157994875    0.4790654558916931 F F F Si
   0.0296727205415341    0.5650170157994875    0.3790654558916932 T T T Si
   0.2500000000000001    0.0000000000000000    0.3757556430710470 T T T Ni
   0.7500000000000001    0.0000000000000000    0.4757556430710471 F F F Ni
   0.7500000000000001    0.4999999999999999    0.3942443569289529 T T T Ni
   0.2500000000000000    0.4999999999999999    0.4942443569289529 F F F Ni
   0.7500000000000001    0.5000000000000000    0.4757556430710471 F F F Ni
   0.2500000000000001    0.5000000000000000    0.3757556430710470 T T T Ni
   0.2500000000000000    0.0000000000000000    0.4942443569289529 F F F Ni
   0.7500000000000000    0.0000000000000000    0.3942443569289529 T T T Ni
   0.5000000000000001    0.0000000000000000    0.4257556430710471 F F F Ni
   0.0000000000000000    0.0000000000000000    0.3257556430710470 T T T Ni
   0.0000000000000001    0.5000000000000000    0.4442443569289528 F F F Ni
   0.5000000000000002    0.4999999999999999    0.3442443569289528 T T T Ni
   0.0000000000000001    0.5000000000000000    0.3257556430710470 T T T Ni
   0.5000000000000000    0.4999999999999999    0.4257556430710471 F F F Ni
   0.5000000000000001    0.0000000000000001    0.3442443569289528 T T T Ni
   0.0000000000000001    0.0000000000000000    0.4442443569289529 F F F Ni
   0.3525684191703684    0.7499999999999999    0.6144863161659263 T T T Ba
   0.8525684191703684    0.7499999999999999    0.5144863161659263 F F F Ba
   0.1474315808296317    0.2500000000000000    0.6555136838340736 T T T Ba
   0.6474315808296317    0.2500000000000000    0.5555136838340736 F F F Ba
   0.6025684191703685    0.7500000000000000    0.6644863161659262 T T T Ba
   0.1025684191703684    0.7499999999999999    0.5644863161659264 F F F Ba
   0.8974315808296318    0.2500000000000000    0.6055136838340736 T T T Ba
   0.3974315808296318    0.2500000000000000    0.5055136838340737 F F F Ba
   0.7203272794584659    0.4349829842005125    0.5409345441083069 F F F Si
   0.2203272794584659    0.4349829842005125    0.6409345441083067 T T T Si
   0.4097067521405093    0.9349829842005124    0.6030586495718981 T T T Si
   0.9097067521405093    0.9349829842005124    0.5030586495718981 F F F Si
   0.0902932478594909    0.0650170157994875    0.6669413504281019 T T T Si
   0.5902932478594909    0.0650170157994875    0.5669413504281018 F F F Si
   0.7796727205415341    0.5650170157994875    0.5290654558916932 F F F Si
   0.2796727205415341    0.5650170157994875    0.6290654558916932 T T T Si
   0.9703272794584660    0.4349829842005125    0.5909345441083068 T T T Si
   0.4703272794584660    0.4349829842005125    0.6909345441083068 T T T Si
   0.1597067521405091    0.9349829842005125    0.5530586495718981 F F F Si
   0.6597067521405091    0.9349829842005125    0.6530586495718982 T T T Si
   0.3402932478594910    0.0650170157994875    0.5169413504281017 F F F Si
   0.8402932478594909    0.0650170157994875    0.6169413504281018 T T T Si
   0.5296727205415341    0.5650170157994875    0.6790654558916931 T T T Si
   0.0296727205415341    0.5650170157994875    0.5790654558916932 T T T Si
   0.2500000000000001    0.0000000000000000    0.5757556430710471 T T T Ni
   0.7500000000000001    0.0000000000000000    0.6757556430710471 T T T Ni
   0.7500000000000001    0.4999999999999999    0.5942443569289528 T T T Ni
   0.2500000000000000    0.4999999999999999    0.6942443569289529 T T T Ni
   0.7500000000000001    0.5000000000000000    0.6757556430710471 T T T Ni
   0.2500000000000001    0.5000000000000000    0.5757556430710471 T T T Ni
   0.2500000000000000    0.0000000000000000    0.6942443569289529 T T T Ni
   0.7500000000000000    0.0000000000000000    0.5942443569289528 T T T Ni
   0.5000000000000001    0.0000000000000000    0.6257556430710471 T T T Ni
   0.0000000000000000    0.0000000000000000    0.5257556430710471 F F F Ni
   0.0000000000000001    0.5000000000000000    0.6442443569289529 T T T Ni
   0.5000000000000002    0.4999999999999999    0.5442443569289528 F F F Ni
   0.0000000000000001    0.5000000000000000    0.5257556430710471 F F F Ni
   0.5000000000000000    0.4999999999999999    0.6257556430710471 T T T Ni
   0.5000000000000001    0.0000000000000001    0.5442443569289528 F F F Ni
   0.0000000000000001    0.0000000000000000    0.6442443569289529 T T T Ni
