Ba24 Si48 Ni48
1.0
  13.0059655576551183    0.0000000000000000   -5.4116145793390826
   0.0000000000000018   11.4542139441184787   -5.4116145793390862
   0.0000000000000000    0.0000000000000000   37.8813020553736024
Ba Si Ni Ba Si Ni Ba Si Ni
8 16 16 8 16 16 8 16 16
Selective dynamics
direct
   0.0000000000000000    0.7499999999999999    0.3564090230941805 T T T Ba
   0.5000000000000000    0.7499999999999999    0.4278375945227519 F F F Ba
   0.0000000000000000    0.2500000000000000    0.3435909769058195 T T T Ba
   0.5000000000000000    0.2500000000000000    0.4150195483343910 F F F Ba
   0.2500000000000000    0.7499999999999999    0.3206947373798948 T T T Ba
   0.7500000000000000    0.7499999999999999    0.3921233088084662 F F F Ba
   0.2500000000000000    0.2499999999999999    0.3078766911915338 T T T Ba
   0.7500000000000000    0.2500000000000000    0.3793052626201052 T T T Ba
   0.0000000000000000    0.4349829842005125    0.2963374938403652 T T T Si
   0.5000000000000000    0.4349829842005125    0.3677660652689366 T T T Si
   0.0000000000000000    0.9349829842005124    0.3136576445026385 T T T Si
   0.5000000000000000    0.9349829842005124    0.3850862159312099 T T T Si
   0.0000000000000000    0.0650170157994874    0.3863423554973616 T T T Si
   0.5000000000000000    0.0650170157994875    0.3149137840687902 T T T Si
   0.0000000000000000    0.5650170157994875    0.4036625061596349 F F F Si
   0.5000000000000000    0.5650170157994875    0.3322339347310635 T T T Si
   0.2500000000000000    0.4349829842005125    0.4034803509832223 F F F Si
   0.7500000000000000    0.4349829842005125    0.3320517795546508 T T T Si
   0.2500000000000000    0.9349829842005125    0.4208005016454957 F F F Si
   0.7500000000000000    0.9349829842005124    0.3493719302169242 T T T Si
   0.2500000000000000    0.0650170157994875    0.3506280697830759 T T T Si
   0.7500000000000000    0.0650170157994875    0.4220566412116473 F F F Si
   0.2500000000000000    0.5650170157994874    0.3679482204453492 T T T Si
   0.7500000000000000    0.5650170157994874    0.2965196490167777 T T T Si
   0.3518891076776177    0.0000000000000000    0.4002698725253740 F F F Ni
   0.8518891076776178    0.0000000000000000    0.3288413010968026 T T T Ni
   0.1481108923223823    0.4999999999999999    0.2997301274746261 T T T Ni
   0.6481108923223823    0.4999999999999999    0.3711586989031975 T T T Ni
   0.3518891076776177    0.5000000000000000    0.3288413010968026 T T T Ni
   0.8518891076776178    0.4999999999999999    0.4002698725253740 F F F Ni
   0.1481108923223823    0.0000000000000000    0.3711586989031975 T T T Ni
   0.6481108923223823    0.0000000000000000    0.2997301274746261 T T T Ni
   0.1018891076776177    0.0000000000000000    0.2931270153825168 T T T Ni
   0.6018891076776177    0.0000000000000000    0.3645555868110882 T T T Ni
   0.3981108923223823    0.4999999999999999    0.4068729846174832 F F F Ni
   0.8981108923223822    0.4999999999999999    0.3354444131889118 T T T Ni
   0.1018891076776177    0.4999999999999999    0.3645555868110882 T T T Ni
   0.6018891076776177    0.4999999999999999    0.2931270153825168 T T T Ni
   0.3981108923223823    0.0000000000000000    0.3354444131889118 T T T Ni
   0.8981108923223822    0.0000000000000000    0.4068729846174832 F F F Ni
   0.0000000000000000    0.7499999999999999    0.4992661659513233 F F F Ba
   0.5000000000000000    0.7499999999999999    0.5706947373798947 F F F Ba
   0.0000000000000000    0.2500000000000000    0.4864481197629624 F F F Ba
   0.5000000000000000    0.2500000000000000    0.5578766911915338 F F F Ba
   0.2500000000000000    0.7499999999999999    0.4635518802370376 F F F Ba
   0.7500000000000000    0.7499999999999999    0.5349804516656091 F F F Ba
   0.2500000000000000    0.2499999999999999    0.4507338340486767 F F F Ba
   0.7500000000000000    0.2500000000000000    0.5221624054772481 F F F Ba
   0.0000000000000000    0.4349829842005125    0.4391946366975080 F F F Si
   0.5000000000000000    0.4349829842005125    0.5106232081260794 F F F Si
   0.0000000000000000    0.9349829842005124    0.4565147873597813 F F F Si
   0.5000000000000000    0.9349829842005124    0.5279433587883527 F F F Si
   0.0000000000000000    0.0650170157994874    0.5291994983545044 F F F Si
   0.5000000000000000    0.0650170157994875    0.4577709269259330 F F F Si
   0.0000000000000000    0.5650170157994875    0.5465196490167777 F F F Si
   0.5000000000000000    0.5650170157994875    0.4750910775882063 F F F Si
   0.2500000000000000    0.4349829842005125    0.5463374938403651 F F F Si
   0.7500000000000000    0.4349829842005125    0.4749089224117937 F F F Si
   0.2500000000000000    0.9349829842005125    0.5636576445026386 F F F Si
   0.7500000000000000    0.9349829842005124    0.4922290730740670 F F F Si
   0.2500000000000000    0.0650170157994875    0.4934852126402187 F F F Si
   0.7500000000000000    0.0650170157994875    0.5649137840687901 F F F Si
   0.2500000000000000    0.5650170157994874    0.5108053633024920 F F F Si
   0.7500000000000000    0.5650170157994874    0.4393767918739206 F F F Si
   0.3518891076776177    0.0000000000000000    0.5431270153825168 F F F Ni
   0.8518891076776178    0.0000000000000000    0.4716984439539454 F F F Ni
   0.1481108923223823    0.4999999999999999    0.4425872703317689 F F F Ni
   0.6481108923223823    0.4999999999999999    0.5140158417603404 F F F Ni
   0.3518891076776177    0.5000000000000000    0.4716984439539454 F F F Ni
   0.8518891076776178    0.4999999999999999    0.5431270153825168 F F F Ni
   0.1481108923223823    0.0000000000000000    0.5140158417603403 F F F Ni
   0.6481108923223823    0.0000000000000000    0.4425872703317689 F F F Ni
   0.1018891076776177    0.0000000000000000    0.4359841582396597 F F F Ni
   0.6018891076776177    0.0000000000000000    0.5074127296682311 F F F Ni
   0.3981108923223823    0.4999999999999999    0.5497301274746260 F F F Ni
   0.8981108923223822    0.4999999999999999    0.4783015560460546 F F F Ni
   0.1018891076776177    0.4999999999999999    0.5074127296682311 F F F Ni
   0.6018891076776177    0.4999999999999999    0.4359841582396596 F F F Ni
   0.3981108923223823    0.0000000000000000    0.4783015560460546 F F F Ni
   0.8981108923223822    0.0000000000000000    0.5497301274746260 F F F Ni
   0.0000000000000000    0.7499999999999999    0.6421233088084661 T T T Ba
   0.5000000000000000    0.7499999999999999    0.7135518802370376 T T T Ba
   0.0000000000000000    0.2500000000000000    0.6293052626201052 T T T Ba
   0.5000000000000000    0.2500000000000000    0.7007338340486766 T T T Ba
   0.2500000000000000    0.7499999999999999    0.6064090230941805 F F F Ba
   0.7500000000000000    0.7499999999999999    0.6778375945227519 T T T Ba
   0.2500000000000000    0.2499999999999999    0.5935909769058195 F F F Ba
   0.7500000000000000    0.2500000000000000    0.6650195483343909 T T T Ba
   0.0000000000000000    0.4349829842005125    0.5820517795546509 F F F Si
   0.5000000000000000    0.4349829842005125    0.6534803509832223 T T T Si
   0.0000000000000000    0.9349829842005124    0.5993719302169243 F F F Si
   0.5000000000000000    0.9349829842005124    0.6708005016454957 T T T Si
   0.0000000000000000    0.0650170157994874    0.6720566412116473 T T T Si
   0.5000000000000000    0.0650170157994875    0.6006280697830759 F F F Si
   0.0000000000000000    0.5650170157994875    0.6893767918739206 T T T Si
   0.5000000000000000    0.5650170157994875    0.6179482204453492 F F F Si
   0.2500000000000000    0.4349829842005125    0.6891946366975079 T T T Si
   0.7500000000000000    0.4349829842005125    0.6177660652689365 F F F Si
   0.2500000000000000    0.9349829842005125    0.7065147873597813 T T T Si
   0.7500000000000000    0.9349829842005124    0.6350862159312098 T T T Si
   0.2500000000000000    0.0650170157994875    0.6363423554973615 T T T Si
   0.7500000000000000    0.0650170157994875    0.7077709269259329 T T T Si
   0.2500000000000000    0.5650170157994874    0.6536625061596349 T T T Si
   0.7500000000000000    0.5650170157994874    0.5822339347310634 F F F Si
   0.3518891076776177    0.0000000000000000    0.6859841582396597 T T T Ni
   0.8518891076776178    0.0000000000000000    0.6145555868110884 F F F Ni
   0.1481108923223823    0.4999999999999999    0.5854444131889118 F F F Ni
   0.6481108923223823    0.4999999999999999    0.6568729846174832 T T T Ni
   0.3518891076776177    0.5000000000000000    0.6145555868110884 F F F Ni
   0.8518891076776178    0.4999999999999999    0.6859841582396597 T T T Ni
   0.1481108923223823    0.0000000000000000    0.6568729846174832 T T T Ni
   0.6481108923223823    0.0000000000000000    0.5854444131889118 F F F Ni
   0.1018891076776177    0.0000000000000000    0.5788413010968025 F F F Ni
   0.6018891076776177    0.0000000000000000    0.6502698725253739 T T T Ni
   0.3981108923223823    0.4999999999999999    0.6925872703317689 T T T Ni
   0.8981108923223822    0.4999999999999999    0.6211586989031974 T T T Ni
   0.1018891076776177    0.4999999999999999    0.6502698725253739 T T T Ni
   0.6018891076776177    0.4999999999999999    0.5788413010968025 F F F Ni
   0.3981108923223823    0.0000000000000000    0.6211586989031974 T T T Ni
   0.8981108923223822    0.0000000000000000    0.6925872703317689 T T T Ni
