Ba12 Cd24
1.0
   8.4857736165607101    0.0000000000000000   -5.3229793987438212
  -0.0000000000000005    8.7641829288933586   -5.3229793987438221
   0.0000000000000000    0.0000000000000000   37.2608557912067511
Ba Cd Ba Cd Ba Cd
4 8 4 8 4 8
Selective dynamics
direct
   0.7500000000000000    0.9515530457571072    0.3026028160605391 T T T Ba
   0.2500000000000000    0.0484469542428929    0.3878733744156514 T T T Ba
   0.2500000000000000    0.4515530457571071    0.3740313874891106 T T T Ba
   0.7500000000000000    0.5484469542428929    0.3164448029870800 T T T Ba
   0.5623827154084539    0.1639928085546440    0.3775774558042521 T T T Cd
   0.4376172845915461    0.8360071914453560    0.3128987346719384 T T T Cd
   0.4376172845915461    0.6639928085546442    0.3597538228304081 T T T Cd
   0.5623827154084539    0.3360071914453560    0.3307223676457824 T T T Cd
   0.0623827154084537    0.6639928085546440    0.3061488843756807 T T T Cd
   0.9376172845915461    0.3360071914453560    0.3843273061005099 T T T Cd
   0.9376172845915461    0.1639928085546440    0.4311823942589796 F F F Cd
   0.0623827154084537    0.8360071914453560    0.4021509390743538 T T T Cd
   0.7500000000000000    0.9515530457571072    0.4454599589176820 F F F Ba
   0.2500000000000000    0.0484469542428929    0.5307305172727943 F F F Ba
   0.2500000000000000    0.4515530457571071    0.5168885303462534 F F F Ba
   0.7500000000000000    0.5484469542428929    0.4593019458442228 F F F Ba
   0.5623827154084539    0.1639928085546440    0.5204345986613950 F F F Cd
   0.4376172845915461    0.8360071914453560    0.4557558775290813 F F F Cd
   0.4376172845915461    0.6639928085546442    0.5026109656875510 F F F Cd
   0.5623827154084539    0.3360071914453560    0.4735795105029252 F F F Cd
   0.0623827154084537    0.6639928085546440    0.4490060272328236 F F F Cd
   0.9376172845915461    0.3360071914453560    0.5271844489576527 F F F Cd
   0.9376172845915461    0.1639928085546440    0.5740395371161224 F F F Cd
   0.0623827154084537    0.8360071914453560    0.5450080819314966 F F F Cd
   0.7500000000000000    0.9515530457571072    0.5883171017748248 F F F Ba
   0.2500000000000000    0.0484469542428929    0.6735876601299371 T T T Ba
   0.2500000000000000    0.4515530457571071    0.6597456732033963 T T T Ba
   0.7500000000000000    0.5484469542428929    0.6021590887013657 F F F Ba
   0.5623827154084539    0.1639928085546440    0.6632917415185378 T T T Cd
   0.4376172845915461    0.8360071914453560    0.5986130203862241 F F F Cd
   0.4376172845915461    0.6639928085546442    0.6454681085446938 T T T Cd
   0.5623827154084539    0.3360071914453560    0.6164366533600680 T T T Cd
   0.0623827154084537    0.6639928085546440    0.5918631700899664 F F F Cd
   0.9376172845915461    0.3360071914453560    0.6700415918147955 T T T Cd
   0.9376172845915461    0.1639928085546440    0.7168966799732652 T T T Cd
   0.0623827154084537    0.8360071914453560    0.6878652247886395 T T T Cd
