Zr12 Sn12 Te12
1.0
   4.1093443234198572    0.0000000000000000    0.0000000000000003
   0.0000000000000028   17.5669598854756366   -4.1093443234198563
   0.0000000000000000    0.0000000000000000   28.7654102639389997
Zr Sn Te Zr Sn Te Zr Sn Te
4 4 4 4 4 4 4 4 4
Selective dynamics
direct
   0.0000000000000000    0.1320289583994558    0.3521946131046841 T T T Zr
   0.0000000000000000    0.6320289583994557    0.4236231845332555 F F F Zr
   0.5000000000000000    0.3679710416005442    0.3144720535619825 T T T Zr
   0.5000000000000000    0.8679710416005442    0.3859006249905539 T T T Zr
   0.0000000000000000    0.0000000000000000    0.4047619047619048 F F F Sn
   0.0000000000000000    0.5000000000000000    0.3333333333333333 T T T Sn
   0.5000000000000000    0.0000000000000000    0.3333333333333333 T T T Sn
   0.5000000000000000    0.5000000000000000    0.4047619047619048 F F F Sn
   0.0000000000000000    0.3096852511676324    0.3775740835001379 T T T Te
   0.0000000000000000    0.8096852511676323    0.3061455120715665 T T T Te
   0.5000000000000000    0.1903147488323676    0.2890925831665287 T T T Te
   0.5000000000000000    0.6903147488323677    0.3605211545951001 T T T Te
   0.0000000000000000    0.1320289583994558    0.4950517559618270 F F F Zr
   0.0000000000000000    0.6320289583994557    0.5664803273903984 F F F Zr
   0.5000000000000000    0.3679710416005442    0.4573291964191253 F F F Zr
   0.5000000000000000    0.8679710416005442    0.5287577678476967 F F F Zr
   0.0000000000000000    0.0000000000000000    0.5476190476190476 F F F Sn
   0.0000000000000000    0.5000000000000000    0.4761904761904762 F F F Sn
   0.5000000000000000    0.0000000000000000    0.4761904761904762 F F F Sn
   0.5000000000000000    0.5000000000000000    0.5476190476190476 F F F Sn
   0.0000000000000000    0.3096852511676324    0.5204312263572808 F F F Te
   0.0000000000000000    0.8096852511676323    0.4490026549287094 F F F Te
   0.5000000000000000    0.1903147488323676    0.4319497260236715 F F F Te
   0.5000000000000000    0.6903147488323677    0.5033782974522429 F F F Te
   0.0000000000000000    0.1320289583994558    0.6379088988189698 T T T Zr
   0.0000000000000000    0.6320289583994557    0.7093374702475412 T T T Zr
   0.5000000000000000    0.3679710416005442    0.6001863392762682 F F F Zr
   0.5000000000000000    0.8679710416005442    0.6716149107048396 T T T Zr
   0.0000000000000000    0.0000000000000000    0.6904761904761905 T T T Sn
   0.0000000000000000    0.5000000000000000    0.6190476190476191 T T T Sn
   0.5000000000000000    0.0000000000000000    0.6190476190476191 T T T Sn
   0.5000000000000000    0.5000000000000000    0.6904761904761905 T T T Sn
   0.0000000000000000    0.3096852511676324    0.6632883692144236 T T T Te
   0.0000000000000000    0.8096852511676323    0.5918597977858522 F F F Te
   0.5000000000000000    0.1903147488323676    0.5748068688808143 F F F Te
   0.5000000000000000    0.6903147488323677    0.6462354403093858 T T T Te
