Zr12 Ga18 Cu6
1.0
   9.9735133864512946    0.0000000000000000   -4.1621559172271327
   5.6136727574779828    4.9674981833224647    0.0000000000000005
   0.0000000000000000    0.0000000000000000   33.2972473378170619
Zr Ga Cu Zr Ga Cu Zr Ga Cu
4 6 2 4 6 2 4 6 2
Selective dynamics
direct
   0.2427296827887375    0.7980058670913381    0.4053412307652586 T T T Zr
   0.7475787234446912    0.2082523281025744    0.3434473608472528 T T T Zr
   0.7427296827887375    0.7980058670913381    0.4053412307652586 T T T Zr
   0.2475787234446912    0.2082523281025744    0.3434473608472528 T T T Zr
   0.4660434856892647    0.3847818679439062    0.3707554561278245 T T T Ga
   0.5331092708503907    0.7929376935779986    0.3166386792729653 T T T Ga
   0.4555237974048693    0.2043632255930451    0.4319404950922751 F F F Ga
   0.9660434856892646    0.3847818679439062    0.3707554561278245 T T T Ga
   0.0331092708503908    0.7929376935779986    0.3166386792729653 T T T Ga
   0.9555237974048693    0.2043632255930451    0.4319404950922751 F F F Ga
   0.5550140598220565    0.6116590176911312    0.3818767778944235 T T T Cu
   0.0550140598220567    0.6116590176911312    0.3818767778944235 T T T Cu
   0.2427296827887375    0.7980058670913381    0.5303412307652586 F F F Zr
   0.7475787234446912    0.2082523281025744    0.4684473608472528 F F F Zr
   0.7427296827887375    0.7980058670913381    0.5303412307652586 F F F Zr
   0.2475787234446912    0.2082523281025744    0.4684473608472528 F F F Zr
   0.4660434856892647    0.3847818679439062    0.4957554561278245 F F F Ga
   0.5331092708503907    0.7929376935779986    0.4416386792729653 F F F Ga
   0.4555237974048693    0.2043632255930451    0.5569404950922751 F F F Ga
   0.9660434856892646    0.3847818679439062    0.4957554561278245 F F F Ga
   0.0331092708503908    0.7929376935779986    0.4416386792729653 F F F Ga
   0.9555237974048693    0.2043632255930451    0.5569404950922751 F F F Ga
   0.5550140598220565    0.6116590176911312    0.5068767778944234 F F F Cu
   0.0550140598220567    0.6116590176911312    0.5068767778944235 F F F Cu
   0.2427296827887375    0.7980058670913381    0.6553412307652586 T T T Zr
   0.7475787234446912    0.2082523281025744    0.5934473608472528 T T T Zr
   0.7427296827887375    0.7980058670913381    0.6553412307652586 T T T Zr
   0.2475787234446912    0.2082523281025744    0.5934473608472528 T T T Zr
   0.4660434856892647    0.3847818679439062    0.6207554561278246 T T T Ga
   0.5331092708503907    0.7929376935779986    0.5666386792729653 F F F Ga
   0.4555237974048693    0.2043632255930451    0.6819404950922751 T T T Ga
   0.9660434856892646    0.3847818679439062    0.6207554561278246 T T T Ga
   0.0331092708503908    0.7929376935779986    0.5666386792729653 F F F Ga
   0.9555237974048693    0.2043632255930451    0.6819404950922751 T T T Ga
   0.5550140598220565    0.6116590176911312    0.6318767778944234 T T T Cu
   0.0550140598220567    0.6116590176911312    0.6318767778944235 T T T Cu
