Y12 Zn8 Au16
1.0
   3.8674600077665220    0.0000000000000000    0.0000000000000002
   0.0000000000000021   12.8904325574717333   -7.6597218591481129
   0.0000000000000000    0.0000000000000000   38.2986092957405688
Y Zn Au Y Zn Au
6 4 8 6 4 8
Selective dynamics
direct
   0.0000000000000000    0.0000000000000000    0.3937722289351900 T T T Y
   0.0000000000000000    0.8082778651899662    0.4315197157004058 F F F Y
   0.0000000000000000    0.1917221348100338    0.5082085696244193 F F F Y
   0.0000000000000000    0.5000000000000000    0.3937722289351900 T T T Y
   0.0000000000000000    0.3082778651899662    0.4315197157004058 F F F Y
   0.0000000000000000    0.6917221348100338    0.5082085696244193 F F F Y
   0.5000000000000000    0.1291397759576416    0.3633442004576367 T T T Zn
   0.5000000000000000    0.8708602240423584    0.3116882900745800 T T T Zn
   0.5000000000000000    0.6291397759576416    0.3633442004576367 T T T Zn
   0.5000000000000000    0.3708602240423583    0.3116882900745800 T T T Zn
   0.5000000000000000    0.1747389965607571    0.4434503037973997 F F F Au
   0.5000000000000000    0.8252610034392429    0.3735547051730969 T T T Au
   0.0000000000000000    0.0000000000000000    0.3163805389665275 T T T Au
   0.5000000000000000    0.0000000000000000    0.4580814472707442 F F F Au
   0.5000000000000000    0.6747389965607571    0.4434503037973997 F F F Au
   0.5000000000000000    0.3252610034392428    0.3735547051730969 T T T Au
   0.0000000000000000    0.5000000000000000    0.3163805389665275 T T T Au
   0.5000000000000000    0.5000000000000000    0.4580814472707442 F F F Au
   0.0000000000000000    0.0000000000000000    0.5937722289351900 F F F Y
   0.0000000000000000    0.8082778651899662    0.6315197157004058 T T T Y
   0.0000000000000000    0.1917221348100338    0.7082085696244192 T T T Y
   0.0000000000000000    0.5000000000000000    0.5937722289351900 F F F Y
   0.0000000000000000    0.3082778651899662    0.6315197157004058 T T T Y
   0.0000000000000000    0.6917221348100338    0.7082085696244194 T T T Y
   0.5000000000000000    0.1291397759576416    0.5633442004576367 F F F Zn
   0.5000000000000000    0.8708602240423584    0.5116882900745801 F F F Zn
   0.5000000000000000    0.6291397759576416    0.5633442004576367 F F F Zn
   0.5000000000000000    0.3708602240423583    0.5116882900745801 F F F Zn
   0.5000000000000000    0.1747389965607571    0.6434503037973998 T T T Au
   0.5000000000000000    0.8252610034392429    0.5735547051730969 F F F Au
   0.0000000000000000    0.0000000000000000    0.5163805389665275 F F F Au
   0.5000000000000000    0.0000000000000000    0.6580814472707442 T T T Au
   0.5000000000000000    0.6747389965607571    0.6434503037973998 T T T Au
   0.5000000000000000    0.3252610034392428    0.5735547051730969 F F F Au
   0.0000000000000000    0.5000000000000000    0.5163805389665275 F F F Au
   0.5000000000000000    0.5000000000000000    0.6580814472707441 T T T Au
