Y18 Zn12 Au24
1.0
   7.6597218591481138    0.0000000000000000    0.0000000000000005
  -0.0000000000000037   12.8904325574717351    3.8674600077665211
   0.0000000000000000    0.0000000000000000   30.9396800621321759
Y Zn Au Y Zn Au Y Zn Au
6 4 8 6 4 8 6 4 8
Selective dynamics
direct
   0.4133419302315013    0.0000000000000000    0.4201388888888890 F F F Y
   0.7938014988676141    0.1917221348100338    0.3961736220376347 T T T Y
   0.7938014988676141    0.8082778651899662    0.3191041557401432 T T T Y
   0.9133419302315013    0.5000000000000000    0.3576388888888890 T T T Y
   0.2938014988676141    0.6917221348100338    0.3336736220376347 T T T Y
   0.2938014988676141    0.3082778651899662    0.3816041557401432 T T T Y
   0.1320620118860930    0.8708602240423584    0.3737813608835941 T T T Zn
   0.1320620118860930    0.1291397759576416    0.3414964168941838 T T T Zn
   0.6320620118860931    0.3708602240423584    0.4362813608835941 F F F Zn
   0.6320620118860931    0.6291397759576417    0.4039964168941838 T T T Zn
   0.4869933079817929    0.8252610034392429    0.3794812634589836 T T T Au
   0.4869933079817927    0.1747389965607571    0.3357965143187943 T T T Au
   0.0263834803881885    0.0000000000000000    0.4201388888888890 F F F Au
   0.7348880219092723    0.0000000000000000    0.3576388888888890 T T T Au
   0.9869933079817930    0.3252610034392430    0.3169812634589836 T T T Au
   0.9869933079817930    0.6747389965607572    0.3982965143187943 T T T Au
   0.5263834803881886    0.5000000000000000    0.3576388888888890 T T T Au
   0.2348880219092723    0.5000000000000000    0.4201388888888890 F F F Au
   0.4133419302315013    0.0000000000000000    0.5451388888888890 F F F Y
   0.7938014988676141    0.1917221348100338    0.5211736220376347 F F F Y
   0.7938014988676141    0.8082778651899662    0.4441041557401432 F F F Y
   0.9133419302315013    0.5000000000000000    0.4826388888888890 F F F Y
   0.2938014988676141    0.6917221348100338    0.4586736220376347 F F F Y
   0.2938014988676141    0.3082778651899662    0.5066041557401432 F F F Y
   0.1320620118860930    0.8708602240423584    0.4987813608835941 F F F Zn
   0.1320620118860930    0.1291397759576416    0.4664964168941838 F F F Zn
   0.6320620118860931    0.3708602240423584    0.5612813608835941 F F F Zn
   0.6320620118860931    0.6291397759576417    0.5289964168941838 F F F Zn
   0.4869933079817929    0.8252610034392429    0.5044812634589836 F F F Au
   0.4869933079817927    0.1747389965607571    0.4607965143187943 F F F Au
   0.0263834803881885    0.0000000000000000    0.5451388888888890 F F F Au
   0.7348880219092723    0.0000000000000000    0.4826388888888890 F F F Au
   0.9869933079817930    0.3252610034392430    0.4419812634589836 F F F Au
   0.9869933079817930    0.6747389965607572    0.5232965143187943 F F F Au
   0.5263834803881886    0.5000000000000000    0.4826388888888890 F F F Au
   0.2348880219092723    0.5000000000000000    0.5451388888888890 F F F Au
   0.4133419302315013    0.0000000000000000    0.6701388888888890 T T T Y
   0.7938014988676141    0.1917221348100338    0.6461736220376347 T T T Y
   0.7938014988676141    0.8082778651899662    0.5691041557401432 F F F Y
   0.9133419302315013    0.5000000000000000    0.6076388888888890 T T T Y
   0.2938014988676141    0.6917221348100338    0.5836736220376347 F F F Y
   0.2938014988676141    0.3082778651899662    0.6316041557401432 T T T Y
   0.1320620118860930    0.8708602240423584    0.6237813608835941 T T T Zn
   0.1320620118860930    0.1291397759576416    0.5914964168941838 T T T Zn
   0.6320620118860931    0.3708602240423584    0.6862813608835941 T T T Zn
   0.6320620118860931    0.6291397759576417    0.6539964168941838 T T T Zn
   0.4869933079817929    0.8252610034392429    0.6294812634589836 T T T Au
   0.4869933079817927    0.1747389965607571    0.5857965143187943 T T T Au
   0.0263834803881885    0.0000000000000000    0.6701388888888890 T T T Au
   0.7348880219092723    0.0000000000000000    0.6076388888888890 T T T Au
   0.9869933079817930    0.3252610034392430    0.5669812634589836 F F F Au
   0.9869933079817930    0.6747389965607572    0.6482965143187943 T T T Au
   0.5263834803881886    0.5000000000000000    0.6076388888888890 T T T Au
   0.2348880219092723    0.5000000000000000    0.6701388888888890 T T T Au
