Sc32 Mn32 Rh64
1.0
  12.5423058667415077    0.0000000000000000   -6.2711529333707539
  -0.0000000000000036   12.5423058667415077   -6.2711529333707539
   0.0000000000000000    0.0000000000000000   31.3557646668537693
Sc Mn Rh Sc Mn Rh
16 16 32 16 16 32
Selective dynamics
direct
   0.5000000000000000    0.4999999999999999    0.4750000000000000 F F F Sc
   0.0000000000000000    0.0000000000000000    0.4750000000000000 F F F Sc
   0.0000000000000000    0.5000000000000000    0.3750000000000000 T T T Sc
   0.5000000000000000    0.0000000000000000    0.3750000000000000 T T T Sc
   0.7500000000000000    0.7499999999999999    0.3750000000000000 T T T Sc
   0.2500000000000000    0.2500000000000000    0.3750000000000000 T T T Sc
   0.2500000000000000    0.7500000000000000    0.4750000000000000 F F F Sc
   0.7500000000000000    0.2500000000000000    0.4750000000000000 F F F Sc
   0.5000000000000000    0.7500000000000000    0.4249999999999999 T T T Sc
   0.0000000000000000    0.2500000000000000    0.4250000000000000 T T T Sc
   0.0000000000000000    0.7500000000000000    0.3250000000000000 T T T Sc
   0.5000000000000000    0.2500000000000000    0.3250000000000000 T T T Sc
   0.7500000000000000    0.4999999999999999    0.4249999999999999 T T T Sc
   0.2500000000000000    0.0000000000000000    0.4250000000000000 T T T Sc
   0.2500000000000000    0.5000000000000000    0.3250000000000000 T T T Sc
   0.7500000000000000    0.0000000000000000    0.3250000000000000 T T T Sc
   0.5000000000000000    0.4999999999999999    0.3750000000000000 T T T Mn
   0.0000000000000000    0.0000000000000000    0.3750000000000000 T T T Mn
   0.0000000000000000    0.5000000000000000    0.4750000000000000 F F F Mn
   0.5000000000000000    0.0000000000000000    0.4750000000000000 F F F Mn
   0.7500000000000000    0.7499999999999999    0.4750000000000000 F F F Mn
   0.2500000000000000    0.2500000000000000    0.4750000000000000 F F F Mn
   0.2500000000000000    0.7500000000000000    0.3750000000000000 T T T Mn
   0.7500000000000000    0.2500000000000000    0.3749999999999999 T T T Mn
   0.5000000000000000    0.7500000000000000    0.3250000000000000 T T T Mn
   0.0000000000000000    0.2500000000000000    0.3250000000000000 T T T Mn
   0.0000000000000000    0.7500000000000000    0.4250000000000000 T T T Mn
   0.5000000000000000    0.2500000000000000    0.4249999999999999 T T T Mn
   0.7500000000000000    0.4999999999999999    0.3250000000000000 T T T Mn
   0.2500000000000000    0.0000000000000000    0.3250000000000000 T T T Mn
   0.2500000000000000    0.5000000000000000    0.4250000000000000 T T T Mn
   0.7500000000000000    0.0000000000000000    0.4249999999999999 T T T Mn
   0.8749999999999999    0.8749999999999999    0.4750000000000000 F F F Rh
   0.3750000000000000    0.3749999999999999    0.4750000000000000 F F F Rh
   0.3750000000000000    0.8749999999999999    0.3749999999999999 T T T Rh
   0.8749999999999999    0.3749999999999999    0.3749999999999999 T T T Rh
   0.6250000000000000    0.8749999999999999    0.4249999999999999 T T T Rh
   0.1250000000000000    0.3750000000000000    0.4250000000000000 T T T Rh
   0.1250000000000000    0.8749999999999999    0.3250000000000000 T T T Rh
   0.6250000000000000    0.3749999999999999    0.3250000000000000 T T T Rh
   0.6250000000000000    0.6249999999999999    0.3749999999999999 T T T Rh
   0.1250000000000000    0.1250000000000000    0.3750000000000000 T T T Rh
   0.1250000000000000    0.6250000000000000    0.4750000000000000 F F F Rh
   0.6250000000000000    0.1250000000000000    0.4750000000000000 F F F Rh
   0.8749999999999999    0.6250000000000000    0.4249999999999999 T T T Rh
   0.3750000000000000    0.1250000000000000    0.4249999999999999 T T T Rh
   0.3750000000000000    0.6250000000000000    0.3250000000000000 T T T Rh
   0.8749999999999999    0.1250000000000000    0.3250000000000000 T T T Rh
   0.8749999999999999    0.6250000000000000    0.3250000000000000 T T T Rh
   0.3750000000000000    0.1250000000000000    0.3250000000000000 T T T Rh
   0.3750000000000000    0.6250000000000000    0.4250000000000000 T T T Rh
   0.8749999999999999    0.1250000000000000    0.4249999999999999 T T T Rh
   0.6250000000000000    0.6250000000000000    0.4750000000000000 F F F Rh
   0.1250000000000000    0.1250000000000000    0.4750000000000000 F F F Rh
   0.1250000000000000    0.6250000000000001    0.3750000000000000 T T T Rh
   0.6250000000000000    0.1250000000000000    0.3749999999999999 T T T Rh
   0.6250000000000000    0.8749999999999999    0.3250000000000000 T T T Rh
   0.1250000000000000    0.3750000000000000    0.3250000000000000 T T T Rh
   0.1250000000000000    0.8749999999999999    0.4249999999999999 T T T Rh
   0.6250000000000000    0.3749999999999999    0.4249999999999999 T T T Rh
   0.8749999999999999    0.8750000000000000    0.3749999999999999 T T T Rh
   0.3750000000000000    0.3750000000000001    0.3750000000000000 T T T Rh
   0.3750000000000000    0.8750000000000000    0.4750000000000000 F F F Rh
   0.8749999999999999    0.3750000000000000    0.4750000000000000 F F F Rh
   0.5000000000000000    0.4999999999999999    0.6750000000000000 T T T Sc
   0.0000000000000000    0.0000000000000000    0.6750000000000000 T T T Sc
   0.0000000000000000    0.5000000000000000    0.5750000000000000 T T T Sc
   0.5000000000000000    0.0000000000000000    0.5750000000000000 T T T Sc
   0.7500000000000000    0.7499999999999999    0.5750000000000000 T T T Sc
   0.2500000000000000    0.2500000000000000    0.5750000000000000 T T T Sc
   0.2500000000000000    0.7500000000000000    0.6750000000000000 T T T Sc
   0.7500000000000000    0.2500000000000000    0.6750000000000000 T T T Sc
   0.5000000000000000    0.7500000000000000    0.6250000000000000 T T T Sc
   0.0000000000000000    0.2500000000000000    0.6250000000000000 T T T Sc
   0.0000000000000000    0.7500000000000000    0.5250000000000000 F F F Sc
   0.5000000000000000    0.2500000000000000    0.5250000000000000 F F F Sc
   0.7500000000000000    0.4999999999999999    0.6250000000000000 T T T Sc
   0.2500000000000000    0.0000000000000000    0.6250000000000000 T T T Sc
   0.2500000000000000    0.5000000000000000    0.5250000000000000 F F F Sc
   0.7500000000000000    0.0000000000000000    0.5249999999999999 F F F Sc
   0.5000000000000000    0.4999999999999999    0.5750000000000000 T T T Mn
   0.0000000000000000    0.0000000000000000    0.5750000000000000 T T T Mn
   0.0000000000000000    0.5000000000000000    0.6750000000000000 T T T Mn
   0.5000000000000000    0.0000000000000000    0.6750000000000000 T T T Mn
   0.7500000000000000    0.7499999999999999    0.6750000000000000 T T T Mn
   0.2500000000000000    0.2500000000000000    0.6750000000000000 T T T Mn
   0.2500000000000000    0.7500000000000000    0.5750000000000000 T T T Mn
   0.7500000000000000    0.2500000000000000    0.5750000000000000 T T T Mn
   0.5000000000000000    0.7500000000000000    0.5249999999999999 F F F Mn
   0.0000000000000000    0.2500000000000000    0.5250000000000000 F F F Mn
   0.0000000000000000    0.7500000000000000    0.6250000000000000 T T T Mn
   0.5000000000000000    0.2500000000000000    0.6250000000000000 T T T Mn
   0.7500000000000000    0.4999999999999999    0.5250000000000000 F F F Mn
   0.2500000000000000    0.0000000000000000    0.5250000000000000 F F F Mn
   0.2500000000000000    0.5000000000000000    0.6250000000000000 T T T Mn
   0.7500000000000000    0.0000000000000000    0.6250000000000000 T T T Mn
   0.8749999999999999    0.8749999999999999    0.6750000000000000 T T T Rh
   0.3750000000000000    0.3749999999999999    0.6750000000000000 T T T Rh
   0.3750000000000000    0.8749999999999999    0.5750000000000000 T T T Rh
   0.8749999999999999    0.3749999999999999    0.5750000000000000 T T T Rh
   0.6250000000000000    0.8749999999999999    0.6250000000000000 T T T Rh
   0.1250000000000000    0.3750000000000000    0.6250000000000000 T T T Rh
   0.1250000000000000    0.8749999999999999    0.5250000000000000 F F F Rh
   0.6250000000000000    0.3749999999999999    0.5250000000000000 F F F Rh
   0.6250000000000000    0.6249999999999999    0.5750000000000000 T T T Rh
   0.1250000000000000    0.1250000000000000    0.5750000000000000 T T T Rh
   0.1250000000000000    0.6250000000000000    0.6750000000000000 T T T Rh
   0.6250000000000000    0.1250000000000000    0.6750000000000000 T T T Rh
   0.8749999999999999    0.6250000000000000    0.6250000000000000 T T T Rh
   0.3750000000000000    0.1250000000000000    0.6250000000000000 T T T Rh
   0.3750000000000000    0.6250000000000000    0.5250000000000000 F F F Rh
   0.8749999999999999    0.1250000000000000    0.5249999999999999 F F F Rh
   0.8749999999999999    0.6250000000000000    0.5249999999999999 F F F Rh
   0.3750000000000000    0.1250000000000000    0.5250000000000000 F F F Rh
   0.3750000000000000    0.6250000000000000    0.6250000000000000 T T T Rh
   0.8749999999999999    0.1250000000000000    0.6250000000000000 T T T Rh
   0.6250000000000000    0.6250000000000000    0.6750000000000000 T T T Rh
   0.1250000000000000    0.1250000000000000    0.6750000000000000 T T T Rh
   0.1250000000000000    0.6250000000000001    0.5750000000000000 T T T Rh
   0.6250000000000000    0.1250000000000000    0.5750000000000000 T T T Rh
   0.6250000000000000    0.8749999999999999    0.5249999999999999 F F F Rh
   0.1250000000000000    0.3750000000000000    0.5250000000000000 F F F Rh
   0.1250000000000000    0.8749999999999999    0.6250000000000000 T T T Rh
   0.6250000000000000    0.3749999999999999    0.6250000000000000 T T T Rh
   0.8749999999999999    0.8750000000000000    0.5750000000000000 T T T Rh
   0.3750000000000000    0.3750000000000001    0.5750000000000000 T T T Rh
   0.3750000000000000    0.8750000000000000    0.6750000000000000 T T T Rh
   0.8749999999999999    0.3750000000000000    0.6750000000000000 T T T Rh
