Sr24 Pt12 Au12
1.0
  12.1935324762159887    0.0000000000000000    0.0000000000000007
   3.0038479210880911    8.0144826424278861    4.6507998673721973
   0.0000000000000000    0.0000000000000000   32.5555990716053927
Sr Pt Au Sr Pt Au Sr Pt Au
8 4 4 8 4 4 8 4 4
Selective dynamics
direct
   0.8603582070416067    0.0698208964791966    0.2935969971101147 T T T Sr
   0.8603582070416067    0.5698208964791966    0.3650255685386862 T T T Sr
   0.6393091401467217    0.9303454299266392    0.3849506351890515 T T T Sr
   0.6393091401467217    0.4303454299266392    0.3135220637604801 T T T Sr
   0.3603582070416067    0.0698208964791967    0.2935969971101147 T T T Sr
   0.3603582070416067    0.5698208964791966    0.3650255685386862 T T T Sr
   0.1393091401467217    0.4303454299266392    0.3135220637604800 T T T Sr
   0.1393091401467217    0.9303454299266392    0.3849506351890515 T T T Sr
   0.5755282023039429    0.2122358988480286    0.4161091396288530 F F F Pt
   0.5755282023039429    0.7122358988480286    0.3446805682002816 T T T Pt
   0.0755282023039427    0.2122358988480286    0.4161091396288530 F F F Pt
   0.0755282023039427    0.7122358988480286    0.3446805682002816 T T T Pt
   0.9248054405077325    0.7875972797461337    0.4053432280719809 F F F Au
   0.9248054405077325    0.2875972797461337    0.3339146566434094 T T T Au
   0.4248054405077326    0.2875972797461337    0.3339146566434094 T T T Au
   0.4248054405077326    0.7875972797461337    0.4053432280719809 F F F Au
   0.8603582070416067    0.0698208964791966    0.4364541399672576 F F F Sr
   0.8603582070416067    0.5698208964791966    0.5078827113958290 F F F Sr
   0.6393091401467217    0.9303454299266392    0.5278077780461943 F F F Sr
   0.6393091401467217    0.4303454299266392    0.4563792066176229 F F F Sr
   0.3603582070416067    0.0698208964791967    0.4364541399672576 F F F Sr
   0.3603582070416067    0.5698208964791966    0.5078827113958291 F F F Sr
   0.1393091401467217    0.4303454299266392    0.4563792066176229 F F F Sr
   0.1393091401467217    0.9303454299266392    0.5278077780461943 F F F Sr
   0.5755282023039429    0.2122358988480286    0.5589662824859959 F F F Pt
   0.5755282023039429    0.7122358988480286    0.4875377110574244 F F F Pt
   0.0755282023039427    0.2122358988480286    0.5589662824859959 F F F Pt
   0.0755282023039427    0.7122358988480286    0.4875377110574244 F F F Pt
   0.9248054405077325    0.7875972797461337    0.5482003709291237 F F F Au
   0.9248054405077325    0.2875972797461337    0.4767717995005523 F F F Au
   0.4248054405077326    0.2875972797461337    0.4767717995005523 F F F Au
   0.4248054405077326    0.7875972797461337    0.5482003709291237 F F F Au
   0.8603582070416067    0.0698208964791966    0.5793112828244005 F F F Sr
   0.8603582070416067    0.5698208964791966    0.6507398542529719 T T T Sr
   0.6393091401467217    0.9303454299266392    0.6706649209033372 T T T Sr
   0.6393091401467217    0.4303454299266392    0.5992363494747658 T T T Sr
   0.3603582070416067    0.0698208964791967    0.5793112828244005 F F F Sr
   0.3603582070416067    0.5698208964791966    0.6507398542529719 T T T Sr
   0.1393091401467217    0.4303454299266392    0.5992363494747657 T T T Sr
   0.1393091401467217    0.9303454299266392    0.6706649209033372 T T T Sr
   0.5755282023039429    0.2122358988480286    0.7018234253431387 T T T Pt
   0.5755282023039429    0.7122358988480286    0.6303948539145673 T T T Pt
   0.0755282023039427    0.2122358988480286    0.7018234253431387 T T T Pt
   0.0755282023039427    0.7122358988480286    0.6303948539145673 T T T Pt
   0.9248054405077325    0.7875972797461337    0.6910575137862666 T T T Au
   0.9248054405077325    0.2875972797461337    0.6196289423576951 T T T Au
   0.4248054405077326    0.2875972797461337    0.6196289423576951 T T T Au
   0.4248054405077326    0.7875972797461337    0.6910575137862666 T T T Au
