Sr16 Pt8 Au8
1.0
  11.4179015435776670    0.0000000000000000   -8.5589154896402082
  -0.0000000000000044    4.6507998673721973   -4.2794577448201077
   0.0000000000000000    0.0000000000000000   42.7945774482010535
Sr Pt Au Sr Pt Au Sr Pt Au Sr Pt Au
4 2 2 4 2 2 4 2 2 4 2 2
Selective dynamics
direct
   0.8603582070416068    0.5000000000000002    0.3970715919083211 T T T Sr
   0.6393091401467218    0.0000000000000002    0.3528617785293441 T T T Sr
   0.3603582070416068    0.5000000000000002    0.3470715919083212 T T T Sr
   0.1393091401467217    0.0000000000000000    0.3028617785293442 T T T Sr
   0.5755282023039430    0.5000000000000002    0.3401055909607884 T T T Pt
   0.0755282023039428    0.5000000000000001    0.3901055909607883 T T T Pt
   0.9248054405077327    0.0000000000000003    0.3099610386015463 T T T Au
   0.4248054405077327    0.0000000000000001    0.3599610386015463 T T T Au
   0.8603582070416068    0.5000000000000002    0.4970715919083211 F F F Sr
   0.6393091401467218    0.0000000000000002    0.4528617785293442 F F F Sr
   0.3603582070416068    0.5000000000000002    0.4470715919083211 F F F Sr
   0.1393091401467217    0.0000000000000000    0.4028617785293441 T T T Sr
   0.5755282023039430    0.5000000000000002    0.4401055909607884 F F F Pt
   0.0755282023039428    0.5000000000000001    0.4901055909607883 F F F Pt
   0.9248054405077327    0.0000000000000003    0.4099610386015463 T T T Au
   0.4248054405077327    0.0000000000000001    0.4599610386015464 F F F Au
   0.8603582070416068    0.5000000000000002    0.5970715919083212 T T T Sr
   0.6393091401467218    0.0000000000000002    0.5528617785293442 F F F Sr
   0.3603582070416068    0.5000000000000002    0.5470715919083211 F F F Sr
   0.1393091401467217    0.0000000000000000    0.5028617785293441 F F F Sr
   0.5755282023039430    0.5000000000000002    0.5401055909607884 F F F Pt
   0.0755282023039428    0.5000000000000001    0.5901055909607884 T T T Pt
   0.9248054405077327    0.0000000000000003    0.5099610386015463 F F F Au
   0.4248054405077327    0.0000000000000001    0.5599610386015463 F F F Au
   0.8603582070416068    0.5000000000000002    0.6970715919083211 T T T Sr
   0.6393091401467218    0.0000000000000002    0.6528617785293441 T T T Sr
   0.3603582070416068    0.5000000000000002    0.6470715919083212 T T T Sr
   0.1393091401467217    0.0000000000000000    0.6028617785293442 T T T Sr
   0.5755282023039430    0.5000000000000002    0.6401055909607885 T T T Pt
   0.0755282023039428    0.5000000000000001    0.6901055909607883 T T T Pt
   0.9248054405077327    0.0000000000000003    0.6099610386015464 T T T Au
   0.4248054405077327    0.0000000000000001    0.6599610386015463 T T T Au
