Sr24 Pt12 Au12
1.0
  12.1935324762159887    0.0000000000000000    0.0000000000000007
   3.0038479210880911    8.0144826424278861    4.6507998673721973
   0.0000000000000000    0.0000000000000000   32.5555990716053927
Sr Pt Au Sr Pt Au Sr Pt Au
8 4 4 8 4 4 8 4 4
Selective dynamics
direct
   0.8603582070416067    0.0698208964791966    0.3114541399672576 T T T Sr
   0.8603582070416067    0.5698208964791966    0.3828827113958290 T T T Sr
   0.6393091401467217    0.9303454299266392    0.4028077780461944 F F F Sr
   0.6393091401467217    0.4303454299266392    0.3313792066176229 T T T Sr
   0.3603582070416067    0.0698208964791967    0.3114541399672576 T T T Sr
   0.3603582070416067    0.5698208964791966    0.3828827113958290 T T T Sr
   0.1393091401467217    0.4303454299266392    0.3313792066176229 T T T Sr
   0.1393091401467217    0.9303454299266392    0.4028077780461944 F F F Sr
   0.5755282023039429    0.2122358988480286    0.2911091396288530 T T T Pt
   0.5755282023039429    0.7122358988480286    0.3625377110574244 T T T Pt
   0.0755282023039427    0.2122358988480286    0.2911091396288530 T T T Pt
   0.0755282023039427    0.7122358988480286    0.3625377110574244 T T T Pt
   0.9248054405077325    0.7875972797461337    0.4232003709291237 F F F Au
   0.9248054405077325    0.2875972797461337    0.3517717995005523 T T T Au
   0.4248054405077326    0.2875972797461337    0.3517717995005523 T T T Au
   0.4248054405077326    0.7875972797461337    0.4232003709291237 F F F Au
   0.8603582070416067    0.0698208964791966    0.4543112828244004 F F F Sr
   0.8603582070416067    0.5698208964791966    0.5257398542529719 F F F Sr
   0.6393091401467217    0.9303454299266392    0.5456649209033372 F F F Sr
   0.6393091401467217    0.4303454299266392    0.4742363494747658 F F F Sr
   0.3603582070416067    0.0698208964791967    0.4543112828244004 F F F Sr
   0.3603582070416067    0.5698208964791966    0.5257398542529719 F F F Sr
   0.1393091401467217    0.4303454299266392    0.4742363494747658 F F F Sr
   0.1393091401467217    0.9303454299266392    0.5456649209033372 F F F Sr
   0.5755282023039429    0.2122358988480286    0.4339662824859959 F F F Pt
   0.5755282023039429    0.7122358988480286    0.5053948539145673 F F F Pt
   0.0755282023039427    0.2122358988480286    0.4339662824859959 F F F Pt
   0.0755282023039427    0.7122358988480286    0.5053948539145673 F F F Pt
   0.9248054405077325    0.7875972797461337    0.5660575137862666 F F F Au
   0.9248054405077325    0.2875972797461337    0.4946289423576951 F F F Au
   0.4248054405077326    0.2875972797461337    0.4946289423576951 F F F Au
   0.4248054405077326    0.7875972797461337    0.5660575137862666 F F F Au
   0.8603582070416067    0.0698208964791966    0.5971684256815433 F F F Sr
   0.8603582070416067    0.5698208964791966    0.6685969971101147 T T T Sr
   0.6393091401467217    0.9303454299266392    0.6885220637604801 T T T Sr
   0.6393091401467217    0.4303454299266392    0.6170934923319087 T T T Sr
   0.3603582070416067    0.0698208964791967    0.5971684256815433 F F F Sr
   0.3603582070416067    0.5698208964791966    0.6685969971101147 T T T Sr
   0.1393091401467217    0.4303454299266392    0.6170934923319087 T T T Sr
   0.1393091401467217    0.9303454299266392    0.6885220637604801 T T T Sr
   0.5755282023039429    0.2122358988480286    0.5768234253431387 F F F Pt
   0.5755282023039429    0.7122358988480286    0.6482519967717102 T T T Pt
   0.0755282023039427    0.2122358988480286    0.5768234253431387 F F F Pt
   0.0755282023039427    0.7122358988480286    0.6482519967717102 T T T Pt
   0.9248054405077325    0.7875972797461337    0.7089146566434095 T T T Au
   0.9248054405077325    0.2875972797461337    0.6374860852148380 T T T Au
   0.4248054405077326    0.2875972797461337    0.6374860852148380 T T T Au
   0.4248054405077326    0.7875972797461337    0.7089146566434095 T T T Au
