Fe8 Te16
1.0
   5.2559050402037935    0.0000000000000000   -3.8905008910480454
  -0.0000000000000032    6.2542456153764059   -3.8905008910480459
   0.0000000000000000    0.0000000000000000   38.9050089104804471
Fe Te Fe Te Fe Te Fe Te
2 4 2 4 2 4 2 4
Selective dynamics
direct
   0.0000000000000000    0.0000000000000000    0.3916666666666667 T T T Fe
   0.5000000000000000    0.5000000000000000    0.3416666666666667 T T T Fe
   0.2271726083822330    0.3614964773985889    0.3505335752447489 T T T Te
   0.7728273916177670    0.6385035226014111    0.3327997580885845 T T T Te
   0.2728273916177670    0.8614964773985889    0.3550990535683023 T T T Te
   0.7271726083822330    0.1385035226014111    0.3282342797650311 T T T Te
   0.0000000000000000    0.0000000000000000    0.4916666666666667 F F F Fe
   0.5000000000000000    0.5000000000000000    0.4416666666666668 F F F Fe
   0.2271726083822330    0.3614964773985889    0.4505335752447489 F F F Te
   0.7728273916177670    0.6385035226014111    0.4327997580885845 T T T Te
   0.2728273916177670    0.8614964773985889    0.4550990535683023 F F F Te
   0.7271726083822330    0.1385035226014111    0.4282342797650311 T T T Te
   0.0000000000000000    0.0000000000000000    0.5916666666666667 T T T Fe
   0.5000000000000000    0.5000000000000000    0.5416666666666667 F F F Fe
   0.2271726083822330    0.3614964773985889    0.5505335752447489 F F F Te
   0.7728273916177670    0.6385035226014111    0.5327997580885846 F F F Te
   0.2728273916177670    0.8614964773985889    0.5550990535683024 F F F Te
   0.7271726083822330    0.1385035226014111    0.5282342797650311 F F F Te
   0.0000000000000000    0.0000000000000000    0.6916666666666667 T T T Fe
   0.5000000000000000    0.5000000000000000    0.6416666666666667 T T T Fe
   0.2271726083822330    0.3614964773985889    0.6505335752447489 T T T Te
   0.7728273916177670    0.6385035226014111    0.6327997580885845 T T T Te
   0.2728273916177670    0.8614964773985889    0.6550990535683023 T T T Te
   0.7271726083822330    0.1385035226014111    0.6282342797650311 T T T Te
