Rb24 As24 Pt12
1.0
  14.7461425109068127    0.0000000000000000    0.0000000000000009
  -0.0000000000000019    6.8067515708398316    6.3946469832731090
   0.0000000000000000    0.0000000000000000   44.7625288829117594
Rb As Pt Rb As Pt Rb As Pt
8 8 4 8 8 4 8 8 4
Selective dynamics
direct
   0.2942815820030162    0.5000000000000000    0.3142857142857144 T T T Rb
   0.4169961337555002    0.0000000000000000    0.3857142857142858 F F F Rb
   0.2057184179969838    0.0000000000000000    0.3142857142857144 T T T Rb
   0.0830038662444998    0.5000000000000000    0.3857142857142858 F F F Rb
   0.7942815820030164    0.0000000000000000    0.3857142857142858 F F F Rb
   0.9169961337555002    0.5000000000000000    0.3142857142857144 T T T Rb
   0.7057184179969838    0.5000000000000000    0.3857142857142858 F F F Rb
   0.5830038662444998    0.0000000000000000    0.3142857142857144 T T T Rb
   0.1042384850192022    0.8196408400419983    0.4114798799940003 F F F As
   0.3957615149807978    0.3196408400419983    0.4114798799940003 F F F As
   0.3957615149807978    0.6803591599580017    0.3599486914345713 T T T As
   0.1042384850192022    0.1803591599580017    0.3599486914345713 T T T As
   0.6042384850192022    0.3196408400419982    0.3400513085654289 T T T As
   0.8957615149807978    0.8196408400419983    0.3400513085654289 T T T As
   0.8957615149807978    0.1803591599580018    0.2885201200059999 T T T As
   0.6042384850192022    0.6803591599580017    0.2885201200059999 T T T As
   0.0000000000000000    0.0000000000000000    0.4214285714285715 F F F Pt
   0.0000000000000000    0.0000000000000000    0.3500000000000001 T T T Pt
   0.5000000000000000    0.5000000000000000    0.3500000000000001 T T T Pt
   0.5000000000000000    0.5000000000000000    0.4214285714285715 F F F Pt
   0.2942815820030162    0.5000000000000000    0.4571428571428572 F F F Rb
   0.4169961337555002    0.0000000000000000    0.5285714285714287 F F F Rb
   0.2057184179969838    0.0000000000000000    0.4571428571428572 F F F Rb
   0.0830038662444998    0.5000000000000000    0.5285714285714287 F F F Rb
   0.7942815820030164    0.0000000000000000    0.5285714285714287 F F F Rb
   0.9169961337555002    0.5000000000000000    0.4571428571428572 F F F Rb
   0.7057184179969838    0.5000000000000000    0.5285714285714287 F F F Rb
   0.5830038662444998    0.0000000000000000    0.4571428571428572 F F F Rb
   0.1042384850192022    0.8196408400419983    0.5543370228511431 F F F As
   0.3957615149807978    0.3196408400419983    0.5543370228511432 F F F As
   0.3957615149807978    0.6803591599580017    0.5028058342917141 F F F As
   0.1042384850192022    0.1803591599580017    0.5028058342917141 F F F As
   0.6042384850192022    0.3196408400419982    0.4829084514225718 F F F As
   0.8957615149807978    0.8196408400419983    0.4829084514225718 F F F As
   0.8957615149807978    0.1803591599580018    0.4313772628631427 F F F As
   0.6042384850192022    0.6803591599580017    0.4313772628631427 F F F As
   0.0000000000000000    0.0000000000000000    0.5642857142857143 F F F Pt
   0.0000000000000000    0.0000000000000000    0.4928571428571429 F F F Pt
   0.5000000000000000    0.5000000000000000    0.4928571428571429 F F F Pt
   0.5000000000000000    0.5000000000000000    0.5642857142857143 F F F Pt
   0.2942815820030162    0.5000000000000000    0.6000000000000001 F F F Rb
   0.4169961337555002    0.0000000000000000    0.6714285714285715 T T T Rb
   0.2057184179969838    0.0000000000000000    0.6000000000000001 F F F Rb
   0.0830038662444998    0.5000000000000000    0.6714285714285715 T T T Rb
   0.7942815820030164    0.0000000000000000    0.6714285714285715 T T T Rb
   0.9169961337555002    0.5000000000000000    0.6000000000000001 F F F Rb
   0.7057184179969838    0.5000000000000000    0.6714285714285715 T T T Rb
   0.5830038662444998    0.0000000000000000    0.6000000000000001 F F F Rb
   0.1042384850192022    0.8196408400419983    0.6971941657082861 T T T As
   0.3957615149807978    0.3196408400419983    0.6971941657082861 T T T As
   0.3957615149807978    0.6803591599580017    0.6456629771488569 T T T As
   0.1042384850192022    0.1803591599580017    0.6456629771488569 T T T As
   0.6042384850192022    0.3196408400419982    0.6257655942797146 T T T As
   0.8957615149807978    0.8196408400419983    0.6257655942797146 T T T As
   0.8957615149807978    0.1803591599580018    0.5742344057202855 F F F As
   0.6042384850192022    0.6803591599580017    0.5742344057202855 F F F As
   0.0000000000000000    0.0000000000000000    0.7071428571428573 T T T Pt
   0.0000000000000000    0.0000000000000000    0.6357142857142858 T T T Pt
   0.5000000000000000    0.5000000000000000    0.6357142857142858 T T T Pt
   0.5000000000000000    0.5000000000000000    0.7071428571428573 T T T Pt
