Rb24 As24 Pt12
1.0
  16.2413234035623937    0.0000000000000000    0.0000000000000010
   2.8527150033209758    6.1801200681667927    6.3946469832731090
   0.0000000000000000    0.0000000000000000   44.7625288829117594
Rb As Pt Rb As Pt Rb As Pt
8 8 4 8 8 4 8 8 4
Selective dynamics
direct
   0.2942815820030162    0.2057184179969838    0.3420402260004309 T T T Rb
   0.4169961337555002    0.5830038662444998    0.2881423048222144 T T T Rb
   0.2057184179969838    0.7942815820030162    0.3293883454281405 T T T Rb
   0.0830038662444998    0.4169961337555002    0.3832862666063572 T T T Rb
   0.7942815820030164    0.2057184179969838    0.3420402260004309 T T T Rb
   0.9169961337555002    0.5830038662444998    0.2881423048222144 T T T Rb
   0.7057184179969838    0.7942815820030162    0.3293883454281405 T T T Rb
   0.5830038662444998    0.4169961337555002    0.3832862666063572 T T T Rb
   0.1042384850192022    0.7154023550227961    0.4120853778538863 F F F As
   0.3957615149807978    0.9238793250612005    0.3108743821341142 T T T As
   0.3957615149807978    0.2845976449772039    0.4022003364318281 F F F As
   0.1042384850192022    0.0761206749387995    0.3605541892944573 T T T As
   0.6042384850192022    0.7154023550227961    0.4120853778538863 F F F As
   0.8957615149807978    0.9238793250612005    0.3108743821341142 T T T As
   0.8957615149807978    0.2845976449772041    0.4022003364318281 F F F As
   0.6042384850192022    0.0761206749387996    0.3605541892944572 T T T As
   0.0000000000000000    0.0000000000000000    0.4071428571428571 F F F Pt
   0.0000000000000000    0.0000000000000000    0.3357142857142857 T T T Pt
   0.5000000000000000    0.0000000000000000    0.4071428571428571 F F F Pt
   0.5000000000000000    0.0000000000000000    0.3357142857142857 T T T Pt
   0.2942815820030162    0.2057184179969838    0.4848973688575738 F F F Rb
   0.4169961337555002    0.5830038662444998    0.4309994476793572 F F F Rb
   0.2057184179969838    0.7942815820030162    0.4722454882852835 F F F Rb
   0.0830038662444998    0.4169961337555002    0.5261434094635000 F F F Rb
   0.7942815820030164    0.2057184179969838    0.4848973688575738 F F F Rb
   0.9169961337555002    0.5830038662444998    0.4309994476793572 F F F Rb
   0.7057184179969838    0.7942815820030162    0.4722454882852835 F F F Rb
   0.5830038662444998    0.4169961337555002    0.5261434094635000 F F F Rb
   0.1042384850192022    0.7154023550227961    0.5549425207110292 F F F As
   0.3957615149807978    0.9238793250612005    0.4537315249912571 F F F As
   0.3957615149807978    0.2845976449772039    0.5450574792889709 F F F As
   0.1042384850192022    0.0761206749387995    0.5034113321516001 F F F As
   0.6042384850192022    0.7154023550227961    0.5549425207110292 F F F As
   0.8957615149807978    0.9238793250612005    0.4537315249912571 F F F As
   0.8957615149807978    0.2845976449772041    0.5450574792889709 F F F As
   0.6042384850192022    0.0761206749387996    0.5034113321516001 F F F As
   0.0000000000000000    0.0000000000000000    0.5500000000000000 F F F Pt
   0.0000000000000000    0.0000000000000000    0.4785714285714286 F F F Pt
   0.5000000000000000    0.0000000000000000    0.5500000000000000 F F F Pt
   0.5000000000000000    0.0000000000000000    0.4785714285714286 F F F Pt
   0.2942815820030162    0.2057184179969838    0.6277545117147166 T T T Rb
   0.4169961337555002    0.5830038662444998    0.5738565905365001 F F F Rb
   0.2057184179969838    0.7942815820030162    0.6151026311424262 T T T Rb
   0.0830038662444998    0.4169961337555002    0.6690005523206428 T T T Rb
   0.7942815820030164    0.2057184179969838    0.6277545117147166 T T T Rb
   0.9169961337555002    0.5830038662444998    0.5738565905365001 F F F Rb
   0.7057184179969838    0.7942815820030162    0.6151026311424262 T T T Rb
   0.5830038662444998    0.4169961337555002    0.6690005523206428 T T T Rb
   0.1042384850192022    0.7154023550227961    0.6977996635681720 T T T As
   0.3957615149807978    0.9238793250612005    0.5965886678483999 F F F As
   0.3957615149807978    0.2845976449772039    0.6879146221461138 T T T As
   0.1042384850192022    0.0761206749387995    0.6462684750087430 T T T As
   0.6042384850192022    0.7154023550227961    0.6977996635681720 T T T As
   0.8957615149807978    0.9238793250612005    0.5965886678483999 F F F As
   0.8957615149807978    0.2845976449772041    0.6879146221461138 T T T As
   0.6042384850192022    0.0761206749387996    0.6462684750087428 T T T As
   0.0000000000000000    0.0000000000000000    0.6928571428571428 T T T Pt
   0.0000000000000000    0.0000000000000000    0.6214285714285714 T T T Pt
   0.5000000000000000    0.0000000000000000    0.6928571428571428 T T T Pt
   0.5000000000000000    0.0000000000000000    0.6214285714285714 T T T Pt
