Ti10 Cu10
1.0
   5.9325154027153859    0.0000000000000000    0.0000000000000004
  -0.0000000000000002    3.1213278005938840    3.1213278005938836
   0.0000000000000000    0.0000000000000000   37.4559336071266102
Ti Cu Ti Cu Ti Cu Ti Cu Ti Cu
2 2 2 2 2 2 2 2 2 2
Selective dynamics
direct
   0.6441379012665749    0.0000000000000000    0.3333333333333334 T T T Ti
   0.3558620987334251    0.5000000000000000    0.3333333333333334 T T T Ti
   0.1102652177851057    0.0000000000000000    0.3333333333333334 T T T Cu
   0.8897347822148944    0.5000000000000000    0.3333333333333334 T T T Cu
   0.6441379012665749    0.0000000000000000    0.4166666666666667 T T T Ti
   0.3558620987334251    0.5000000000000000    0.4166666666666667 T T T Ti
   0.1102652177851057    0.0000000000000000    0.4166666666666667 T T T Cu
   0.8897347822148944    0.5000000000000000    0.4166666666666667 T T T Cu
   0.6441379012665749    0.0000000000000000    0.5000000000000000 F F F Ti
   0.3558620987334251    0.5000000000000000    0.5000000000000000 F F F Ti
   0.1102652177851057    0.0000000000000000    0.5000000000000000 F F F Cu
   0.8897347822148944    0.5000000000000000    0.5000000000000000 F F F Cu
   0.6441379012665749    0.0000000000000000    0.5833333333333334 T T T Ti
   0.3558620987334251    0.5000000000000000    0.5833333333333334 T T T Ti
   0.1102652177851057    0.0000000000000000    0.5833333333333334 T T T Cu
   0.8897347822148944    0.5000000000000000    0.5833333333333334 T T T Cu
   0.6441379012665749    0.0000000000000000    0.6666666666666667 T T T Ti
   0.3558620987334251    0.5000000000000000    0.6666666666666667 T T T Ti
   0.1102652177851057    0.0000000000000000    0.6666666666666667 T T T Cu
   0.8897347822148944    0.5000000000000000    0.6666666666666667 T T T Cu
