Y16 Al16 Ge16
1.0
  10.4520384347467470    0.0000000000000000   -4.0668906006991703
  -0.0000000000000029    5.7879116698121429   -4.0668906006991721
   0.0000000000000000    0.0000000000000000   36.6020154062925371
Y Al Ge Y Al Ge Y Al Ge Y Al Ge
4 4 4 4 4 4 4 4 4 4 4 4
Selective dynamics
direct
   0.1902997825920849    0.2500000000000000    0.3729962721398613 T T T Y
   0.3097002174079151    0.7500000000000000    0.2751518760082868 T T T Y
   0.6902997825920849    0.2500000000000001    0.3729962721398613 T T T Y
   0.8097002174079150    0.7500000000000001    0.2751518760082868 T T T Y
   0.0000000000000000    0.5000000000000000    0.3240740740740741 T T T Al
   0.0000000000000000    0.0000000000000000    0.3796296296296296 T T T Al
   0.5000000000000000    0.5000000000000000    0.3240740740740741 T T T Al
   0.5000000000000000    0.0000000000000001    0.3796296296296296 T T T Al
   0.1050711378484834    0.7500000000000000    0.3079708671683500 T T T Ge
   0.3949288621515166    0.2500000000000000    0.3401772809797981 T T T Ge
   0.6050711378484834    0.7500000000000000    0.3079708671683500 T T T Ge
   0.8949288621515165    0.2500000000000001    0.3401772809797981 T T T Ge
   0.1902997825920849    0.2500000000000000    0.4841073832509724 F F F Y
   0.3097002174079151    0.7500000000000000    0.3862629871193979 F F F Y
   0.6902997825920849    0.2500000000000001    0.4841073832509724 F F F Y
   0.8097002174079150    0.7500000000000001    0.3862629871193979 F F F Y
   0.0000000000000000    0.5000000000000000    0.4351851851851851 F F F Al
   0.0000000000000000    0.0000000000000000    0.4907407407407407 F F F Al
   0.5000000000000000    0.5000000000000000    0.4351851851851851 F F F Al
   0.5000000000000000    0.0000000000000001    0.4907407407407407 F F F Al
   0.1050711378484834    0.7500000000000000    0.4190819782794610 F F F Ge
   0.3949288621515166    0.2500000000000000    0.4512883920909092 F F F Ge
   0.6050711378484834    0.7500000000000000    0.4190819782794611 F F F Ge
   0.8949288621515165    0.2500000000000001    0.4512883920909092 F F F Ge
   0.1902997825920849    0.2500000000000000    0.5952184943620835 F F F Y
   0.3097002174079151    0.7500000000000000    0.4973740982305090 F F F Y
   0.6902997825920849    0.2500000000000001    0.5952184943620835 F F F Y
   0.8097002174079150    0.7500000000000001    0.4973740982305090 F F F Y
   0.0000000000000000    0.5000000000000000    0.5462962962962963 F F F Al
   0.0000000000000000    0.0000000000000000    0.6018518518518519 F F F Al
   0.5000000000000000    0.5000000000000000    0.5462962962962963 F F F Al
   0.5000000000000000    0.0000000000000001    0.6018518518518519 F F F Al
   0.1050711378484834    0.7500000000000000    0.5301930893905722 F F F Ge
   0.3949288621515166    0.2500000000000000    0.5623995032020204 F F F Ge
   0.6050711378484834    0.7500000000000000    0.5301930893905722 F F F Ge
   0.8949288621515165    0.2500000000000001    0.5623995032020204 F F F Ge
   0.1902997825920849    0.2500000000000000    0.7063296054731946 T T T Y
   0.3097002174079151    0.7500000000000000    0.6084852093416202 T T T Y
   0.6902997825920849    0.2500000000000001    0.7063296054731946 T T T Y
   0.8097002174079150    0.7500000000000001    0.6084852093416202 T T T Y
   0.0000000000000000    0.5000000000000000    0.6574074074074073 T T T Al
   0.0000000000000000    0.0000000000000000    0.7129629629629629 T T T Al
   0.5000000000000000    0.5000000000000000    0.6574074074074073 T T T Al
   0.5000000000000000    0.0000000000000001    0.7129629629629629 T T T Al
   0.1050711378484834    0.7500000000000000    0.6413042005016832 T T T Ge
   0.3949288621515166    0.2500000000000000    0.6735106143131314 T T T Ge
   0.6050711378484834    0.7500000000000000    0.6413042005016834 T T T Ge
   0.8949288621515165    0.2500000000000001    0.6735106143131314 T T T Ge
