Y16 Al16 Ge16
1.0
   4.0668906006991712    0.0000000000000000    0.0000000000000002
  -0.0000000000000059   20.9040768694934975    5.7879116698121429
   0.0000000000000000    0.0000000000000000   28.9395583490607144
Y Al Ge Y Al Ge
8 8 8 8 8 8
Selective dynamics
direct
   0.5000000000000000    0.0951498912960424    0.4059700217407916 T T T Y
   0.4999999999999999    0.5951498912960423    0.3059700217407916 T T T Y
   0.0000000000000000    0.1548501087039576    0.4940299782592085 F F F Y
   0.0000000000000000    0.6548501087039575    0.3940299782592085 T T T Y
   0.0000000000000000    0.3451498912960425    0.3559700217407915 T T T Y
   0.0000000000000000    0.8451498912960423    0.4559700217407915 F F F Y
   0.5000000000000000    0.4048501087039575    0.4440299782592085 F F F Y
   0.5000000000000000    0.9048501087039575    0.3440299782592085 T T T Y
   0.0000000000000000    0.0000000000000000    0.3750000000000000 T T T Al
   0.0000000000000000    0.5000000000000000    0.4750000000000000 F F F Al
   0.0000000000000000    0.0000000000000000    0.4750000000000000 F F F Al
   0.0000000000000000    0.5000000000000000    0.3750000000000000 T T T Al
   0.5000000000000000    0.2500000000000000    0.3250000000000000 T T T Al
   0.5000000000000000    0.7500000000000000    0.4250000000000000 F F F Al
   0.5000000000000000    0.2500000000000000    0.4250000000000000 F F F Al
   0.5000000000000000    0.7500000000000000    0.3250000000000000 T T T Al
   0.5000000000000000    0.0525355689242417    0.3144928862151517 T T T Ge
   0.5000000000000000    0.5525355689242416    0.4144928862151517 F F F Ge
   0.0000000000000000    0.1974644310757583    0.3855071137848484 T T T Ge
   0.0000000000000000    0.6974644310757583    0.4855071137848484 F F F Ge
   0.0000000000000000    0.3025355689242417    0.4644928862151517 F F F Ge
   0.0000000000000000    0.8025355689242416    0.3644928862151517 T T T Ge
   0.5000000000000000    0.4474644310757582    0.3355071137848484 T T T Ge
   0.5000000000000000    0.9474644310757582    0.4355071137848484 F F F Ge
   0.5000000000000000    0.0951498912960424    0.6059700217407915 T T T Y
   0.4999999999999999    0.5951498912960423    0.5059700217407916 F F F Y
   0.0000000000000000    0.1548501087039576    0.6940299782592085 T T T Y
   0.0000000000000000    0.6548501087039575    0.5940299782592086 T T T Y
   0.0000000000000000    0.3451498912960425    0.5559700217407915 F F F Y
   0.0000000000000000    0.8451498912960423    0.6559700217407916 T T T Y
   0.5000000000000000    0.4048501087039575    0.6440299782592085 T T T Y
   0.5000000000000000    0.9048501087039575    0.5440299782592085 F F F Y
   0.0000000000000000    0.0000000000000000    0.5750000000000001 F F F Al
   0.0000000000000000    0.5000000000000000    0.6750000000000000 T T T Al
   0.0000000000000000    0.0000000000000000    0.6750000000000000 T T T Al
   0.0000000000000000    0.5000000000000000    0.5750000000000001 F F F Al
   0.5000000000000000    0.2500000000000000    0.5250000000000000 F F F Al
   0.5000000000000000    0.7500000000000000    0.6250000000000000 T T T Al
   0.5000000000000000    0.2500000000000000    0.6250000000000000 T T T Al
   0.5000000000000000    0.7500000000000000    0.5250000000000000 F F F Al
   0.5000000000000000    0.0525355689242417    0.5144928862151517 F F F Ge
   0.5000000000000000    0.5525355689242416    0.6144928862151517 T T T Ge
   0.0000000000000000    0.1974644310757583    0.5855071137848484 F F F Ge
   0.0000000000000000    0.6974644310757583    0.6855071137848484 T T T Ge
   0.0000000000000000    0.3025355689242417    0.6644928862151517 T T T Ge
   0.0000000000000000    0.8025355689242416    0.5644928862151517 F F F Ge
   0.5000000000000000    0.4474644310757582    0.5355071137848484 F F F Ge
   0.5000000000000000    0.9474644310757582    0.6355071137848484 T T T Ge
