Ca8 Mn16 Ge16
1.0
  11.0068839701944015    0.0000000000000000    0.0000000000000007
   0.0000000000000006    4.0008579081626490   -4.0008579081626481
   0.0000000000000000    0.0000000000000000   40.0085790816264932
Ca Mn Ge Ca Mn Ge Ca Mn Ge Ca Mn Ge
2 4 4 2 4 4 2 4 4 2 4 4
Selective dynamics
direct
   0.0000000000000000    0.0000000000000000    0.3700000000000001 T T T Ca
   0.5000000000000000    0.5000000000000000    0.3700000000000001 T T T Ca
   0.7500000000000000    0.0000000000000000    0.3200000000000001 T T T Mn
   0.7500000000000000    0.5000000000000000    0.3200000000000001 T T T Mn
   0.2500000000000000    0.5000000000000000    0.3200000000000001 T T T Mn
   0.2500000000000000    0.0000000000000000    0.3200000000000001 T T T Mn
   0.6236584237905162    0.0000000000000000    0.3700000000000001 T T T Ge
   0.8763415762094838    0.5000000000000000    0.3700000000000001 T T T Ge
   0.1236584237905161    0.5000000000000000    0.3700000000000001 T T T Ge
   0.3763415762094838    0.0000000000000000    0.3700000000000001 T T T Ge
   0.0000000000000000    0.0000000000000000    0.4700000000000000 F F F Ca
   0.5000000000000000    0.5000000000000000    0.4700000000000000 F F F Ca
   0.7500000000000000    0.0000000000000000    0.4200000000000000 T T T Mn
   0.7500000000000000    0.5000000000000000    0.4200000000000000 T T T Mn
   0.2500000000000000    0.5000000000000000    0.4200000000000000 T T T Mn
   0.2500000000000000    0.0000000000000000    0.4200000000000000 T T T Mn
   0.6236584237905162    0.0000000000000000    0.4700000000000000 F F F Ge
   0.8763415762094838    0.5000000000000000    0.4700000000000000 F F F Ge
   0.1236584237905161    0.5000000000000000    0.4700000000000000 F F F Ge
   0.3763415762094838    0.0000000000000000    0.4700000000000000 F F F Ge
   0.0000000000000000    0.0000000000000000    0.5700000000000001 T T T Ca
   0.5000000000000000    0.5000000000000000    0.5700000000000001 T T T Ca
   0.7500000000000000    0.0000000000000000    0.5200000000000000 F F F Mn
   0.7500000000000000    0.5000000000000000    0.5200000000000000 F F F Mn
   0.2500000000000000    0.5000000000000000    0.5200000000000000 F F F Mn
   0.2500000000000000    0.0000000000000000    0.5200000000000000 F F F Mn
   0.6236584237905162    0.0000000000000000    0.5700000000000001 T T T Ge
   0.8763415762094838    0.5000000000000000    0.5700000000000001 T T T Ge
   0.1236584237905161    0.5000000000000000    0.5700000000000001 T T T Ge
   0.3763415762094838    0.0000000000000000    0.5700000000000001 T T T Ge
   0.0000000000000000    0.0000000000000000    0.6700000000000000 T T T Ca
   0.5000000000000000    0.5000000000000000    0.6700000000000000 T T T Ca
   0.7500000000000000    0.0000000000000000    0.6200000000000001 T T T Mn
   0.7500000000000000    0.5000000000000000    0.6200000000000001 T T T Mn
   0.2500000000000000    0.5000000000000000    0.6200000000000001 T T T Mn
   0.2500000000000000    0.0000000000000000    0.6200000000000001 T T T Mn
   0.6236584237905162    0.0000000000000000    0.6700000000000000 T T T Ge
   0.8763415762094838    0.5000000000000000    0.6700000000000000 T T T Ge
   0.1236584237905161    0.5000000000000000    0.6700000000000000 T T T Ge
   0.3763415762094838    0.0000000000000000    0.6700000000000000 T T T Ge
