Sr8 Ga16 Au16
1.0
   4.5668308510786515    0.0000000000000000   -4.5668308510786506
   0.0000000000000041   10.6073286043611255   -4.5668308510786488
   0.0000000000000000    0.0000000000000000   41.1014776597078608
Sr Ga Au Sr Ga Au Sr Ga Au Sr Ga Au
2 4 4 2 4 4 2 4 4 2 4 4
Selective dynamics
direct
   0.5000000000000000    0.7497287268106874    0.3833031918678542 T T T Sr
   0.0000000000000000    0.2502712731893126    0.3278079192432570 T T T Sr
   0.5000000000000000    0.1262056370387867    0.3140228485598652 T T T Ga
   0.0000000000000000    0.4999999999999999    0.3000000000000000 T T T Ga
   0.0000000000000000    0.8737943629612133    0.2859771514401348 T T T Ga
   0.5000000000000000    0.4999999999999999    0.3000000000000000 T T T Ga
   0.0000000000000000    0.6289412630082792    0.3698823625564755 T T T Au
   0.5000000000000000    0.0000000000000000    0.3555555555555556 T T T Au
   0.0000000000000000    0.0000000000000000    0.3555555555555556 T T T Au
   0.5000000000000000    0.3710587369917206    0.3412287485546356 T T T Au
   0.5000000000000000    0.7497287268106874    0.4944143029789653 F F F Sr
   0.0000000000000000    0.2502712731893126    0.4389190303543681 F F F Sr
   0.5000000000000000    0.1262056370387867    0.4251339596709763 F F F Ga
   0.0000000000000000    0.4999999999999999    0.4111111111111111 F F F Ga
   0.0000000000000000    0.8737943629612133    0.3970882625512459 F F F Ga
   0.5000000000000000    0.4999999999999999    0.4111111111111111 F F F Ga
   0.0000000000000000    0.6289412630082792    0.4809934736675866 F F F Au
   0.5000000000000000    0.0000000000000000    0.4666666666666667 F F F Au
   0.0000000000000000    0.0000000000000000    0.4666666666666667 F F F Au
   0.5000000000000000    0.3710587369917206    0.4523398596657467 F F F Au
   0.5000000000000000    0.7497287268106874    0.6055254140900763 F F F Sr
   0.0000000000000000    0.2502712731893126    0.5500301414654791 F F F Sr
   0.5000000000000000    0.1262056370387867    0.5362450707820874 F F F Ga
   0.0000000000000000    0.4999999999999999    0.5222222222222221 F F F Ga
   0.0000000000000000    0.8737943629612133    0.5081993736623570 F F F Ga
   0.5000000000000000    0.4999999999999999    0.5222222222222221 F F F Ga
   0.0000000000000000    0.6289412630082792    0.5921045847786977 F F F Au
   0.5000000000000000    0.0000000000000000    0.5777777777777777 F F F Au
   0.0000000000000000    0.0000000000000000    0.5777777777777777 F F F Au
   0.5000000000000000    0.3710587369917206    0.5634509707768578 F F F Au
   0.5000000000000000    0.7497287268106874    0.7166365252011875 T T T Sr
   0.0000000000000000    0.2502712731893126    0.6611412525765903 T T T Sr
   0.5000000000000000    0.1262056370387867    0.6473561818931985 T T T Ga
   0.0000000000000000    0.4999999999999999    0.6333333333333333 T T T Ga
   0.0000000000000000    0.8737943629612133    0.6193104847734681 T T T Ga
   0.5000000000000000    0.4999999999999999    0.6333333333333333 T T T Ga
   0.0000000000000000    0.6289412630082792    0.7032156958898088 T T T Au
   0.5000000000000000    0.0000000000000000    0.6888888888888889 T T T Au
   0.0000000000000000    0.0000000000000000    0.6888888888888889 T T T Au
   0.5000000000000000    0.3710587369917206    0.6745620818879690 T T T Au
