Sr12 Zn12 In36
1.0
   9.4718477147057705    0.0000000000000000   -4.7359238573528852
  -0.0000000000000061   12.0578114871690403   -4.7359238573528835
   0.0000000000000000    0.0000000000000000   33.1514670014701949
Sr Zn In Sr Zn In Sr Zn In
4 4 12 4 4 12 4 4 12
Selective dynamics
direct
   0.0000000000000000    0.0041958870110364    0.4113136978587195 F F F Sr
   0.5000000000000000    0.0041958870110364    0.3398851264301480 T T T Sr
   0.2500000000000000    0.5041958870110365    0.3041708407158623 T T T Sr
   0.7500000000000000    0.5041958870110365    0.3755994121444337 T T T Sr
   0.2500000000000000    0.1155515754729245    0.3915073676389892 T T T Zn
   0.7500000000000000    0.1155515754729245    0.3200787962104177 T T T Zn
   0.0000000000000000    0.6155515754729244    0.3557930819247035 T T T Zn
   0.5000000000000000    0.6155515754729245    0.4272216533532749 F F F Zn
   0.2500000000000000    0.2416421113874599    0.3380917299124943 T T T In
   0.7500000000000000    0.2416421113874599    0.4095203013410657 F F F In
   0.0000000000000000    0.2416421113874599    0.3738060156267800 T T T In
   0.5000000000000000    0.2416421113874600    0.3023774441982085 T T T In
   0.0000000000000000    0.3969683247411205    0.3245669032487315 T T T In
   0.5000000000000000    0.3969683247411205    0.3959954746773029 T T T In
   0.0000000000000000    0.7416421113874599    0.3023774441982085 T T T In
   0.5000000000000000    0.7416421113874599    0.3738060156267800 T T T In
   0.2500000000000000    0.7416421113874599    0.4095203013410657 F F F In
   0.7500000000000000    0.7416421113874599    0.3380917299124943 T T T In
   0.2500000000000000    0.8969683247411204    0.3602811889630172 T T T In
   0.7500000000000000    0.8969683247411205    0.2888526175344457 T T T In
   0.0000000000000000    0.0041958870110364    0.5541708407158623 F F F Sr
   0.5000000000000000    0.0041958870110364    0.4827422692872909 F F F Sr
   0.2500000000000000    0.5041958870110365    0.4470279835730052 F F F Sr
   0.7500000000000000    0.5041958870110365    0.5184565550015766 F F F Sr
   0.2500000000000000    0.1155515754729245    0.5343645104961321 F F F Zn
   0.7500000000000000    0.1155515754729245    0.4629359390675606 F F F Zn
   0.0000000000000000    0.6155515754729244    0.4986502247818463 F F F Zn
   0.5000000000000000    0.6155515754729245    0.5700787962104177 F F F Zn
   0.2500000000000000    0.2416421113874599    0.4809488727696371 F F F In
   0.7500000000000000    0.2416421113874599    0.5523774441982086 F F F In
   0.0000000000000000    0.2416421113874599    0.5166631584839227 F F F In
   0.5000000000000000    0.2416421113874600    0.4452345870553513 F F F In
   0.0000000000000000    0.3969683247411205    0.4674240461058743 F F F In
   0.5000000000000000    0.3969683247411205    0.5388526175344457 F F F In
   0.0000000000000000    0.7416421113874599    0.4452345870553513 F F F In
   0.5000000000000000    0.7416421113874599    0.5166631584839227 F F F In
   0.2500000000000000    0.7416421113874599    0.5523774441982086 F F F In
   0.7500000000000000    0.7416421113874599    0.4809488727696371 F F F In
   0.2500000000000000    0.8969683247411204    0.5031383318201601 F F F In
   0.7500000000000000    0.8969683247411205    0.4317097603915886 F F F In
   0.0000000000000000    0.0041958870110364    0.6970279835730051 T T T Sr
   0.5000000000000000    0.0041958870110364    0.6255994121444337 T T T Sr
   0.2500000000000000    0.5041958870110365    0.5898851264301480 F F F Sr
   0.7500000000000000    0.5041958870110365    0.6613136978587194 T T T Sr
   0.2500000000000000    0.1155515754729245    0.6772216533532749 T T T Zn
   0.7500000000000000    0.1155515754729245    0.6057930819247035 T T T Zn
   0.0000000000000000    0.6155515754729244    0.6415073676389892 T T T Zn
   0.5000000000000000    0.6155515754729245    0.7129359390675606 T T T Zn
   0.2500000000000000    0.2416421113874599    0.6238060156267800 T T T In
   0.7500000000000000    0.2416421113874599    0.6952345870553513 T T T In
   0.0000000000000000    0.2416421113874599    0.6595203013410657 T T T In
   0.5000000000000000    0.2416421113874600    0.5880917299124941 F F F In
   0.0000000000000000    0.3969683247411205    0.6102811889630172 T T T In
   0.5000000000000000    0.3969683247411205    0.6817097603915886 T T T In
   0.0000000000000000    0.7416421113874599    0.5880917299124941 F F F In
   0.5000000000000000    0.7416421113874599    0.6595203013410657 T T T In
   0.2500000000000000    0.7416421113874599    0.6952345870553513 T T T In
   0.7500000000000000    0.7416421113874599    0.6238060156267800 T T T In
   0.2500000000000000    0.8969683247411204    0.6459954746773029 T T T In
   0.7500000000000000    0.8969683247411205    0.5745669032487315 F F F In
