Nb12 Ni72 Mo12
1.0
   9.0103559149275618    0.0000000000000000   -4.2470776709256306
  -0.0000000000000029   10.1408785981177605   -4.2470776709256288
   0.0000000000000000    0.0000000000000000   33.9766213674050235
Nb Ni Mo Nb Ni Mo Nb Ni Mo
4 24 4 4 24 4 4 24 4
Selective dynamics
direct
   0.6730344238867724    0.4999999999999999    0.4356918107202216 F F F Nb
   0.1730344238867723    0.0000000000000000    0.4356918107202216 F F F Nb
   0.1730344238867723    0.5000000000000000    0.3731918107202216 T T T Nb
   0.6730344238867724    0.0000000000000000    0.3731918107202216 T T T Nb
   0.6665351385146218    0.7500000000000000    0.3411294000487027 T T T Ni
   0.1665351385146217    0.2500000000000000    0.3411294000487027 T T T Ni
   0.1665351385146217    0.7500000000000000    0.4036294000487027 T T T Ni
   0.6665351385146218    0.2500000000000000    0.4036294000487027 T T T Ni
   0.8391687493483247    0.4999999999999999    0.3939586014029156 T T T Ni
   0.3391687493483247    0.0000000000000000    0.3939586014029156 T T T Ni
   0.3391687493483247    0.5000000000000000    0.3314586014029156 T T T Ni
   0.8391687493483247    0.0000000000000000    0.3314586014029156 T T T Ni
   0.5786802889396833    0.8727727007431554    0.4079941314447298 T T T Ni
   0.0786802889396832    0.3727727007431554    0.4079941314447298 T T T Ni
   0.0786802889396832    0.8727727007431554    0.3454941314447298 T T T Ni
   0.5786802889396833    0.3727727007431554    0.3454941314447298 T T T Ni
   0.5786802889396833    0.6272272992568446    0.3773009562589410 T T T Ni
   0.0786802889396832    0.1272272992568446    0.3773009562589410 T T T Ni
   0.0786802889396832    0.6272272992568446    0.3148009562589410 T T T Ni
   0.5786802889396833    0.1272272992568446    0.3148009562589410 T T T Ni
   0.9191941793417264    0.8722545326000172    0.3879935967270930 T T T Ni
   0.4191941793417265    0.3722545326000173    0.3879935967270930 T T T Ni
   0.4191941793417265    0.8722545326000172    0.3254935967270930 T T T Ni
   0.9191941793417264    0.3722545326000173    0.3254935967270930 T T T Ni
   0.9191941793417264    0.6277454673999827    0.3574299635770887 T T T Ni
   0.4191941793417265    0.1277454673999827    0.3574299635770887 T T T Ni
   0.4191941793417265    0.6277454673999827    0.4199299635770887 F F F Ni
   0.9191941793417264    0.1277454673999827    0.4199299635770887 F F F Ni
   0.8255122566874570    0.7500000000000000    0.4235015398203071 F F F Mo
   0.3255122566874569    0.2500000000000001    0.4235015398203071 F F F Mo
   0.3255122566874569    0.7500000000000001    0.3610015398203071 T T T Mo
   0.8255122566874570    0.2500000000000001    0.3610015398203071 T T T Mo
   0.6730344238867724    0.4999999999999999    0.5606918107202216 F F F Nb
   0.1730344238867723    0.0000000000000000    0.5606918107202216 F F F Nb
   0.1730344238867723    0.5000000000000000    0.4981918107202216 F F F Nb
   0.6730344238867724    0.0000000000000000    0.4981918107202216 F F F Nb
   0.6665351385146218    0.7500000000000000    0.4661294000487027 F F F Ni
   0.1665351385146217    0.2500000000000000    0.4661294000487027 F F F Ni
   0.1665351385146217    0.7500000000000000    0.5286294000487027 F F F Ni
   0.6665351385146218    0.2500000000000000    0.5286294000487027 F F F Ni
   0.8391687493483247    0.4999999999999999    0.5189586014029156 F F F Ni
   0.3391687493483247    0.0000000000000000    0.5189586014029156 F F F Ni
   0.3391687493483247    0.5000000000000000    0.4564586014029156 F F F Ni
   0.8391687493483247    0.0000000000000000    0.4564586014029156 F F F Ni
   0.5786802889396833    0.8727727007431554    0.5329941314447298 F F F Ni
   0.0786802889396832    0.3727727007431554    0.5329941314447298 F F F Ni
   0.0786802889396832    0.8727727007431554    0.4704941314447298 F F F Ni
   0.5786802889396833    0.3727727007431554    0.4704941314447298 F F F Ni
   0.5786802889396833    0.6272272992568446    0.5023009562589410 F F F Ni
   0.0786802889396832    0.1272272992568446    0.5023009562589410 F F F Ni
   0.0786802889396832    0.6272272992568446    0.4398009562589410 F F F Ni
   0.5786802889396833    0.1272272992568446    0.4398009562589410 F F F Ni
   0.9191941793417264    0.8722545326000172    0.5129935967270930 F F F Ni
   0.4191941793417265    0.3722545326000173    0.5129935967270930 F F F Ni
   0.4191941793417265    0.8722545326000172    0.4504935967270930 F F F Ni
   0.9191941793417264    0.3722545326000173    0.4504935967270930 F F F Ni
   0.9191941793417264    0.6277454673999827    0.4824299635770887 F F F Ni
   0.4191941793417265    0.1277454673999827    0.4824299635770887 F F F Ni
   0.4191941793417265    0.6277454673999827    0.5449299635770887 F F F Ni
   0.9191941793417264    0.1277454673999827    0.5449299635770887 F F F Ni
   0.8255122566874570    0.7500000000000000    0.5485015398203071 F F F Mo
   0.3255122566874569    0.2500000000000001    0.5485015398203071 F F F Mo
   0.3255122566874569    0.7500000000000001    0.4860015398203071 F F F Mo
   0.8255122566874570    0.2500000000000001    0.4860015398203071 F F F Mo
   0.6730344238867724    0.4999999999999999    0.6856918107202216 T T T Nb
   0.1730344238867723    0.0000000000000000    0.6856918107202216 T T T Nb
   0.1730344238867723    0.5000000000000000    0.6231918107202216 T T T Nb
   0.6730344238867724    0.0000000000000000    0.6231918107202216 T T T Nb
   0.6665351385146218    0.7500000000000000    0.5911294000487027 T T T Ni
   0.1665351385146217    0.2500000000000000    0.5911294000487027 T T T Ni
   0.1665351385146217    0.7500000000000000    0.6536294000487027 T T T Ni
   0.6665351385146218    0.2500000000000000    0.6536294000487027 T T T Ni
   0.8391687493483247    0.4999999999999999    0.6439586014029156 T T T Ni
   0.3391687493483247    0.0000000000000000    0.6439586014029156 T T T Ni
   0.3391687493483247    0.5000000000000000    0.5814586014029156 T T T Ni
   0.8391687493483247    0.0000000000000000    0.5814586014029156 T T T Ni
   0.5786802889396833    0.8727727007431554    0.6579941314447298 T T T Ni
   0.0786802889396832    0.3727727007431554    0.6579941314447298 T T T Ni
   0.0786802889396832    0.8727727007431554    0.5954941314447298 T T T Ni
   0.5786802889396833    0.3727727007431554    0.5954941314447298 T T T Ni
   0.5786802889396833    0.6272272992568446    0.6273009562589410 T T T Ni
   0.0786802889396832    0.1272272992568446    0.6273009562589410 T T T Ni
   0.0786802889396832    0.6272272992568446    0.5648009562589410 F F F Ni
   0.5786802889396833    0.1272272992568446    0.5648009562589410 F F F Ni
   0.9191941793417264    0.8722545326000172    0.6379935967270930 T T T Ni
   0.4191941793417265    0.3722545326000173    0.6379935967270930 T T T Ni
   0.4191941793417265    0.8722545326000172    0.5754935967270930 F F F Ni
   0.9191941793417264    0.3722545326000173    0.5754935967270930 F F F Ni
   0.9191941793417264    0.6277454673999827    0.6074299635770887 T T T Ni
   0.4191941793417265    0.1277454673999827    0.6074299635770887 T T T Ni
   0.4191941793417265    0.6277454673999827    0.6699299635770887 T T T Ni
   0.9191941793417264    0.1277454673999827    0.6699299635770887 T T T Ni
   0.8255122566874570    0.7500000000000000    0.6735015398203071 T T T Mo
   0.3255122566874569    0.2500000000000001    0.6735015398203071 T T T Mo
   0.3255122566874569    0.7500000000000001    0.6110015398203071 T T T Mo
   0.8255122566874570    0.2500000000000001    0.6110015398203071 T T T Mo
