Nb3 Ni18 Mo3
1.0
   4.2470776709256279    0.0000000000000000    0.0000000000000003
   0.0000000000000008    5.0704392990588811    0.0000000000000003
   0.0000000000000000    0.0000000000000000   31.5362457022464717
Nb Ni Mo Nb Ni Mo Nb Ni Mo
1 6 1 1 6 1 1 6 1
Selective dynamics
direct
   0.0000000000000000    0.0000000000000000    0.3255615754966363 T T T Nb
   0.0000000000000000    0.5000000000000000    0.3274185141743937 T T T Ni
   0.5000000000000000    0.0000000000000000    0.4209517682219071 F F F Ni
   0.5000000000000000    0.2544545985136892    0.3525198997672332 T T T Ni
   0.5000000000000000    0.7455454014863108    0.3525198997672332 T T T Ni
   0.0000000000000000    0.2554909347999654    0.3980873596523637 F F F Ni
   0.0000000000000000    0.7445090652000346    0.3980873596523637 F F F Ni
   0.5000000000000000    0.5000000000000000    0.2819964804107264 T T T Mo
   0.0000000000000000    0.0000000000000000    0.4684187183537792 F F F Nb
   0.0000000000000000    0.5000000000000000    0.4702756570315365 F F F Ni
   0.5000000000000000    0.0000000000000000    0.5638089110790500 F F F Ni
   0.5000000000000000    0.2544545985136892    0.4953770426243761 F F F Ni
   0.5000000000000000    0.7455454014863108    0.4953770426243761 F F F Ni
   0.0000000000000000    0.2554909347999654    0.5409445025095065 F F F Ni
   0.0000000000000000    0.7445090652000346    0.5409445025095065 F F F Ni
   0.5000000000000000    0.5000000000000000    0.4248536232678694 F F F Mo
   0.0000000000000000    0.0000000000000000    0.6112758612109220 F F F Nb
   0.0000000000000000    0.5000000000000000    0.6131327998886793 T T T Ni
   0.5000000000000000    0.0000000000000000    0.7066660539361929 T T T Ni
   0.5000000000000000    0.2544545985136892    0.6382341854815190 T T T Ni
   0.5000000000000000    0.7455454014863108    0.6382341854815190 T T T Ni
   0.0000000000000000    0.2554909347999654    0.6838016453666494 T T T Ni
   0.0000000000000000    0.7445090652000346    0.6838016453666494 T T T Ni
   0.5000000000000000    0.5000000000000000    0.5677107661250121 F F F Mo
