Li4 Zn4 Sb4
1.0
   4.4522204335448041    0.0000000000000000    0.0000000000000003
  -2.2261102167724016    3.8557359986979676    0.0000000000000003
   0.0000000000000000    0.0000000000000000   36.1275316772398227
Li Zn Sb Li Zn Sb
2 2 2 2 2 2
Selective dynamics
direct
   0.0000000000000000    0.0000000000000000    0.4132829024162358 F F F Li
   0.0000000000000000    0.0000000000000000    0.3132829024162358 T T T Li
   0.3333333333333333    0.6666666666666666    0.4801112962829204 F F F Zn
   0.6666666666666667    0.3333333333333333    0.3801112962829204 T T T Zn
   0.6666666666666666    0.3333333333333333    0.4566058013008440 F F F Sb
   0.3333333333333333    0.6666666666666666    0.3566058013008440 T T T Sb
   0.0000000000000000    0.0000000000000000    0.6132829024162358 T T T Li
   0.0000000000000000    0.0000000000000000    0.5132829024162358 F F F Li
   0.3333333333333333    0.6666666666666666    0.6801112962829204 T T T Zn
   0.6666666666666667    0.3333333333333333    0.5801112962829205 F F F Zn
   0.6666666666666666    0.3333333333333333    0.6566058013008440 T T T Sb
   0.3333333333333333    0.6666666666666666    0.5566058013008440 F F F Sb
