Zr8 Cu8 Ge16
1.0
   3.8213318191233583    0.0000000000000000    0.0000000000000002
  -0.0000000000000006    9.2042776480593211   -7.6426636382467166
   0.0000000000000000    0.0000000000000000   38.2133181912335829
Zr Cu Ge Zr Cu Ge Zr Cu Ge Zr Cu Ge
2 2 4 2 2 4 2 2 4 2 2 4
Selective dynamics
direct
   0.5000000000000000    0.7620827837856294    0.3899165567571259 T T T Zr
   0.0000000000000000    0.2379172162143705    0.3350834432428741 T T T Zr
   0.5000000000000000    0.4999999999999999    0.3875000000000000 T T T Cu
   0.0000000000000000    0.5000000000000000    0.3375000000000000 T T T Cu
   0.5000000000000000    0.0000000000000000    0.3875000000000000 T T T Ge
   0.0000000000000000    0.0000000000000000    0.3375000000000000 T T T Ge
   0.5000000000000000    0.3252147007851106    0.3025429401570221 T T T Ge
   0.0000000000000000    0.6747852992148894    0.3224570598429778 T T T Ge
   0.5000000000000000    0.7620827837856294    0.4899165567571259 F F F Zr
   0.0000000000000000    0.2379172162143705    0.4350834432428741 F F F Zr
   0.5000000000000000    0.4999999999999999    0.4875000000000000 F F F Cu
   0.0000000000000000    0.5000000000000000    0.4375000000000000 F F F Cu
   0.5000000000000000    0.0000000000000000    0.4875000000000000 F F F Ge
   0.0000000000000000    0.0000000000000000    0.4375000000000000 F F F Ge
   0.5000000000000000    0.3252147007851106    0.4025429401570221 T T T Ge
   0.0000000000000000    0.6747852992148894    0.4224570598429779 F F F Ge
   0.5000000000000000    0.7620827837856294    0.5899165567571258 T T T Zr
   0.0000000000000000    0.2379172162143705    0.5350834432428742 F F F Zr
   0.5000000000000000    0.4999999999999999    0.5874999999999999 F F F Cu
   0.0000000000000000    0.5000000000000000    0.5375000000000000 F F F Cu
   0.5000000000000000    0.0000000000000000    0.5874999999999999 F F F Ge
   0.0000000000000000    0.0000000000000000    0.5375000000000000 F F F Ge
   0.5000000000000000    0.3252147007851106    0.5025429401570221 F F F Ge
   0.0000000000000000    0.6747852992148894    0.5224570598429779 F F F Ge
   0.5000000000000000    0.7620827837856294    0.6899165567571259 T T T Zr
   0.0000000000000000    0.2379172162143705    0.6350834432428740 T T T Zr
   0.5000000000000000    0.4999999999999999    0.6875000000000000 T T T Cu
   0.0000000000000000    0.5000000000000000    0.6375000000000000 T T T Cu
   0.5000000000000000    0.0000000000000000    0.6875000000000000 T T T Ge
   0.0000000000000000    0.0000000000000000    0.6375000000000000 T T T Ge
   0.5000000000000000    0.3252147007851106    0.6025429401570221 T T T Ge
   0.0000000000000000    0.6747852992148894    0.6224570598429778 T T T Ge
