Ba8 Cd16 Pt8
1.0
   4.5290459499505982    0.0000000000000000    0.0000000000000003
   0.0000000000000018   11.4128830464997169    0.0000000000000007
   0.0000000000000000    0.0000000000000000   33.6345886076529368
Ba Cd Pt Ba Cd Pt
4 8 4 4 8 4
Selective dynamics
direct
   0.5000000000000000    0.0575908319793612    0.4375000000000000 F F F Ba
   0.0000000000000000    0.4424091680206387    0.3125000000000000 T T T Ba
   0.0000000000000000    0.5575908319793612    0.4375000000000000 F F F Ba
   0.5000000000000001    0.9424091680206387    0.3125000000000000 T T T Ba
   0.0000000000000000    0.1602311750896349    0.2642464939533724 T T T Cd
   0.5000000000000000    0.3397688249103651    0.4857535060466276 F F F Cd
   0.0000000000000000    0.1602311750896349    0.3607535060466276 F F F Cd
   0.5000000000000000    0.3397688249103651    0.3892464939533724 F F F Cd
   0.5000000000000001    0.6602311750896348    0.2642464939533724 T T T Cd
   0.0000000000000000    0.8397688249103652    0.4857535060466276 F F F Cd
   0.5000000000000001    0.6602311750896348    0.3607535060466276 F F F Cd
   0.0000000000000000    0.8397688249103652    0.3892464939533724 F F F Cd
   0.0000000000000000    0.2767523228375950    0.4375000000000000 F F F Pt
   0.5000000000000000    0.2232476771624050    0.3125000000000000 T T T Pt
   0.5000000000000000    0.7767523228375950    0.4375000000000000 F F F Pt
   0.0000000000000000    0.7232476771624050    0.3125000000000000 T T T Pt
   0.5000000000000000    0.0575908319793612    0.6875000000000000 T T T Ba
   0.0000000000000000    0.4424091680206387    0.5625000000000000 F F F Ba
   0.0000000000000000    0.5575908319793612    0.6875000000000000 T T T Ba
   0.5000000000000001    0.9424091680206387    0.5625000000000000 F F F Ba
   0.0000000000000000    0.1602311750896349    0.5142464939533724 F F F Cd
   0.5000000000000000    0.3397688249103651    0.7357535060466276 T T T Cd
   0.0000000000000000    0.1602311750896349    0.6107535060466276 F F F Cd
   0.5000000000000000    0.3397688249103651    0.6392464939533724 F F F Cd
   0.5000000000000001    0.6602311750896348    0.5142464939533724 F F F Cd
   0.0000000000000000    0.8397688249103652    0.7357535060466276 T T T Cd
   0.5000000000000001    0.6602311750896348    0.6107535060466276 F F F Cd
   0.0000000000000000    0.8397688249103652    0.6392464939533724 F F F Cd
   0.0000000000000000    0.2767523228375950    0.6875000000000000 T T T Pt
   0.5000000000000000    0.2232476771624050    0.5625000000000000 F F F Pt
   0.5000000000000000    0.7767523228375950    0.6875000000000000 T T T Pt
   0.0000000000000000    0.7232476771624050    0.5625000000000000 F F F Pt
