Hf24 Re24 Si24
1.0
   6.9638803461030996    0.0000000000000000    0.0000000000000004
   6.9638803461031022   12.0617945772809048    3.4016705924573718
   0.0000000000000000    0.0000000000000000   30.6150353321163671
Hf Re Si Hf Re Si Hf Re Si Hf Re Si
6 6 6 6 6 6 6 6 6 6 6 6
Selective dynamics
direct
   0.4038004611219375    0.2980997694390312    0.3835444700623299 T T T Hf
   0.4038004611219375    0.7980997694390313    0.3279889145067744 T T T Hf
   0.0000000000000000    0.2019002305609687    0.2831221966043368 T T T Hf
   0.0000000000000000    0.7019002305609687    0.3386777521598924 T T T Hf
   0.5961995388780625    0.5000000000000000    0.3611111111111111 T T T Hf
   0.5961995388780624    0.0000000000000000    0.3055555555555556 T T T Hf
   0.7438095920891613    0.1280952039554193    0.3468783106716201 T T T Re
   0.7438095920891613    0.6280952039554193    0.2913227551160645 T T T Re
   0.0000000000000001    0.3719047960445807    0.3197883559950466 T T T Re
   0.0000000000000000    0.8719047960445807    0.3753439115506022 T T T Re
   0.2561904079108386    0.4999999999999999    0.3055555555555556 T T T Re
   0.2561904079108385    0.0000000000000000    0.3611111111111112 T T T Re
   0.3333333333333333    0.1666666666666667    0.3425925925925926 T T T Si
   0.3333333333333333    0.6666666666666667    0.2870370370370371 T T T Si
   0.6666666666666666    0.3333333333333333    0.3240740740740741 T T T Si
   0.6666666666666666    0.8333333333333334    0.3796296296296297 T T T Si
   0.0000000000000000    0.5000000000000000    0.3611111111111111 T T T Si
   0.0000000000000000    0.0000000000000000    0.3055555555555556 T T T Si
   0.4038004611219375    0.2980997694390312    0.4946555811734410 F F F Hf
   0.4038004611219375    0.7980997694390313    0.4391000256178854 F F F Hf
   0.0000000000000000    0.2019002305609687    0.3942333077154480 F F F Hf
   0.0000000000000000    0.7019002305609687    0.4497888632710035 F F F Hf
   0.5961995388780625    0.5000000000000000    0.4722222222222222 F F F Hf
   0.5961995388780624    0.0000000000000000    0.4166666666666667 F F F Hf
   0.7438095920891613    0.1280952039554193    0.4579894217827312 F F F Re
   0.7438095920891613    0.6280952039554193    0.4024338662271757 F F F Re
   0.0000000000000001    0.3719047960445807    0.4308994671061577 F F F Re
   0.0000000000000000    0.8719047960445807    0.4864550226617133 F F F Re
   0.2561904079108386    0.4999999999999999    0.4166666666666667 F F F Re
   0.2561904079108385    0.0000000000000000    0.4722222222222223 F F F Re
   0.3333333333333333    0.1666666666666667    0.4537037037037037 F F F Si
   0.3333333333333333    0.6666666666666667    0.3981481481481482 F F F Si
   0.6666666666666666    0.3333333333333333    0.4351851851851852 F F F Si
   0.6666666666666666    0.8333333333333334    0.4907407407407408 F F F Si
   0.0000000000000000    0.5000000000000000    0.4722222222222222 F F F Si
   0.0000000000000000    0.0000000000000000    0.4166666666666667 F F F Si
   0.4038004611219375    0.2980997694390312    0.6057666922845522 F F F Hf
   0.4038004611219375    0.7980997694390313    0.5502111367289966 F F F Hf
   0.0000000000000000    0.2019002305609687    0.5053444188265590 F F F Hf
   0.0000000000000000    0.7019002305609687    0.5608999743821146 F F F Hf
   0.5961995388780625    0.5000000000000000    0.5833333333333333 F F F Hf
   0.5961995388780624    0.0000000000000000    0.5277777777777778 F F F Hf
   0.7438095920891613    0.1280952039554193    0.5691005328938423 F F F Re
   0.7438095920891613    0.6280952039554193    0.5135449773382867 F F F Re
   0.0000000000000001    0.3719047960445807    0.5420105782172688 F F F Re
   0.0000000000000000    0.8719047960445807    0.5975661337728244 F F F Re
   0.2561904079108386    0.4999999999999999    0.5277777777777778 F F F Re
   0.2561904079108385    0.0000000000000000    0.5833333333333334 F F F Re
   0.3333333333333333    0.1666666666666667    0.5648148148148149 F F F Si
   0.3333333333333333    0.6666666666666667    0.5092592592592593 F F F Si
   0.6666666666666666    0.3333333333333333    0.5462962962962963 F F F Si
   0.6666666666666666    0.8333333333333334    0.6018518518518519 F F F Si
   0.0000000000000000    0.5000000000000000    0.5833333333333333 F F F Si
   0.0000000000000000    0.0000000000000000    0.5277777777777778 F F F Si
   0.4038004611219375    0.2980997694390312    0.7168778033956632 T T T Hf
   0.4038004611219375    0.7980997694390313    0.6613222478401076 T T T Hf
   0.0000000000000000    0.2019002305609687    0.6164555299376702 T T T Hf
   0.0000000000000000    0.7019002305609687    0.6720110854932257 T T T Hf
   0.5961995388780625    0.5000000000000000    0.6944444444444444 T T T Hf
   0.5961995388780624    0.0000000000000000    0.6388888888888888 T T T Hf
   0.7438095920891613    0.1280952039554193    0.6802116440049535 T T T Re
   0.7438095920891613    0.6280952039554193    0.6246560884493979 T T T Re
   0.0000000000000001    0.3719047960445807    0.6531216893283800 T T T Re
   0.0000000000000000    0.8719047960445807    0.7086772448839355 T T T Re
   0.2561904079108386    0.4999999999999999    0.6388888888888888 T T T Re
   0.2561904079108385    0.0000000000000000    0.6944444444444444 T T T Re
   0.3333333333333333    0.1666666666666667    0.6759259259259259 T T T Si
   0.3333333333333333    0.6666666666666667    0.6203703703703705 T T T Si
   0.6666666666666666    0.3333333333333333    0.6574074074074074 T T T Si
   0.6666666666666666    0.8333333333333334    0.7129629629629630 T T T Si
   0.0000000000000000    0.5000000000000000    0.6944444444444444 T T T Si
   0.0000000000000000    0.0000000000000000    0.6388888888888888 T T T Si
