Li24 Pd12 Au12
1.0
   6.0740508817700345    0.0000000000000000   -6.0740508817700336
  -0.0000000000000004    6.0740508817700345   -6.0740508817700336
   0.0000000000000000    0.0000000000000000   48.5924070541602759
Li Pd Au Li Pd Au Li Pd Au
8 4 4 8 4 4 8 4 4
Selective dynamics
direct
   0.2500000000000000    0.7499999999999999    0.4218750000000000 T T T Li
   0.7500000000000000    0.7499999999999999    0.3593750000000000 T T T Li
   0.7500000000000000    0.2499999999999999    0.4218750000000000 T T T Li
   0.2500000000000000    0.2500000000000000    0.3593750000000000 T T T Li
   0.2500000000000000    0.2500000000000000    0.4218750000000000 T T T Li
   0.7500000000000000    0.2500000000000000    0.3593750000000000 T T T Li
   0.7500000000000000    0.7500000000000000    0.4218750000000000 T T T Li
   0.2500000000000000    0.7499999999999999    0.3593750000000000 T T T Li
   0.0000000000000000    0.0000000000000000    0.3906250000000000 T T T Pd
   0.4999999999999999    0.4999999999999999    0.3906250000000000 T T T Pd
   0.0000000000000000    0.4999999999999999    0.3906250000000000 T T T Pd
   0.4999999999999999    0.0000000000000000    0.3906250000000000 T T T Pd
   0.0000000000000000    0.0000000000000000    0.3281250000000000 T T T Au
   0.4999999999999999    0.4999999999999999    0.3281250000000000 T T T Au
   0.0000000000000000    0.4999999999999999    0.3281250000000000 T T T Au
   0.4999999999999999    0.0000000000000000    0.3281250000000000 T T T Au
   0.2500000000000000    0.7499999999999999    0.5468750000000000 F F F Li
   0.7500000000000000    0.7499999999999999    0.4843750000000000 F F F Li
   0.7500000000000000    0.2499999999999999    0.5468750000000000 F F F Li
   0.2500000000000000    0.2500000000000000    0.4843750000000000 F F F Li
   0.2500000000000000    0.2500000000000000    0.5468750000000000 F F F Li
   0.7500000000000000    0.2500000000000000    0.4843750000000000 F F F Li
   0.7500000000000000    0.7500000000000000    0.5468750000000000 F F F Li
   0.2500000000000000    0.7499999999999999    0.4843750000000000 F F F Li
   0.0000000000000000    0.0000000000000000    0.5156250000000000 F F F Pd
   0.4999999999999999    0.4999999999999999    0.5156250000000000 F F F Pd
   0.0000000000000000    0.4999999999999999    0.5156250000000000 F F F Pd
   0.4999999999999999    0.0000000000000000    0.5156250000000000 F F F Pd
   0.0000000000000000    0.0000000000000000    0.4531250000000000 F F F Au
   0.4999999999999999    0.4999999999999999    0.4531250000000000 F F F Au
   0.0000000000000000    0.4999999999999999    0.4531250000000000 F F F Au
   0.4999999999999999    0.0000000000000000    0.4531250000000000 F F F Au
   0.2500000000000000    0.7499999999999999    0.6718750000000000 T T T Li
   0.7500000000000000    0.7499999999999999    0.6093750000000000 T T T Li
   0.7500000000000000    0.2499999999999999    0.6718750000000000 T T T Li
   0.2500000000000000    0.2500000000000000    0.6093750000000000 T T T Li
   0.2500000000000000    0.2500000000000000    0.6718750000000000 T T T Li
   0.7500000000000000    0.2500000000000000    0.6093750000000000 T T T Li
   0.7500000000000000    0.7500000000000000    0.6718750000000000 T T T Li
   0.2500000000000000    0.7499999999999999    0.6093750000000000 T T T Li
   0.0000000000000000    0.0000000000000000    0.6406250000000000 T T T Pd
   0.4999999999999999    0.4999999999999999    0.6406250000000000 T T T Pd
   0.0000000000000000    0.4999999999999999    0.6406250000000000 T T T Pd
   0.4999999999999999    0.0000000000000000    0.6406250000000000 T T T Pd
   0.0000000000000000    0.0000000000000000    0.5781250000000000 T T T Au
   0.4999999999999999    0.4999999999999999    0.5781250000000000 T T T Au
   0.0000000000000000    0.4999999999999999    0.5781250000000000 T T T Au
   0.4999999999999999    0.0000000000000000    0.5781250000000000 T T T Au
