Zr16 Co8 Si16
1.0
   3.8858757392519396    0.0000000000000000    0.0000000000000002
  -0.0000000000000005    8.7360796793918283    4.7176061268883922
   0.0000000000000000    0.0000000000000000   37.8457644863062654
Zr Co Si Zr Co Si
8 4 8 8 4 8
Selective dynamics
direct
   0.5000000000000000    0.3119567399684087    0.3340084753519132 T T T Zr
   0.5000000000000000    0.6880432600315913    0.2909915246480868 T T T Zr
   0.0000000000000000    0.9982359976732980    0.2692110327625645 T T T Zr
   0.0000000000000000    0.0017640023267022    0.3557889672374354 T T T Zr
   0.0000000000000000    0.8119567399684087    0.4590084753519132 F F F Zr
   0.0000000000000000    0.1880432600315913    0.4159915246480868 F F F Zr
   0.5000000000000000    0.4982359976732980    0.3942110327625645 F F F Zr
   0.5000000000000000    0.5017640023267020    0.4807889672374355 F F F Zr
   0.0000000000000000    0.2771823993242961    0.2746863712226180 T T T Co
   0.0000000000000000    0.7228176006757039    0.3503136287773820 T T T Co
   0.5000000000000000    0.7771823993242961    0.3996863712226180 F F F Co
   0.5000000000000000    0.2228176006757039    0.4753136287773820 F F F Co
   0.5000000000000000    0.1435070515328718    0.2941795799109155 T T T Si
   0.5000000000000000    0.8564929484671282    0.3308204200890845 T T T Si
   0.5000000000000000    0.0122928458598325    0.4035688423150958 F F F Si
   0.5000000000000000    0.9877071541401675    0.4714311576849042 F F F Si
   0.0000000000000000    0.6435070515328718    0.4191795799109155 F F F Si
   0.0000000000000000    0.3564929484671283    0.4558204200890845 F F F Si
   0.0000000000000000    0.5122928458598326    0.2785688423150958 T T T Si
   0.0000000000000000    0.4877071541401676    0.3464311576849042 T T T Si
   0.5000000000000000    0.3119567399684087    0.5840084753519132 F F F Zr
   0.5000000000000000    0.6880432600315913    0.5409915246480868 F F F Zr
   0.0000000000000000    0.9982359976732980    0.5192110327625645 F F F Zr
   0.0000000000000000    0.0017640023267022    0.6057889672374355 F F F Zr
   0.0000000000000000    0.8119567399684087    0.7090084753519132 T T T Zr
   0.0000000000000000    0.1880432600315913    0.6659915246480868 T T T Zr
   0.5000000000000000    0.4982359976732980    0.6442110327625645 T T T Zr
   0.5000000000000000    0.5017640023267020    0.7307889672374355 T T T Zr
   0.0000000000000000    0.2771823993242961    0.5246863712226180 F F F Co
   0.0000000000000000    0.7228176006757039    0.6003136287773820 F F F Co
   0.5000000000000000    0.7771823993242961    0.6496863712226180 T T T Co
   0.5000000000000000    0.2228176006757039    0.7253136287773820 T T T Co
   0.5000000000000000    0.1435070515328718    0.5441795799109155 F F F Si
   0.5000000000000000    0.8564929484671282    0.5808204200890845 F F F Si
   0.5000000000000000    0.0122928458598325    0.6535688423150958 T T T Si
   0.5000000000000000    0.9877071541401675    0.7214311576849042 T T T Si
   0.0000000000000000    0.6435070515328718    0.6691795799109155 T T T Si
   0.0000000000000000    0.3564929484671283    0.7058204200890845 T T T Si
   0.0000000000000000    0.5122928458598326    0.5285688423150958 F F F Si
   0.0000000000000000    0.4877071541401676    0.5964311576849042 F F F Si
