Y24 Co48 Ge48
1.0
   7.9176260180386420    0.0000000000000000   -3.9588130090193210
  -0.0000000000000012   20.2679041729060962   -3.9588130090193250
   0.0000000000000000    0.0000000000000000   31.6705040721545714
Y Co Ge Y Co Ge Y Co Ge
8 16 16 8 16 16 8 16 16
Selective dynamics
direct
   0.5000000000000000    0.5000000000000000    0.4187500000000001 T T T Y
   0.0000000000000000    0.0000000000000000    0.4187500000000001 T T T Y
   0.0000000000000000    0.5000000000000000    0.3562500000000001 T T T Y
   0.5000000000000000    0.0000000000000001    0.3562500000000001 T T T Y
   0.7500000000000001    0.7500000000000000    0.4187500000000001 T T T Y
   0.2500000000000000    0.2500000000000001    0.4187500000000001 T T T Y
   0.2500000000000000    0.7500000000000000    0.3562500000000001 T T T Y
   0.7500000000000001    0.2500000000000001    0.3562500000000001 T T T Y
   0.7500000000000001    0.6250000000000001    0.3406250000000001 T T T Co
   0.2500000000000000    0.1250000000000000    0.3406250000000001 T T T Co
   0.2500000000000000    0.6250000000000001    0.4031250000000001 T T T Co
   0.7500000000000001    0.1250000000000001    0.4031250000000001 T T T Co
   0.5000000000000000    0.6250000000000001    0.3718750000000001 T T T Co
   0.0000000000000000    0.1250000000000000    0.3718750000000001 T T T Co
   0.0000000000000000    0.6250000000000001    0.4343750000000001 F F F Co
   0.5000000000000000    0.1250000000000001    0.4343750000000001 F F F Co
   0.5000000000000000    0.8750000000000000    0.4031250000000001 T T T Co
   0.0000000000000000    0.3750000000000001    0.4031250000000001 T T T Co
   0.0000000000000000    0.8750000000000000    0.3406250000000001 T T T Co
   0.5000000000000000    0.3750000000000001    0.3406250000000001 T T T Co
   0.7500000000000001    0.8750000000000000    0.3718750000000001 T T T Co
   0.2500000000000000    0.3750000000000001    0.3718750000000001 T T T Co
   0.2500000000000000    0.8750000000000000    0.4343750000000001 F F F Co
   0.7500000000000001    0.3750000000000001    0.4343750000000001 F F F Co
   0.7500000000000001    0.5639842197031514    0.3954980274628940 T T T Ge
   0.2500000000000000    0.0639842197031513    0.3954980274628940 T T T Ge
   0.2500000000000000    0.5639842197031514    0.3329980274628940 T T T Ge
   0.7500000000000001    0.0639842197031514    0.3329980274628940 T T T Ge
   0.5000000000000000    0.6860157802968487    0.3170019725371062 T T T Ge
   0.0000000000000000    0.1860157802968487    0.3170019725371062 T T T Ge
   0.0000000000000000    0.6860157802968487    0.3795019725371062 T T T Ge
   0.5000000000000000    0.1860157802968488    0.3795019725371062 T T T Ge
   0.5000000000000000    0.8139842197031513    0.3329980274628940 T T T Ge
   0.0000000000000000    0.3139842197031513    0.3329980274628940 T T T Ge
   0.0000000000000000    0.8139842197031513    0.3954980274628940 T T T Ge
   0.5000000000000000    0.3139842197031513    0.3954980274628940 T T T Ge
   0.7500000000000001    0.9360157802968488    0.3170019725371062 T T T Ge
   0.2500000000000000    0.4360157802968488    0.3170019725371062 T T T Ge
   0.2500000000000000    0.9360157802968488    0.3795019725371062 T T T Ge
   0.7500000000000001    0.4360157802968488    0.3795019725371062 T T T Ge
   0.5000000000000000    0.5000000000000000    0.5437500000000001 F F F Y
   0.0000000000000000    0.0000000000000000    0.5437500000000001 F F F Y
   0.0000000000000000    0.5000000000000000    0.4812500000000001 F F F Y
   0.5000000000000000    0.0000000000000001    0.4812500000000001 F F F Y
   0.7500000000000001    0.7500000000000000    0.5437500000000001 F F F Y
   0.2500000000000000    0.2500000000000001    0.5437500000000001 F F F Y
   0.2500000000000000    0.7500000000000000    0.4812500000000001 F F F Y
   0.7500000000000001    0.2500000000000001    0.4812500000000001 F F F Y
   0.7500000000000001    0.6250000000000001    0.4656250000000001 F F F Co
   0.2500000000000000    0.1250000000000000    0.4656250000000001 F F F Co
   0.2500000000000000    0.6250000000000001    0.5281250000000001 F F F Co
   0.7500000000000001    0.1250000000000001    0.5281250000000001 F F F Co
   0.5000000000000000    0.6250000000000001    0.4968750000000001 F F F Co
   0.0000000000000000    0.1250000000000000    0.4968750000000001 F F F Co
   0.0000000000000000    0.6250000000000001    0.5593750000000001 F F F Co
   0.5000000000000000    0.1250000000000001    0.5593750000000001 F F F Co
   0.5000000000000000    0.8750000000000000    0.5281250000000001 F F F Co
   0.0000000000000000    0.3750000000000001    0.5281250000000001 F F F Co
   0.0000000000000000    0.8750000000000000    0.4656250000000001 F F F Co
   0.5000000000000000    0.3750000000000001    0.4656250000000001 F F F Co
   0.7500000000000001    0.8750000000000000    0.4968750000000001 F F F Co
   0.2500000000000000    0.3750000000000001    0.4968750000000001 F F F Co
   0.2500000000000000    0.8750000000000000    0.5593750000000001 F F F Co
   0.7500000000000001    0.3750000000000001    0.5593750000000001 F F F Co
   0.7500000000000001    0.5639842197031514    0.5204980274628940 F F F Ge
   0.2500000000000000    0.0639842197031513    0.5204980274628940 F F F Ge
   0.2500000000000000    0.5639842197031514    0.4579980274628940 F F F Ge
   0.7500000000000001    0.0639842197031514    0.4579980274628940 F F F Ge
   0.5000000000000000    0.6860157802968487    0.4420019725371062 F F F Ge
   0.0000000000000000    0.1860157802968487    0.4420019725371062 F F F Ge
   0.0000000000000000    0.6860157802968487    0.5045019725371062 F F F Ge
   0.5000000000000000    0.1860157802968488    0.5045019725371062 F F F Ge
   0.5000000000000000    0.8139842197031513    0.4579980274628940 F F F Ge
   0.0000000000000000    0.3139842197031513    0.4579980274628940 F F F Ge
   0.0000000000000000    0.8139842197031513    0.5204980274628940 F F F Ge
   0.5000000000000000    0.3139842197031513    0.5204980274628940 F F F Ge
   0.7500000000000001    0.9360157802968488    0.4420019725371062 F F F Ge
   0.2500000000000000    0.4360157802968488    0.4420019725371062 F F F Ge
   0.2500000000000000    0.9360157802968488    0.5045019725371062 F F F Ge
   0.7500000000000001    0.4360157802968488    0.5045019725371062 F F F Ge
   0.5000000000000000    0.5000000000000000    0.6687500000000001 T T T Y
   0.0000000000000000    0.0000000000000000    0.6687500000000001 T T T Y
   0.0000000000000000    0.5000000000000000    0.6062500000000001 T T T Y
   0.5000000000000000    0.0000000000000001    0.6062500000000001 T T T Y
   0.7500000000000001    0.7500000000000000    0.6687500000000001 T T T Y
   0.2500000000000000    0.2500000000000001    0.6687500000000001 T T T Y
   0.2500000000000000    0.7500000000000000    0.6062500000000001 T T T Y
   0.7500000000000001    0.2500000000000001    0.6062500000000001 T T T Y
   0.7500000000000001    0.6250000000000001    0.5906250000000001 T T T Co
   0.2500000000000000    0.1250000000000000    0.5906250000000001 T T T Co
   0.2500000000000000    0.6250000000000001    0.6531250000000001 T T T Co
   0.7500000000000001    0.1250000000000001    0.6531250000000001 T T T Co
   0.5000000000000000    0.6250000000000001    0.6218750000000001 T T T Co
   0.0000000000000000    0.1250000000000000    0.6218750000000001 T T T Co
   0.0000000000000000    0.6250000000000001    0.6843750000000001 T T T Co
   0.5000000000000000    0.1250000000000001    0.6843750000000001 T T T Co
   0.5000000000000000    0.8750000000000000    0.6531250000000001 T T T Co
   0.0000000000000000    0.3750000000000001    0.6531250000000001 T T T Co
   0.0000000000000000    0.8750000000000000    0.5906250000000001 T T T Co
   0.5000000000000000    0.3750000000000001    0.5906250000000001 T T T Co
   0.7500000000000001    0.8750000000000000    0.6218750000000001 T T T Co
   0.2500000000000000    0.3750000000000001    0.6218750000000001 T T T Co
   0.2500000000000000    0.8750000000000000    0.6843750000000001 T T T Co
   0.7500000000000001    0.3750000000000001    0.6843750000000001 T T T Co
   0.7500000000000001    0.5639842197031514    0.6454980274628940 T T T Ge
   0.2500000000000000    0.0639842197031513    0.6454980274628940 T T T Ge
   0.2500000000000000    0.5639842197031514    0.5829980274628940 T T T Ge
   0.7500000000000001    0.0639842197031514    0.5829980274628940 T T T Ge
   0.5000000000000000    0.6860157802968487    0.5670019725371062 F F F Ge
   0.0000000000000000    0.1860157802968487    0.5670019725371062 F F F Ge
   0.0000000000000000    0.6860157802968487    0.6295019725371062 T T T Ge
   0.5000000000000000    0.1860157802968488    0.6295019725371062 T T T Ge
   0.5000000000000000    0.8139842197031513    0.5829980274628940 T T T Ge
   0.0000000000000000    0.3139842197031513    0.5829980274628940 T T T Ge
   0.0000000000000000    0.8139842197031513    0.6454980274628940 T T T Ge
   0.5000000000000000    0.3139842197031513    0.6454980274628940 T T T Ge
   0.7500000000000001    0.9360157802968488    0.5670019725371062 F F F Ge
   0.2500000000000000    0.4360157802968488    0.5670019725371062 F F F Ge
   0.2500000000000000    0.9360157802968488    0.6295019725371062 T T T Ge
   0.7500000000000001    0.4360157802968488    0.6295019725371062 T T T Ge
