Mg24 Zn24 Co24
1.0
   9.9286759445534454    0.0000000000000000    5.0209802709429630
   4.9643379722767182    7.0525922457402679    0.0000000000000005
   0.0000000000000000    0.0000000000000000   35.1468618966007611
Mg Zn Co Mg Zn Co Mg Zn Co
8 8 8 8 8 8 8 8 8
Selective dynamics
direct
   0.4415156449852909    0.1169687100294183    0.3238310983354347 T T T Mg
   0.9415156449852908    0.1169687100294183    0.3952596697640061 T T T Mg
   0.0584843550147093    0.8830312899705817    0.3071212826169463 T T T Mg
   0.5584843550147092    0.8830312899705817    0.3785498540455178 T T T Mg
   0.9415156449852909    0.6169687100294183    0.3238310983354347 T T T Mg
   0.4415156449852909    0.6169687100294183    0.3952596697640061 T T T Mg
   0.0584843550147092    0.3830312899705817    0.3785498540455178 T T T Mg
   0.5584843550147092    0.3830312899705817    0.3071212826169463 T T T Mg
   0.2500000000000001    0.0000000000000000    0.3869047619047620 T T T Zn
   0.7500000000000000    0.0000000000000000    0.3154761904761905 T T T Zn
   0.2500000000000001    0.0000000000000000    0.3154761904761905 T T T Zn
   0.7500000000000000    0.0000000000000000    0.3869047619047620 T T T Zn
   0.2500000000000001    0.4999999999999999    0.3154761904761905 T T T Zn
   0.7500000000000000    0.4999999999999999    0.3869047619047620 T T T Zn
   0.2500000000000000    0.5000000000000000    0.3869047619047620 T T T Zn
   0.7500000000000000    0.5000000000000000    0.3154761904761905 T T T Zn
   0.7500000000000001    0.7500000000000000    0.4226190476190477 F F F Co
   0.2500000000000000    0.7500000000000000    0.3511904761904762 T T T Co
   0.0000000000000001    0.7500000000000000    0.3869047619047620 T T T Co
   0.5000000000000000    0.7500000000000000    0.3154761904761905 T T T Co
   0.2500000000000001    0.2500000000000000    0.4226190476190477 F F F Co
   0.7500000000000000    0.2500000000000000    0.3511904761904762 T T T Co
   0.0000000000000001    0.2500000000000000    0.3154761904761905 T T T Co
   0.5000000000000000    0.2500000000000000    0.3869047619047619 T T T Co
   0.4415156449852909    0.1169687100294183    0.4666882411925776 F F F Mg
   0.9415156449852908    0.1169687100294183    0.5381168126211490 F F F Mg
   0.0584843550147093    0.8830312899705817    0.4499784254740892 F F F Mg
   0.5584843550147092    0.8830312899705817    0.5214069969026607 F F F Mg
   0.9415156449852909    0.6169687100294183    0.4666882411925775 F F F Mg
   0.4415156449852909    0.6169687100294183    0.5381168126211490 F F F Mg
   0.0584843550147092    0.3830312899705817    0.5214069969026607 F F F Mg
   0.5584843550147092    0.3830312899705817    0.4499784254740892 F F F Mg
   0.2500000000000001    0.0000000000000000    0.5297619047619048 F F F Zn
   0.7500000000000000    0.0000000000000000    0.4583333333333334 F F F Zn
   0.2500000000000001    0.0000000000000000    0.4583333333333334 F F F Zn
   0.7500000000000000    0.0000000000000000    0.5297619047619048 F F F Zn
   0.2500000000000001    0.4999999999999999    0.4583333333333334 F F F Zn
   0.7500000000000000    0.4999999999999999    0.5297619047619048 F F F Zn
   0.2500000000000000    0.5000000000000000    0.5297619047619048 F F F Zn
   0.7500000000000000    0.5000000000000000    0.4583333333333334 F F F Zn
   0.7500000000000001    0.7500000000000000    0.5654761904761905 F F F Co
   0.2500000000000000    0.7500000000000000    0.4940476190476191 F F F Co
   0.0000000000000001    0.7500000000000000    0.5297619047619048 F F F Co
   0.5000000000000000    0.7500000000000000    0.4583333333333334 F F F Co
   0.2500000000000001    0.2500000000000000    0.5654761904761905 F F F Co
   0.7500000000000000    0.2500000000000000    0.4940476190476191 F F F Co
   0.0000000000000001    0.2500000000000000    0.4583333333333334 F F F Co
   0.5000000000000000    0.2500000000000000    0.5297619047619048 F F F Co
   0.4415156449852909    0.1169687100294183    0.6095453840497204 T T T Mg
   0.9415156449852908    0.1169687100294183    0.6809739554782919 T T T Mg
   0.0584843550147093    0.8830312899705817    0.5928355683312321 F F F Mg
   0.5584843550147092    0.8830312899705817    0.6642641397598035 T T T Mg
   0.9415156449852909    0.6169687100294183    0.6095453840497204 T T T Mg
   0.4415156449852909    0.6169687100294183    0.6809739554782918 T T T Mg
   0.0584843550147092    0.3830312899705817    0.6642641397598035 T T T Mg
   0.5584843550147092    0.3830312899705817    0.5928355683312321 F F F Mg
   0.2500000000000001    0.0000000000000000    0.6726190476190477 T T T Zn
   0.7500000000000000    0.0000000000000000    0.6011904761904763 F F F Zn
   0.2500000000000001    0.0000000000000000    0.6011904761904763 F F F Zn
   0.7500000000000000    0.0000000000000000    0.6726190476190477 T T T Zn
   0.2500000000000001    0.4999999999999999    0.6011904761904763 F F F Zn
   0.7500000000000000    0.4999999999999999    0.6726190476190477 T T T Zn
   0.2500000000000000    0.5000000000000000    0.6726190476190477 T T T Zn
   0.7500000000000000    0.5000000000000000    0.6011904761904763 F F F Zn
   0.7500000000000001    0.7500000000000000    0.7083333333333334 T T T Co
   0.2500000000000000    0.7500000000000000    0.6369047619047619 T T T Co
   0.0000000000000001    0.7500000000000000    0.6726190476190477 T T T Co
   0.5000000000000000    0.7500000000000000    0.6011904761904763 F F F Co
   0.2500000000000001    0.2500000000000000    0.7083333333333334 T T T Co
   0.7500000000000000    0.2500000000000000    0.6369047619047619 T T T Co
   0.0000000000000001    0.2500000000000000    0.6011904761904762 F F F Co
   0.5000000000000000    0.2500000000000000    0.6726190476190477 T T T Co
