Sr12 Zn24 Ge24
1.0
   4.4316461808367862    0.0000000000000000    0.0000000000000003
   0.0000000000000034   21.4320587259545725   -4.4316461808367844
   0.0000000000000000    0.0000000000000000   31.0215232658575033
Sr Zn Ge Sr Zn Ge Sr Zn Ge
4 8 8 4 8 8 4 8 8
Selective dynamics
direct
   0.0000000000000000    0.0000000000000000    0.4178571428571429 F F F Sr
   0.0000000000000000    0.5000000000000000    0.3464285714285715 T T T Sr
   0.5000000000000000    0.2500000000000001    0.3821428571428572 T T T Sr
   0.5000000000000000    0.7500000000000000    0.3107142857142857 T T T Sr
   0.0000000000000000    0.1250000000000001    0.3642857142857143 T T T Zn
   0.0000000000000000    0.6250000000000001    0.2928571428571429 T T T Zn
   0.5000000000000000    0.1250000000000000    0.2928571428571429 T T T Zn
   0.5000000000000000    0.6250000000000001    0.3642857142857143 T T T Zn
   0.5000000000000000    0.3750000000000000    0.3285714285714286 T T T Zn
   0.5000000000000000    0.8750000000000000    0.4000000000000000 F F F Zn
   0.0000000000000000    0.3750000000000001    0.4000000000000000 F F F Zn
   0.0000000000000000    0.8750000000000000    0.3285714285714286 T T T Zn
   0.5000000000000000    0.0601139022512847    0.3550162717501836 T T T Ge
   0.5000000000000000    0.5601139022512848    0.4264448431787550 F F F Ge
   0.0000000000000000    0.1898860977487153    0.3021265853926736 T T T Ge
   0.0000000000000000    0.6898860977487153    0.3735551568212451 T T T Ge
   0.0000000000000000    0.3101139022512847    0.3193019860358978 T T T Ge
   0.0000000000000000    0.8101139022512847    0.3907305574644693 T T T Ge
   0.5000000000000000    0.4398860977487155    0.4092694425355308 F F F Ge
   0.5000000000000000    0.9398860977487155    0.3378408711069594 T T T Ge
   0.0000000000000000    0.0000000000000000    0.5607142857142857 F F F Sr
   0.0000000000000000    0.5000000000000000    0.4892857142857143 F F F Sr
   0.5000000000000000    0.2500000000000001    0.5250000000000000 F F F Sr
   0.5000000000000000    0.7500000000000000    0.4535714285714286 F F F Sr
   0.0000000000000000    0.1250000000000001    0.5071428571428571 F F F Zn
   0.0000000000000000    0.6250000000000001    0.4357142857142857 F F F Zn
   0.5000000000000000    0.1250000000000000    0.4357142857142857 F F F Zn
   0.5000000000000000    0.6250000000000001    0.5071428571428571 F F F Zn
   0.5000000000000000    0.3750000000000000    0.4714285714285714 F F F Zn
   0.5000000000000000    0.8750000000000000    0.5428571428571429 F F F Zn
   0.0000000000000000    0.3750000000000001    0.5428571428571429 F F F Zn
   0.0000000000000000    0.8750000000000000    0.4714285714285714 F F F Zn
   0.5000000000000000    0.0601139022512847    0.4978734146073264 F F F Ge
   0.5000000000000000    0.5601139022512848    0.5693019860358979 F F F Ge
   0.0000000000000000    0.1898860977487153    0.4449837282498165 F F F Ge
   0.0000000000000000    0.6898860977487153    0.5164122996783880 F F F Ge
   0.0000000000000000    0.3101139022512847    0.4621591288930407 F F F Ge
   0.0000000000000000    0.8101139022512847    0.5335877003216121 F F F Ge
   0.5000000000000000    0.4398860977487155    0.5521265853926737 F F F Ge
   0.5000000000000000    0.9398860977487155    0.4806980139641022 F F F Ge
   0.0000000000000000    0.0000000000000000    0.7035714285714285 T T T Sr
   0.0000000000000000    0.5000000000000000    0.6321428571428571 T T T Sr
   0.5000000000000000    0.2500000000000001    0.6678571428571429 T T T Sr
   0.5000000000000000    0.7500000000000000    0.5964285714285714 F F F Sr
   0.0000000000000000    0.1250000000000001    0.6500000000000000 T T T Zn
   0.0000000000000000    0.6250000000000001    0.5785714285714285 F F F Zn
   0.5000000000000000    0.1250000000000000    0.5785714285714285 F F F Zn
   0.5000000000000000    0.6250000000000001    0.6500000000000000 T T T Zn
   0.5000000000000000    0.3750000000000000    0.6142857142857143 T T T Zn
   0.5000000000000000    0.8750000000000000    0.6857142857142857 T T T Zn
   0.0000000000000000    0.3750000000000001    0.6857142857142857 T T T Zn
   0.0000000000000000    0.8750000000000000    0.6142857142857143 T T T Zn
   0.5000000000000000    0.0601139022512847    0.6407305574644693 T T T Ge
   0.5000000000000000    0.5601139022512848    0.7121591288930407 T T T Ge
   0.0000000000000000    0.1898860977487153    0.5878408711069594 F F F Ge
   0.0000000000000000    0.6898860977487153    0.6592694425355308 T T T Ge
   0.0000000000000000    0.3101139022512847    0.6050162717501835 F F F Ge
   0.0000000000000000    0.8101139022512847    0.6764448431787550 T T T Ge
   0.5000000000000000    0.4398860977487155    0.6949837282498165 T T T Ge
   0.5000000000000000    0.9398860977487155    0.6235551568212451 T T T Ge
