Sr6 Zn12 Ge12
1.0
   4.4316461808367862    0.0000000000000000    0.0000000000000003
   0.0000000000000017   10.7160293629772863    0.0000000000000007
   0.0000000000000000    0.0000000000000000   31.0215232658575033
Sr Zn Ge Sr Zn Ge Sr Zn Ge
2 4 4 2 4 4 2 4 4
Selective dynamics
direct
   0.0000000000000000    0.0000000000000000    0.3928571428571428 T T T Sr
   0.5000000000000000    0.5000000000000000    0.3214285714285714 T T T Sr
   0.0000000000000000    0.2500000000000000    0.3214285714285714 T T T Zn
   0.5000000000000000    0.2500000000000000    0.3928571428571428 T T T Zn
   0.5000000000000000    0.7500000000000000    0.3928571428571428 T T T Zn
   0.0000000000000000    0.7500000000000000    0.3214285714285714 T T T Zn
   0.5000000000000000    0.1202278045025693    0.3214285714285714 T T T Ge
   0.0000000000000000    0.3797721954974307    0.3928571428571428 T T T Ge
   0.0000000000000000    0.6202278045025694    0.3928571428571428 T T T Ge
   0.5000000000000000    0.8797721954974308    0.3214285714285714 T T T Ge
   0.0000000000000000    0.0000000000000000    0.5357142857142857 F F F Sr
   0.5000000000000000    0.5000000000000000    0.4642857142857142 F F F Sr
   0.0000000000000000    0.2500000000000000    0.4642857142857142 F F F Zn
   0.5000000000000000    0.2500000000000000    0.5357142857142857 F F F Zn
   0.5000000000000000    0.7500000000000000    0.5357142857142857 F F F Zn
   0.0000000000000000    0.7500000000000000    0.4642857142857142 F F F Zn
   0.5000000000000000    0.1202278045025693    0.4642857142857142 F F F Ge
   0.0000000000000000    0.3797721954974307    0.5357142857142857 F F F Ge
   0.0000000000000000    0.6202278045025694    0.5357142857142857 F F F Ge
   0.5000000000000000    0.8797721954974308    0.4642857142857142 F F F Ge
   0.0000000000000000    0.0000000000000000    0.6785714285714286 T T T Sr
   0.5000000000000000    0.5000000000000000    0.6071428571428571 T T T Sr
   0.0000000000000000    0.2500000000000000    0.6071428571428571 T T T Zn
   0.5000000000000000    0.2500000000000000    0.6785714285714286 T T T Zn
   0.5000000000000000    0.7500000000000000    0.6785714285714286 T T T Zn
   0.0000000000000000    0.7500000000000000    0.6071428571428571 T T T Zn
   0.5000000000000000    0.1202278045025693    0.6071428571428571 T T T Ge
   0.0000000000000000    0.3797721954974307    0.6785714285714286 T T T Ge
   0.0000000000000000    0.6202278045025694    0.6785714285714286 T T T Ge
   0.5000000000000000    0.8797721954974308    0.6071428571428571 T T T Ge
