Cr4 Te16 Au4
1.0
   5.5522882255675245    0.0000000000000000   -0.0273115688460954
  -0.0000000000000005    8.1472137190811154    7.5618020985772834
   0.0000000000000000    0.0000000000000000   37.8090104928864363
Cr Te Au Cr Te Au
2 8 2 2 8 2
Selective dynamics
direct
   0.0000000000000000    0.2500000000000000    0.3416666666666666 T T T Cr
   0.0000000000000000    0.7500000000000000    0.4416666666666667 F F F Cr
   0.7827257493463693    0.2500000000000000    0.4768978244924607 F F F Te
   0.7827257493463693    0.7500000000000000    0.3768978244924607 T T T Te
   0.7067668306118123    0.0000000000000000    0.4151485656531431 F F F Te
   0.7067668306118122    0.5000000000000000    0.3151485656531430 T T T Te
   0.2172742506536308    0.2500000000000000    0.4064355088408727 T T T Te
   0.2172742506536307    0.7500000000000000    0.3064355088408727 T T T Te
   0.2932331693881878    0.0000000000000000    0.3681847676801903 T T T Te
   0.2932331693881878    0.5000000000000000    0.4681847676801902 F F F Te
   0.0000000000000000    0.0000000000000000    0.4916666666666666 F F F Au
   0.0000000000000000    0.5000000000000000    0.3916666666666666 T T T Au
   0.0000000000000000    0.2500000000000000    0.5416666666666666 F F F Cr
   0.0000000000000000    0.7500000000000000    0.6416666666666666 T T T Cr
   0.7827257493463693    0.2500000000000000    0.6768978244924606 T T T Te
   0.7827257493463693    0.7500000000000000    0.5768978244924606 F F F Te
   0.7067668306118123    0.0000000000000000    0.6151485656531430 T T T Te
   0.7067668306118122    0.5000000000000000    0.5151485656531430 F F F Te
   0.2172742506536308    0.2500000000000000    0.6064355088408727 T T T Te
   0.2172742506536307    0.7500000000000000    0.5064355088408727 F F F Te
   0.2932331693881878    0.0000000000000000    0.5681847676801903 F F F Te
   0.2932331693881878    0.5000000000000000    0.6681847676801903 T T T Te
   0.0000000000000000    0.0000000000000000    0.6916666666666667 T T T Au
   0.0000000000000000    0.5000000000000000    0.5916666666666667 T T T Au
