Ca32 Sb32 Au32
1.0
   8.1286082249194287    0.0000000000000000   -9.3861082935884781
  -0.0000000000000047   16.4410715652940667   -4.6930541467942408
   0.0000000000000000    0.0000000000000000   42.2374873211481443
Ca Sb Au Ca Sb Au Ca Sb Au Ca Sb Au
8 8 8 8 8 8 8 8 8 8 8 8
Selective dynamics
direct
   0.5000000000000000    0.7500000000000000    0.2916666666666667 T T T Ca
   0.0000000000000000    0.2500000000000000    0.2916666666666667 T T T Ca
   0.0000000000000000    0.7500000000000000    0.3472222222222222 T T T Ca
   0.5000000000000000    0.2500000000000000    0.3472222222222222 T T T Ca
   0.5000000000000000    0.5000000000000000    0.3750000000000000 T T T Ca
   0.0000000000000000    0.0000000000000000    0.3750000000000000 T T T Ca
   0.0000000000000000    0.5000000000000000    0.3194444444444444 T T T Ca
   0.5000000000000000    0.0000000000000000    0.3194444444444444 T T T Ca
   0.6666666666666666    0.6250000000000000    0.3703703703703703 T T T Sb
   0.1666666666666666    0.1250000000000000    0.3703703703703703 T T T Sb
   0.1666666666666666    0.6250000000000000    0.3148148148148148 T T T Sb
   0.6666666666666666    0.1250000000000000    0.3148148148148148 T T T Sb
   0.8333333333333334    0.8750000000000000    0.3796296296296296 T T T Sb
   0.3333333333333333    0.3750000000000000    0.3796296296296297 T T T Sb
   0.3333333333333333    0.8750000000000000    0.3240740740740741 T T T Sb
   0.8333333333333334    0.3750000000000001    0.3240740740740741 T T T Sb
   0.6666666666666666    0.8750000000000000    0.2870370370370370 T T T Au
   0.1666666666666666    0.3750000000000000    0.2870370370370370 T T T Au
   0.1666666666666666    0.8750000000000000    0.3425925925925926 T T T Au
   0.6666666666666666    0.3750000000000001    0.3425925925925926 T T T Au
   0.8333333333333334    0.6250000000000000    0.3518518518518519 T T T Au
   0.3333333333333333    0.1250000000000000    0.3518518518518519 T T T Au
   0.3333333333333333    0.6250000000000000    0.2962962962962963 T T T Au
   0.8333333333333334    0.1250000000000000    0.2962962962962963 T T T Au
   0.5000000000000000    0.7500000000000000    0.4027777777777778 F F F Ca
   0.0000000000000000    0.2500000000000000    0.4027777777777778 F F F Ca
   0.0000000000000000    0.7500000000000000    0.4583333333333333 F F F Ca
   0.5000000000000000    0.2500000000000000    0.4583333333333333 F F F Ca
   0.5000000000000000    0.5000000000000000    0.4861111111111111 F F F Ca
   0.0000000000000000    0.0000000000000000    0.4861111111111111 F F F Ca
   0.0000000000000000    0.5000000000000000    0.4305555555555556 F F F Ca
   0.5000000000000000    0.0000000000000000    0.4305555555555556 F F F Ca
   0.6666666666666666    0.6250000000000000    0.4814814814814815 F F F Sb
   0.1666666666666666    0.1250000000000000    0.4814814814814815 F F F Sb
   0.1666666666666666    0.6250000000000000    0.4259259259259259 F F F Sb
   0.6666666666666666    0.1250000000000000    0.4259259259259259 F F F Sb
   0.8333333333333334    0.8750000000000000    0.4907407407407407 F F F Sb
   0.3333333333333333    0.3750000000000000    0.4907407407407408 F F F Sb
   0.3333333333333333    0.8750000000000000    0.4351851851851852 F F F Sb
   0.8333333333333334    0.3750000000000001    0.4351851851851852 F F F Sb
   0.6666666666666666    0.8750000000000000    0.3981481481481481 F F F Au
   0.1666666666666666    0.3750000000000000    0.3981481481481481 F F F Au
   0.1666666666666666    0.8750000000000000    0.4537037037037037 F F F Au
   0.6666666666666666    0.3750000000000001    0.4537037037037037 F F F Au
   0.8333333333333334    0.6250000000000000    0.4629629629629630 F F F Au
   0.3333333333333333    0.1250000000000000    0.4629629629629630 F F F Au
   0.3333333333333333    0.6250000000000000    0.4074074074074074 F F F Au
   0.8333333333333334    0.1250000000000000    0.4074074074074074 F F F Au
   0.5000000000000000    0.7500000000000000    0.5138888888888888 F F F Ca
   0.0000000000000000    0.2500000000000000    0.5138888888888888 F F F Ca
   0.0000000000000000    0.7500000000000000    0.5694444444444444 F F F Ca
   0.5000000000000000    0.2500000000000000    0.5694444444444444 F F F Ca
   0.5000000000000000    0.5000000000000000    0.5972222222222222 F F F Ca
   0.0000000000000000    0.0000000000000000    0.5972222222222222 F F F Ca
   0.0000000000000000    0.5000000000000000    0.5416666666666666 F F F Ca
   0.5000000000000000    0.0000000000000000    0.5416666666666666 F F F Ca
   0.6666666666666666    0.6250000000000000    0.5925925925925926 F F F Sb
   0.1666666666666666    0.1250000000000000    0.5925925925925926 F F F Sb
   0.1666666666666666    0.6250000000000000    0.5370370370370370 F F F Sb
   0.6666666666666666    0.1250000000000000    0.5370370370370370 F F F Sb
   0.8333333333333334    0.8750000000000000    0.6018518518518519 F F F Sb
   0.3333333333333333    0.3750000000000000    0.6018518518518519 F F F Sb
   0.3333333333333333    0.8750000000000000    0.5462962962962963 F F F Sb
   0.8333333333333334    0.3750000000000001    0.5462962962962963 F F F Sb
   0.6666666666666666    0.8750000000000000    0.5092592592592593 F F F Au
   0.1666666666666666    0.3750000000000000    0.5092592592592593 F F F Au
   0.1666666666666666    0.8750000000000000    0.5648148148148149 F F F Au
   0.6666666666666666    0.3750000000000001    0.5648148148148148 F F F Au
   0.8333333333333334    0.6250000000000000    0.5740740740740741 F F F Au
   0.3333333333333333    0.1250000000000000    0.5740740740740741 F F F Au
   0.3333333333333333    0.6250000000000000    0.5185185185185185 F F F Au
   0.8333333333333334    0.1250000000000000    0.5185185185185185 F F F Au
   0.5000000000000000    0.7500000000000000    0.6250000000000000 T T T Ca
   0.0000000000000000    0.2500000000000000    0.6250000000000000 T T T Ca
   0.0000000000000000    0.7500000000000000    0.6805555555555556 T T T Ca
   0.5000000000000000    0.2500000000000000    0.6805555555555556 T T T Ca
   0.5000000000000000    0.5000000000000000    0.7083333333333333 T T T Ca
   0.0000000000000000    0.0000000000000000    0.7083333333333333 T T T Ca
   0.0000000000000000    0.5000000000000000    0.6527777777777778 T T T Ca
   0.5000000000000000    0.0000000000000000    0.6527777777777778 T T T Ca
   0.6666666666666666    0.6250000000000000    0.7037037037037037 T T T Sb
   0.1666666666666666    0.1250000000000000    0.7037037037037037 T T T Sb
   0.1666666666666666    0.6250000000000000    0.6481481481481481 T T T Sb
   0.6666666666666666    0.1250000000000000    0.6481481481481481 T T T Sb
   0.8333333333333334    0.8750000000000000    0.7129629629629629 T T T Sb
   0.3333333333333333    0.3750000000000000    0.7129629629629630 T T T Sb
   0.3333333333333333    0.8750000000000000    0.6574074074074074 T T T Sb
   0.8333333333333334    0.3750000000000001    0.6574074074074074 T T T Sb
   0.6666666666666666    0.8750000000000000    0.6203703703703703 T T T Au
   0.1666666666666666    0.3750000000000000    0.6203703703703703 T T T Au
   0.1666666666666666    0.8750000000000000    0.6759259259259259 T T T Au
   0.6666666666666666    0.3750000000000001    0.6759259259259259 T T T Au
   0.8333333333333334    0.6250000000000000    0.6851851851851851 T T T Au
   0.3333333333333333    0.1250000000000000    0.6851851851851851 T T T Au
   0.3333333333333333    0.6250000000000000    0.6296296296296295 T T T Au
   0.8333333333333334    0.1250000000000000    0.6296296296296295 T T T Au
