Ca10 Sb10 Au10
1.0
   4.0643041124597108    0.0000000000000000   -7.0395812201913595
  -0.0000000000000005    8.2205357826470333   -4.6930541467942373
   0.0000000000000000    0.0000000000000000   56.3166497615308614
Ca Sb Au Ca Sb Au Ca Sb Au Ca Sb Au Ca Sb Au
2 2 2 2 2 2 2 2 2 2 2 2 2 2 2
Selective dynamics
direct
   0.0000000000000000    0.5000000000000000    0.3263888888888888 T T T Ca
   0.0000000000000000    0.0000000000000000    0.3680555555555555 T T T Ca
   0.3333333333333333    0.2500000000000000    0.3055555555555555 T T T Sb
   0.6666666666666667    0.7500000000000000    0.3472222222222222 T T T Sb
   0.3333333333333333    0.7500000000000000    0.3472222222222222 T T T Au
   0.6666666666666667    0.2500000000000000    0.3055555555555555 T T T Au
   0.0000000000000000    0.5000000000000000    0.4097222222222222 T T T Ca
   0.0000000000000000    0.0000000000000000    0.4513888888888888 F F F Ca
   0.3333333333333333    0.2500000000000000    0.3888888888888888 T T T Sb
   0.6666666666666667    0.7500000000000000    0.4305555555555555 F F F Sb
   0.3333333333333333    0.7500000000000000    0.4305555555555555 F F F Au
   0.6666666666666667    0.2500000000000000    0.3888888888888888 T T T Au
   0.0000000000000000    0.5000000000000000    0.4930555555555555 F F F Ca
   0.0000000000000000    0.0000000000000000    0.5347222222222221 F F F Ca
   0.3333333333333333    0.2500000000000000    0.4722222222222222 F F F Sb
   0.6666666666666667    0.7500000000000000    0.5138888888888888 F F F Sb
   0.3333333333333333    0.7500000000000000    0.5138888888888888 F F F Au
   0.6666666666666667    0.2500000000000000    0.4722222222222222 F F F Au
   0.0000000000000000    0.5000000000000000    0.5763888888888888 F F F Ca
   0.0000000000000000    0.0000000000000000    0.6180555555555556 T T T Ca
   0.3333333333333333    0.2500000000000000    0.5555555555555556 F F F Sb
   0.6666666666666667    0.7500000000000000    0.5972222222222221 T T T Sb
   0.3333333333333333    0.7500000000000000    0.5972222222222221 T T T Au
   0.6666666666666667    0.2500000000000000    0.5555555555555556 F F F Au
   0.0000000000000000    0.5000000000000000    0.6597222222222221 T T T Ca
   0.0000000000000000    0.0000000000000000    0.7013888888888888 T T T Ca
   0.3333333333333333    0.2500000000000000    0.6388888888888888 T T T Sb
   0.6666666666666667    0.7500000000000000    0.6805555555555555 T T T Sb
   0.3333333333333333    0.7500000000000000    0.6805555555555555 T T T Au
   0.6666666666666667    0.2500000000000000    0.6388888888888888 T T T Au
