Y9 Ag9 Pb9
1.0
   4.5582553532038990    0.0000000000000000    0.0000000000000003
   0.0000000000000011    6.5554169819680892  -11.3543152775685758
   0.0000000000000000    0.0000000000000000   52.9868046286533385
Y Ag Pb Y Ag Pb Y Ag Pb
3 3 3 3 3 3 3 3 3
Selective dynamics
direct
   0.5000000000000000    0.0000000000000000    0.3704584556044325 T T T Y
   0.5000000000000000    0.5734574774356389    0.3305116602197063 T T T Y
   0.5000000000000000    0.4265425225643611    0.3704584556044325 T T T Y
   0.0000000000000000    0.0000000000000000    0.4171500071944490 T T T Ag
   0.0000000000000000    0.2466166163055235    0.3799856998968162 T T T Ag
   0.0000000000000000    0.7533833836944765    0.4171500071944490 T T T Ag
   0.5000000000000000    0.0000000000000000    0.3095238095238095 T T T Pb
   0.0000000000000000    0.3333333333333334    0.3095238095238095 T T T Pb
   0.0000000000000000    0.6666666666666666    0.3095238095238095 T T T Pb
   0.5000000000000000    0.0000000000000000    0.5133155984615754 F F F Y
   0.5000000000000000    0.5734574774356389    0.4733688030768492 F F F Y
   0.5000000000000000    0.4265425225643611    0.5133155984615754 F F F Y
   0.0000000000000000    0.0000000000000000    0.5600071500515919 F F F Ag
   0.0000000000000000    0.2466166163055235    0.5228428427539591 F F F Ag
   0.0000000000000000    0.7533833836944765    0.5600071500515919 F F F Ag
   0.5000000000000000    0.0000000000000000    0.4523809523809523 F F F Pb
   0.0000000000000000    0.3333333333333334    0.4523809523809523 F F F Pb
   0.0000000000000000    0.6666666666666666    0.4523809523809523 F F F Pb
   0.5000000000000000    0.0000000000000000    0.6561727413187182 T T T Y
   0.5000000000000000    0.5734574774356389    0.6162259459339920 T T T Y
   0.5000000000000000    0.4265425225643611    0.6561727413187182 T T T Y
   0.0000000000000000    0.0000000000000000    0.7028642929087348 T T T Ag
   0.0000000000000000    0.2466166163055235    0.6656999856111019 T T T Ag
   0.0000000000000000    0.7533833836944765    0.7028642929087348 T T T Ag
   0.5000000000000000    0.0000000000000000    0.5952380952380952 T T T Pb
   0.0000000000000000    0.3333333333333334    0.5952380952380952 T T T Pb
   0.0000000000000000    0.6666666666666666    0.5952380952380952 T T T Pb
