Y18 Ag18 Pb18
1.0
  20.0271296879118417    0.0000000000000000    0.0000000000000012
   5.7220370536890970    4.9554294498906195    4.5582553532038999
   0.0000000000000000    0.0000000000000000   36.4660428256311917
Y Ag Pb Y Ag Pb Y Ag Pb
6 6 6 6 6 6 6 6 6
Selective dynamics
direct
   0.5000000000000000    0.9265425225643611    0.3807099624572326 T T T Y
   0.0000000000000000    0.4265425225643611    0.4432099624572326 F F F Y
   0.7132712612821805    0.8601862161534584    0.3890045007585954 T T T Y
   0.2132712612821805    0.3601862161534584    0.3265045007585954 T T T Y
   0.7867287387178195    0.2132712612821806    0.3448688701175052 T T T Y
   0.2867287387178194    0.7132712612821805    0.4073688701175052 T T T Y
   0.4999999999999999    0.2533833836944765    0.4023548548159682 T T T Ag
   0.0000000000000000    0.7533833836944765    0.3398548548159682 T T T Ag
   0.8766916918472382    0.3699249244582852    0.3877871622204921 T T T Ag
   0.3766916918472382    0.8699249244582852    0.3252871622204921 T T T Ag
   0.6233083081527617    0.3766916918472383    0.3869413162968730 T T T Ag
   0.1233083081527617    0.8766916918472383    0.3244413162968730 T T T Ag
   0.5000000000000000    0.5000000000000000    0.4340277777777777 T T T Pb
   0.0000000000000000    0.0000000000000000    0.3715277777777777 T T T Pb
   0.8333333333333333    0.8333333333333334    0.3298611111111111 T T T Pb
   0.3333333333333333    0.3333333333333334    0.3923611111111110 T T T Pb
   0.6666666666666666    0.6666666666666666    0.3506944444444444 T T T Pb
   0.1666666666666666    0.1666666666666666    0.4131944444444444 T T T Pb
   0.5000000000000000    0.9265425225643611    0.5057099624572325 F F F Y
   0.0000000000000000    0.4265425225643611    0.5682099624572325 F F F Y
   0.7132712612821805    0.8601862161534584    0.5140045007585954 F F F Y
   0.2132712612821805    0.3601862161534584    0.4515045007585954 F F F Y
   0.7867287387178195    0.2132712612821806    0.4698688701175052 F F F Y
   0.2867287387178194    0.7132712612821805    0.5323688701175051 F F F Y
   0.4999999999999999    0.2533833836944765    0.5273548548159681 F F F Ag
   0.0000000000000000    0.7533833836944765    0.4648548548159682 F F F Ag
   0.8766916918472382    0.3699249244582852    0.5127871622204920 F F F Ag
   0.3766916918472382    0.8699249244582852    0.4502871622204921 F F F Ag
   0.6233083081527617    0.3766916918472383    0.5119413162968729 F F F Ag
   0.1233083081527617    0.8766916918472383    0.4494413162968730 F F F Ag
   0.5000000000000000    0.5000000000000000    0.5590277777777777 F F F Pb
   0.0000000000000000    0.0000000000000000    0.4965277777777777 F F F Pb
   0.8333333333333333    0.8333333333333334    0.4548611111111111 F F F Pb
   0.3333333333333333    0.3333333333333334    0.5173611111111110 F F F Pb
   0.6666666666666666    0.6666666666666666    0.4756944444444444 F F F Pb
   0.1666666666666666    0.1666666666666666    0.5381944444444444 F F F Pb
   0.5000000000000000    0.9265425225643611    0.6307099624572325 T T T Y
   0.0000000000000000    0.4265425225643611    0.6932099624572325 T T T Y
   0.7132712612821805    0.8601862161534584    0.6390045007585954 T T T Y
   0.2132712612821805    0.3601862161534584    0.5765045007585954 F F F Y
   0.7867287387178195    0.2132712612821806    0.5948688701175051 T T T Y
   0.2867287387178194    0.7132712612821805    0.6573688701175051 T T T Y
   0.4999999999999999    0.2533833836944765    0.6523548548159681 T T T Ag
   0.0000000000000000    0.7533833836944765    0.5898548548159681 T T T Ag
   0.8766916918472382    0.3699249244582852    0.6377871622204920 T T T Ag
   0.3766916918472382    0.8699249244582852    0.5752871622204920 F F F Ag
   0.6233083081527617    0.3766916918472383    0.6369413162968729 T T T Ag
   0.1233083081527617    0.8766916918472383    0.5744413162968729 F F F Ag
   0.5000000000000000    0.5000000000000000    0.6840277777777777 T T T Pb
   0.0000000000000000    0.0000000000000000    0.6215277777777777 T T T Pb
   0.8333333333333333    0.8333333333333334    0.5798611111111112 F F F Pb
   0.3333333333333333    0.3333333333333334    0.6423611111111110 T T T Pb
   0.6666666666666666    0.6666666666666666    0.6006944444444444 T T T Pb
   0.1666666666666666    0.1666666666666666    0.6631944444444444 T T T Pb
