Li16 Tl16 Pd32
1.0
   4.1830993364931199    0.0000000000000000    4.1830993364931190
   4.1830993364931164   15.1930545448025107    0.0000000000000010
   0.0000000000000000    0.0000000000000000   41.8309933649312029
Li Tl Pd Li Tl Pd Li Tl Pd Li Tl Pd
4 4 8 4 4 8 4 4 8 4 4 8
Selective dynamics
direct
   0.0000000000000004    0.4999999999999998    0.3437499999999999 T T T Li
   0.5000000000000002    0.9999999999999999    0.3937500000000000 T T T Li
   0.2500000000000002    0.7500000000000000    0.3687500000000000 T T T Li
   0.7500000000000000    0.2500000000000000    0.3187500000000000 T T T Li
   0.5000000000000002    0.4999999999999999    0.3437500000000000 T T T Tl
   0.0000000000000000    0.0000000000000000    0.3937500000000000 T T T Tl
   0.7500000000000003    0.7499999999999999    0.3687500000000000 T T T Tl
   0.2500000000000001    0.2499999999999999    0.3187500000000000 T T T Tl
   0.3750000000000006    0.6249999999999999    0.3062500000000000 T T T Pd
   0.8750000000000001    0.1249999999999999    0.3562500000000000 T T T Pd
   0.8750000000000004    0.6249999999999999    0.3062500000000000 T T T Pd
   0.3750000000000000    0.1250000000000000    0.3562500000000000 T T T Pd
   0.6250000000000004    0.8749999999999999    0.3312500000000000 T T T Pd
   0.1250000000000001    0.3749999999999999    0.3812500000000000 T T T Pd
   0.1250000000000005    0.8749999999999999    0.3312500000000000 T T T Pd
   0.6250000000000001    0.3749999999999999    0.3812500000000000 T T T Pd
   0.0000000000000004    0.4999999999999998    0.4437500000000000 F F F Li
   0.5000000000000002    0.9999999999999999    0.4937500000000000 F F F Li
   0.2500000000000002    0.7500000000000000    0.4687500000000000 F F F Li
   0.7500000000000000    0.2500000000000000    0.4187500000000000 F F F Li
   0.5000000000000002    0.4999999999999999    0.4437500000000000 F F F Tl
   0.0000000000000000    0.0000000000000000    0.4937500000000000 F F F Tl
   0.7500000000000003    0.7499999999999999    0.4687500000000000 F F F Tl
   0.2500000000000001    0.2499999999999999    0.4187500000000000 F F F Tl
   0.3750000000000006    0.6249999999999999    0.4062500000000000 T T T Pd
   0.8750000000000001    0.1249999999999999    0.4562500000000000 F F F Pd
   0.8750000000000004    0.6249999999999999    0.4062500000000000 T T T Pd
   0.3750000000000000    0.1250000000000000    0.4562500000000000 F F F Pd
   0.6250000000000004    0.8749999999999999    0.4312500000000000 F F F Pd
   0.1250000000000001    0.3749999999999999    0.4812500000000000 F F F Pd
   0.1250000000000005    0.8749999999999999    0.4312500000000000 F F F Pd
   0.6250000000000001    0.3749999999999999    0.4812500000000000 F F F Pd
   0.0000000000000004    0.4999999999999998    0.5437500000000000 F F F Li
   0.5000000000000002    0.9999999999999999    0.5937500000000000 T T T Li
   0.2500000000000002    0.7500000000000000    0.5687500000000001 F F F Li
   0.7500000000000000    0.2500000000000000    0.5187500000000000 F F F Li
   0.5000000000000002    0.4999999999999999    0.5437500000000000 F F F Tl
   0.0000000000000000    0.0000000000000000    0.5937500000000000 T T T Tl
   0.7500000000000003    0.7499999999999999    0.5687500000000000 F F F Tl
   0.2500000000000001    0.2499999999999999    0.5187500000000000 F F F Tl
   0.3750000000000006    0.6249999999999999    0.5062500000000000 F F F Pd
   0.8750000000000001    0.1249999999999999    0.5562500000000000 F F F Pd
   0.8750000000000004    0.6249999999999999    0.5062500000000000 F F F Pd
   0.3750000000000000    0.1250000000000000    0.5562500000000000 F F F Pd
   0.6250000000000004    0.8749999999999999    0.5312500000000000 F F F Pd
   0.1250000000000001    0.3749999999999999    0.5812500000000000 F F F Pd
   0.1250000000000005    0.8749999999999999    0.5312500000000000 F F F Pd
   0.6250000000000001    0.3749999999999999    0.5812500000000000 F F F Pd
   0.0000000000000004    0.4999999999999998    0.6437499999999999 T T T Li
   0.5000000000000002    0.9999999999999999    0.6937500000000000 T T T Li
   0.2500000000000002    0.7500000000000000    0.6687500000000000 T T T Li
   0.7500000000000000    0.2500000000000000    0.6187500000000000 T T T Li
   0.5000000000000002    0.4999999999999999    0.6437500000000000 T T T Tl
   0.0000000000000000    0.0000000000000000    0.6937500000000001 T T T Tl
   0.7500000000000003    0.7499999999999999    0.6687500000000000 T T T Tl
   0.2500000000000001    0.2499999999999999    0.6187499999999999 T T T Tl
   0.3750000000000006    0.6249999999999999    0.6062500000000000 T T T Pd
   0.8750000000000001    0.1249999999999999    0.6562500000000000 T T T Pd
   0.8750000000000004    0.6249999999999999    0.6062500000000000 T T T Pd
   0.3750000000000000    0.1250000000000000    0.6562500000000000 T T T Pd
   0.6250000000000004    0.8749999999999999    0.6312500000000000 T T T Pd
   0.1250000000000001    0.3749999999999999    0.6812499999999999 T T T Pd
   0.1250000000000005    0.8749999999999999    0.6312500000000000 T T T Pd
   0.6250000000000001    0.3749999999999999    0.6812499999999999 T T T Pd
