Ba32 Cd16 As32
1.0
  18.2390284878438251    0.0000000000000000    0.0000000000000011
   2.3695087490055062    8.9900224381811018    8.2226052416715394
   0.0000000000000000    0.0000000000000000   41.1130262083576952
Ba Cd As Ba Cd As
16 8 16 16 8 16
Selective dynamics
direct
   0.7043105730389952    0.1478447134805023    0.3730992868964793 T T T Ba
   0.7043105730389952    0.6478447134805023    0.4730992868964793 F F F Ba
   0.7956894269610046    0.8521552865194977    0.3322371722886803 T T T Ba
   0.7956894269610046    0.3521552865194977    0.4322371722886803 F F F Ba
   0.5382039420555245    0.2308980289722377    0.4247910190488195 F F F Ba
   0.5382039420555245    0.7308980289722378    0.3247910190488195 T T T Ba
   0.9617960579444755    0.7691019710277622    0.4171502306377146 F F F Ba
   0.9617960579444755    0.2691019710277622    0.3171502306377146 T T T Ba
   0.2043105730389954    0.1478447134805023    0.3730992868964793 T T T Ba
   0.2043105730389954    0.6478447134805023    0.4730992868964793 F F F Ba
   0.2956894269610046    0.3521552865194976    0.4322371722886803 F F F Ba
   0.2956894269610046    0.8521552865194977    0.3322371722886803 T T T Ba
   0.0382039420555245    0.2308980289722378    0.4247910190488195 F F F Ba
   0.0382039420555245    0.7308980289722378    0.3247910190488195 T T T Ba
   0.4617960579444755    0.2691019710277622    0.3171502306377145 T T T Ba
   0.4617960579444755    0.7691019710277622    0.4171502306377146 F F F Ba
   0.9057225472070805    0.0471387263964597    0.4314122591285148 F F F Cd
   0.9057225472070805    0.5471387263964598    0.3314122591285148 T T T Cd
   0.5942774527929195    0.9528612736035402    0.3502677496870987 T T T Cd
   0.5942774527929195    0.4528612736035401    0.4502677496870987 F F F Cd
   0.4057225472070805    0.0471387263964597    0.4314122591285148 F F F Cd
   0.4057225472070805    0.5471387263964598    0.3314122591285148 T T T Cd
   0.0942774527929195    0.4528612736035402    0.4502677496870987 F F F Cd
   0.0942774527929195    0.9528612736035402    0.3502677496870987 T T T Cd
   0.9394675042115317    0.0302662478942341    0.5046314186480770 F F F As
   0.9394675042115317    0.5302662478942342    0.4046314186480771 T T T As
   0.5605324957884683    0.9697337521057658    0.4167379178057707 F F F As
   0.5605324957884683    0.4697337521057657    0.3167379178057708 T T T As
   0.6715451555216205    0.1642274222391897    0.4919909884815847 F F F As
   0.6715451555216205    0.6642274222391897    0.3919909884815848 T T T As
   0.8284548444783794    0.8357725777608103    0.4576819573772606 F F F As
   0.8284548444783794    0.3357725777608103    0.3576819573772606 T T T As
   0.4394675042115316    0.0302662478942341    0.5046314186480770 F F F As
   0.4394675042115316    0.5302662478942342    0.4046314186480771 T T T As
   0.0605324957884683    0.4697337521057658    0.3167379178057707 T T T As
   0.0605324957884683    0.9697337521057658    0.4167379178057707 F F F As
   0.1715451555216205    0.1642274222391897    0.4919909884815847 F F F As
   0.1715451555216205    0.6642274222391897    0.3919909884815847 T T T As
   0.3284548444783795    0.3357725777608102    0.3576819573772606 T T T As
   0.3284548444783795    0.8357725777608103    0.4576819573772606 F F F As
   0.7043105730389952    0.1478447134805023    0.5730992868964793 F F F Ba
   0.7043105730389952    0.6478447134805023    0.6730992868964794 T T T Ba
   0.7956894269610046    0.8521552865194977    0.5322371722886803 F F F Ba
   0.7956894269610046    0.3521552865194977    0.6322371722886804 T T T Ba
   0.5382039420555245    0.2308980289722377    0.6247910190488195 T T T Ba
   0.5382039420555245    0.7308980289722378    0.5247910190488194 F F F Ba
   0.9617960579444755    0.7691019710277622    0.6171502306377146 T T T Ba
   0.9617960579444755    0.2691019710277622    0.5171502306377146 F F F Ba
   0.2043105730389954    0.1478447134805023    0.5730992868964793 F F F Ba
   0.2043105730389954    0.6478447134805023    0.6730992868964794 T T T Ba
   0.2956894269610046    0.3521552865194976    0.6322371722886804 T T T Ba
   0.2956894269610046    0.8521552865194977    0.5322371722886803 F F F Ba
   0.0382039420555245    0.2308980289722378    0.6247910190488195 T T T Ba
   0.0382039420555245    0.7308980289722378    0.5247910190488194 F F F Ba
   0.4617960579444755    0.2691019710277622    0.5171502306377146 F F F Ba
   0.4617960579444755    0.7691019710277622    0.6171502306377146 T T T Ba
   0.9057225472070805    0.0471387263964597    0.6314122591285147 T T T Cd
   0.9057225472070805    0.5471387263964598    0.5314122591285148 F F F Cd
   0.5942774527929195    0.9528612736035402    0.5502677496870987 F F F Cd
   0.5942774527929195    0.4528612736035401    0.6502677496870987 T T T Cd
   0.4057225472070805    0.0471387263964597    0.6314122591285147 T T T Cd
   0.4057225472070805    0.5471387263964598    0.5314122591285148 F F F Cd
   0.0942774527929195    0.4528612736035402    0.6502677496870987 T T T Cd
   0.0942774527929195    0.9528612736035402    0.5502677496870987 F F F Cd
   0.9394675042115317    0.0302662478942341    0.7046314186480771 T T T As
   0.9394675042115317    0.5302662478942342    0.6046314186480770 F F F As
   0.5605324957884683    0.9697337521057658    0.6167379178057708 T T T As
   0.5605324957884683    0.4697337521057657    0.5167379178057707 F F F As
   0.6715451555216205    0.1642274222391897    0.6919909884815848 T T T As
   0.6715451555216205    0.6642274222391897    0.5919909884815847 F F F As
   0.8284548444783794    0.8357725777608103    0.6576819573772607 T T T As
   0.8284548444783794    0.3357725777608103    0.5576819573772607 F F F As
   0.4394675042115316    0.0302662478942341    0.7046314186480771 T T T As
   0.4394675042115316    0.5302662478942342    0.6046314186480770 F F F As
   0.0605324957884683    0.4697337521057658    0.5167379178057707 F F F As
   0.0605324957884683    0.9697337521057658    0.6167379178057707 T T T As
   0.1715451555216205    0.1642274222391897    0.6919909884815847 T T T As
   0.1715451555216205    0.6642274222391897    0.5919909884815847 F F F As
   0.3284548444783795    0.3357725777608102    0.5576819573772607 F F F As
   0.3284548444783795    0.8357725777608103    0.6576819573772607 T T T As
