Y18 Fe3 Bi6
1.0
   8.3618717817945409    0.0000000000000000    0.0000000000000005
  -4.1809358908972731    7.2415933862223199    0.0000000000000005
   0.0000000000000000    0.0000000000000000   29.3386239599428151
Y Fe Bi Y Fe Bi Y Fe Bi
6 1 2 6 1 2 6 1 2
Selective dynamics
direct
   0.2318414273012976    0.0000000000000000    0.3253968253968254 T T T Y
   0.0000000000000000    0.2318414273012976    0.3253968253968254 T T T Y
   0.7681585726987024    0.7681585726987024    0.3253968253968254 T T T Y
   0.6047409576836102    0.0000000000000000    0.3968253968253969 T T T Y
   0.0000000000000000    0.6047409576836102    0.3968253968253969 T T T Y
   0.3952590423163898    0.3952590423163898    0.3968253968253969 T T T Y
   0.0000000000000000    0.0000000000000000    0.3968253968253969 T T T Fe
   0.3333333333333333    0.6666666666666666    0.3253968253968254 T T T Bi
   0.6666666666666666    0.3333333333333333    0.3253968253968254 T T T Bi
   0.2318414273012976    0.0000000000000000    0.4682539682539683 F F F Y
   0.0000000000000000    0.2318414273012976    0.4682539682539683 F F F Y
   0.7681585726987024    0.7681585726987024    0.4682539682539683 F F F Y
   0.6047409576836102    0.0000000000000000    0.5396825396825398 F F F Y
   0.0000000000000000    0.6047409576836102    0.5396825396825398 F F F Y
   0.3952590423163898    0.3952590423163898    0.5396825396825398 F F F Y
   0.0000000000000000    0.0000000000000000    0.5396825396825398 F F F Fe
   0.3333333333333333    0.6666666666666666    0.4682539682539683 F F F Bi
   0.6666666666666666    0.3333333333333333    0.4682539682539683 F F F Bi
   0.2318414273012976    0.0000000000000000    0.6111111111111112 T T T Y
   0.0000000000000000    0.2318414273012976    0.6111111111111112 T T T Y
   0.7681585726987024    0.7681585726987024    0.6111111111111112 T T T Y
   0.6047409576836102    0.0000000000000000    0.6825396825396826 T T T Y
   0.0000000000000000    0.6047409576836102    0.6825396825396826 T T T Y
   0.3952590423163898    0.3952590423163898    0.6825396825396826 T T T Y
   0.0000000000000000    0.0000000000000000    0.6825396825396826 T T T Fe
   0.3333333333333333    0.6666666666666666    0.6111111111111112 T T T Bi
   0.6666666666666666    0.3333333333333333    0.6111111111111112 T T T Bi
