Y24 Fe4 Bi8
1.0
   7.2415933862223207    0.0000000000000000   -4.1809358908972722
  -0.0000000000000042    8.3824639885550898   -8.3618717817945392
   0.0000000000000000    0.0000000000000000   41.8093589089727047
Y Fe Bi Y Fe Bi
12 2 4 12 2 4
Selective dynamics
direct
   0.0000000000000000    0.2500000000000000    0.3630349521269262 T T T Y
   0.0000000000000000    0.7500000000000000    0.4630349521269262 F F F Y
   0.2318414273012976    0.2500000000000000    0.3166666666666667 T T T Y
   0.2318414273012976    0.7500000000000000    0.4166666666666667 F F F Y
   0.7681585726987024    0.2500000000000000    0.4702983812064072 F F F Y
   0.7681585726987024    0.7500000000000000    0.3702983812064071 T T T Y
   0.0000000000000000    0.0000000000000000    0.3876148582033887 T T T Y
   0.0000000000000000    0.5000000000000000    0.2876148582033887 T T T Y
   0.6047409576836102    0.0000000000000000    0.4666666666666667 F F F Y
   0.6047409576836102    0.5000000000000000    0.3666666666666667 T T T Y
   0.3952590423163898    0.0000000000000000    0.3457184751299446 T T T Y
   0.3952590423163898    0.5000000000000000    0.4457184751299446 F F F Y
   0.0000000000000000    0.0000000000000000    0.4666666666666667 F F F Fe
   0.0000000000000000    0.5000000000000000    0.3666666666666667 T T T Fe
   0.6666666666666666    0.2500000000000000    0.3833333333333333 T T T Bi
   0.6666666666666666    0.7500000000000000    0.4833333333333333 F F F Bi
   0.3333333333333333    0.2500000000000000    0.4500000000000000 F F F Bi
   0.3333333333333333    0.7500000000000000    0.3500000000000000 T T T Bi
   0.0000000000000000    0.2500000000000000    0.5630349521269262 F F F Y
   0.0000000000000000    0.7500000000000000    0.6630349521269262 T T T Y
   0.2318414273012976    0.2500000000000000    0.5166666666666667 F F F Y
   0.2318414273012976    0.7500000000000000    0.6166666666666667 T T T Y
   0.7681585726987024    0.2500000000000000    0.6702983812064072 T T T Y
   0.7681585726987024    0.7500000000000000    0.5702983812064072 F F F Y
   0.0000000000000000    0.0000000000000000    0.5876148582033888 T T T Y
   0.0000000000000000    0.5000000000000000    0.4876148582033887 F F F Y
   0.6047409576836102    0.0000000000000000    0.6666666666666667 T T T Y
   0.6047409576836102    0.5000000000000000    0.5666666666666667 F F F Y
   0.3952590423163898    0.0000000000000000    0.5457184751299446 F F F Y
   0.3952590423163898    0.5000000000000000    0.6457184751299446 T T T Y
   0.0000000000000000    0.0000000000000000    0.6666666666666667 T T T Fe
   0.0000000000000000    0.5000000000000000    0.5666666666666667 F F F Fe
   0.6666666666666666    0.2500000000000000    0.5833333333333334 T T T Bi
   0.6666666666666666    0.7500000000000000    0.6833333333333333 T T T Bi
   0.3333333333333333    0.2500000000000000    0.6500000000000000 T T T Bi
   0.3333333333333333    0.7500000000000000    0.5500000000000000 F F F Bi
