Mg32 Ta32 Os64
1.0
  12.5868777268191163    0.0000000000000000   -6.2934388634095582
   0.0000000000000048   12.5868777268191163   -6.2934388634095582
   0.0000000000000000    0.0000000000000000   31.4671943170477952
Mg Ta Os Mg Ta Os
16 16 32 16 16 32
Selective dynamics
direct
   0.5000000000000000    0.5000000000000000    0.3750000000000000 T T T Mg
   0.0000000000000000    0.0000000000000001    0.3750000000000000 T T T Mg
   0.0000000000000000    0.5000000000000001    0.4750000000000000 F F F Mg
   0.5000000000000000    0.0000000000000001    0.4750000000000000 F F F Mg
   0.7500000000000001    0.7500000000000000    0.4750000000000000 F F F Mg
   0.2500000000000000    0.2500000000000001    0.4750000000000000 F F F Mg
   0.2500000000000000    0.7500000000000001    0.3750000000000000 T T T Mg
   0.7500000000000001    0.2500000000000002    0.3750000000000000 T T T Mg
   0.5000000000000000    0.7500000000000000    0.3250000000000000 T T T Mg
   0.0000000000000000    0.2500000000000000    0.3250000000000000 T T T Mg
   0.0000000000000000    0.7500000000000001    0.4250000000000000 T T T Mg
   0.5000000000000000    0.2500000000000001    0.4249999999999999 T T T Mg
   0.7500000000000001    0.5000000000000000    0.3250000000000000 T T T Mg
   0.2500000000000000    0.0000000000000000    0.3250000000000000 T T T Mg
   0.2500000000000000    0.5000000000000000    0.4249999999999999 T T T Mg
   0.7500000000000001    0.0000000000000001    0.4249999999999999 T T T Mg
   0.5000000000000000    0.4999999999999999    0.4750000000000000 F F F Ta
   0.0000000000000000    0.0000000000000000    0.4750000000000000 F F F Ta
   0.0000000000000000    0.5000000000000000    0.3750000000000000 T T T Ta
   0.5000000000000000    0.0000000000000000    0.3750000000000000 T T T Ta
   0.7500000000000001    0.7500000000000000    0.3750000000000000 T T T Ta
   0.2500000000000000    0.2500000000000000    0.3750000000000000 T T T Ta
   0.2500000000000000    0.7500000000000001    0.4750000000000000 F F F Ta
   0.7500000000000001    0.2500000000000001    0.4750000000000000 F F F Ta
   0.5000000000000000    0.7500000000000000    0.4249999999999999 T T T Ta
   0.0000000000000000    0.2500000000000001    0.4249999999999999 T T T Ta
   0.0000000000000000    0.7500000000000001    0.3250000000000000 T T T Ta
   0.5000000000000000    0.2500000000000001    0.3250000000000000 T T T Ta
   0.7500000000000001    0.5000000000000000    0.4249999999999999 T T T Ta
   0.2500000000000000    0.0000000000000001    0.4249999999999999 T T T Ta
   0.2500000000000000    0.5000000000000001    0.3250000000000000 T T T Ta
   0.7500000000000001    0.0000000000000001    0.3250000000000000 T T T Ta
   0.8750000000000000    0.8750000000000000    0.4750000000000000 F F F Os
   0.3750000000000001    0.3750000000000001    0.4750000000000000 F F F Os
   0.3750000000000001    0.8750000000000000    0.3750000000000000 T T T Os
   0.8750000000000000    0.3750000000000001    0.3750000000000000 T T T Os
   0.6250000000000000    0.8750000000000000    0.4249999999999999 T T T Os
   0.1250000000000000    0.3750000000000001    0.4249999999999999 T T T Os
   0.1250000000000000    0.8750000000000000    0.3250000000000000 T T T Os
   0.6250000000000000    0.3750000000000001    0.3250000000000000 T T T Os
   0.6250000000000000    0.6250000000000000    0.3750000000000000 T T T Os
   0.1250000000000000    0.1250000000000001    0.3750000000000000 T T T Os
   0.1250000000000000    0.6250000000000001    0.4750000000000000 F F F Os
   0.6250000000000000    0.1250000000000001    0.4750000000000000 F F F Os
   0.8750000000000000    0.6250000000000001    0.4249999999999999 T T T Os
   0.3750000000000001    0.1250000000000001    0.4249999999999999 T T T Os
   0.3750000000000001    0.6250000000000001    0.3250000000000000 T T T Os
   0.8750000000000000    0.1250000000000001    0.3250000000000000 T T T Os
   0.8750000000000000    0.6250000000000001    0.3250000000000000 T T T Os
   0.3750000000000001    0.1250000000000001    0.3250000000000000 T T T Os
   0.3750000000000001    0.6250000000000002    0.4250000000000000 T T T Os
   0.8750000000000000    0.1250000000000002    0.4249999999999999 T T T Os
   0.6250000000000000    0.6250000000000001    0.4750000000000000 F F F Os
   0.1250000000000000    0.1250000000000001    0.4750000000000000 F F F Os
   0.1250000000000000    0.6250000000000002    0.3750000000000000 T T T Os
   0.6250000000000000    0.1250000000000001    0.3750000000000000 T T T Os
   0.6250000000000000    0.8750000000000000    0.3250000000000000 T T T Os
   0.1250000000000000    0.3750000000000001    0.3250000000000000 T T T Os
   0.1250000000000000    0.8750000000000000    0.4249999999999999 T T T Os
   0.6250000000000000    0.3750000000000001    0.4249999999999999 T T T Os
   0.8750000000000000    0.8750000000000001    0.3750000000000000 T T T Os
   0.3750000000000001    0.3750000000000002    0.3750000000000000 T T T Os
   0.3750000000000001    0.8750000000000002    0.4750000000000001 F F F Os
   0.8750000000000000    0.3750000000000002    0.4750000000000000 F F F Os
   0.5000000000000000    0.5000000000000000    0.5750000000000000 T T T Mg
   0.0000000000000000    0.0000000000000001    0.5750000000000000 T T T Mg
   0.0000000000000000    0.5000000000000001    0.6750000000000000 T T T Mg
   0.5000000000000000    0.0000000000000001    0.6750000000000000 T T T Mg
   0.7500000000000001    0.7500000000000000    0.6750000000000000 T T T Mg
   0.2500000000000000    0.2500000000000001    0.6750000000000000 T T T Mg
   0.2500000000000000    0.7500000000000001    0.5750000000000000 T T T Mg
   0.7500000000000001    0.2500000000000002    0.5750000000000000 T T T Mg
   0.5000000000000000    0.7500000000000000    0.5250000000000000 F F F Mg
   0.0000000000000000    0.2500000000000000    0.5249999999999999 F F F Mg
   0.0000000000000000    0.7500000000000001    0.6250000000000000 T T T Mg
   0.5000000000000000    0.2500000000000001    0.6250000000000000 T T T Mg
   0.7500000000000001    0.5000000000000000    0.5250000000000000 F F F Mg
   0.2500000000000000    0.0000000000000000    0.5249999999999999 F F F Mg
   0.2500000000000000    0.5000000000000000    0.6250000000000000 T T T Mg
   0.7500000000000001    0.0000000000000001    0.6250000000000000 T T T Mg
   0.5000000000000000    0.4999999999999999    0.6750000000000000 T T T Ta
   0.0000000000000000    0.0000000000000000    0.6750000000000000 T T T Ta
   0.0000000000000000    0.5000000000000000    0.5750000000000000 T T T Ta
   0.5000000000000000    0.0000000000000000    0.5750000000000000 T T T Ta
   0.7500000000000001    0.7500000000000000    0.5750000000000000 T T T Ta
   0.2500000000000000    0.2500000000000000    0.5750000000000000 T T T Ta
   0.2500000000000000    0.7500000000000001    0.6750000000000000 T T T Ta
   0.7500000000000001    0.2500000000000001    0.6750000000000000 T T T Ta
   0.5000000000000000    0.7500000000000000    0.6250000000000000 T T T Ta
   0.0000000000000000    0.2500000000000001    0.6250000000000000 T T T Ta
   0.0000000000000000    0.7500000000000001    0.5249999999999999 F F F Ta
   0.5000000000000000    0.2500000000000001    0.5249999999999999 F F F Ta
   0.7500000000000001    0.5000000000000000    0.6250000000000000 T T T Ta
   0.2500000000000000    0.0000000000000001    0.6250000000000000 T T T Ta
   0.2500000000000000    0.5000000000000001    0.5249999999999999 F F F Ta
   0.7500000000000001    0.0000000000000001    0.5249999999999999 F F F Ta
   0.8750000000000000    0.8750000000000000    0.6750000000000000 T T T Os
   0.3750000000000001    0.3750000000000001    0.6750000000000000 T T T Os
   0.3750000000000001    0.8750000000000000    0.5750000000000000 T T T Os
   0.8750000000000000    0.3750000000000001    0.5750000000000000 T T T Os
   0.6250000000000000    0.8750000000000000    0.6250000000000000 T T T Os
   0.1250000000000000    0.3750000000000001    0.6250000000000000 T T T Os
   0.1250000000000000    0.8750000000000000    0.5249999999999999 F F F Os
   0.6250000000000000    0.3750000000000001    0.5249999999999999 F F F Os
   0.6250000000000000    0.6250000000000000    0.5750000000000000 T T T Os
   0.1250000000000000    0.1250000000000001    0.5750000000000000 T T T Os
   0.1250000000000000    0.6250000000000001    0.6750000000000000 T T T Os
   0.6250000000000000    0.1250000000000001    0.6750000000000000 T T T Os
   0.8750000000000000    0.6250000000000001    0.6250000000000000 T T T Os
   0.3750000000000001    0.1250000000000001    0.6250000000000000 T T T Os
   0.3750000000000001    0.6250000000000001    0.5250000000000000 F F F Os
   0.8750000000000000    0.1250000000000001    0.5249999999999999 F F F Os
   0.8750000000000000    0.6250000000000001    0.5249999999999999 F F F Os
   0.3750000000000001    0.1250000000000001    0.5250000000000000 F F F Os
   0.3750000000000001    0.6250000000000002    0.6250000000000000 T T T Os
   0.8750000000000000    0.1250000000000002    0.6250000000000000 T T T Os
   0.6250000000000000    0.6250000000000001    0.6750000000000000 T T T Os
   0.1250000000000000    0.1250000000000001    0.6750000000000000 T T T Os
   0.1250000000000000    0.6250000000000002    0.5750000000000000 T T T Os
   0.6250000000000000    0.1250000000000001    0.5750000000000000 T T T Os
   0.6250000000000000    0.8750000000000000    0.5249999999999999 F F F Os
   0.1250000000000000    0.3750000000000001    0.5250000000000000 F F F Os
   0.1250000000000000    0.8750000000000000    0.6250000000000000 T T T Os
   0.6250000000000000    0.3750000000000001    0.6250000000000000 T T T Os
   0.8750000000000000    0.8750000000000001    0.5750000000000000 T T T Os
   0.3750000000000001    0.3750000000000002    0.5750000000000000 T T T Os
   0.3750000000000001    0.8750000000000002    0.6750000000000000 T T T Os
   0.8750000000000000    0.3750000000000002    0.6750000000000000 T T T Os
