Ba12 In24 Pt12
1.0
   8.1578397504978746    0.0000000000000000    0.0000000000000005
   0.0000000000000019   11.9777593576601458   -4.5531150590373679
   0.0000000000000000    0.0000000000000000   31.8718054132616189
Ba In Pt Ba In Pt Ba In Pt
4 8 4 4 8 4 4 8 4
Selective dynamics
direct
   0.7500000000000000    0.5507917956742645    0.4001131136677522 F F F Ba
   0.2500000000000000    0.9492082043257354    0.3856011720465337 T T T Ba
   0.7500000000000000    0.0507917956742645    0.4001131136677521 F F F Ba
   0.2500000000000000    0.4492082043257355    0.3856011720465337 T T T Ba
   0.4433090969332339    0.6643108141711878    0.3449015448815983 T T T In
   0.5566909030667661    0.8356891858288122    0.2979555979755447 T T T In
   0.0566909030667661    0.6643108141711878    0.3449015448815983 T T T In
   0.9433090969332341    0.8356891858288122    0.2979555979755447 T T T In
   0.4433090969332339    0.1643108141711878    0.3449015448815982 T T T In
   0.5566909030667661    0.3356891858288121    0.2979555979755447 T T T In
   0.0566909030667661    0.1643108141711878    0.3449015448815982 T T T In
   0.9433090969332341    0.3356891858288121    0.2979555979755447 T T T In
   0.2500000000000001    0.7259915958226699    0.4251416565460958 F F F Pt
   0.7500000000000000    0.7740084041773301    0.3605726291681901 T T T Pt
   0.2500000000000000    0.2259915958226699    0.4251416565460957 F F F Pt
   0.7500000000000000    0.2740084041773300    0.3605726291681900 T T T Pt
   0.7500000000000000    0.5507917956742645    0.5429702565248949 F F F Ba
   0.2500000000000000    0.9492082043257354    0.5284583149036766 F F F Ba
   0.7500000000000000    0.0507917956742645    0.5429702565248949 F F F Ba
   0.2500000000000000    0.4492082043257355    0.5284583149036766 F F F Ba
   0.4433090969332339    0.6643108141711878    0.4877586877387411 F F F In
   0.5566909030667661    0.8356891858288122    0.4408127408326875 F F F In
   0.0566909030667661    0.6643108141711878    0.4877586877387411 F F F In
   0.9433090969332341    0.8356891858288122    0.4408127408326875 F F F In
   0.4433090969332339    0.1643108141711878    0.4877586877387411 F F F In
   0.5566909030667661    0.3356891858288121    0.4408127408326875 F F F In
   0.0566909030667661    0.1643108141711878    0.4877586877387411 F F F In
   0.9433090969332341    0.3356891858288121    0.4408127408326875 F F F In
   0.2500000000000001    0.7259915958226699    0.5679987994032386 F F F Pt
   0.7500000000000000    0.7740084041773301    0.5034297720253329 F F F Pt
   0.2500000000000000    0.2259915958226699    0.5679987994032386 F F F Pt
   0.7500000000000000    0.2740084041773300    0.5034297720253329 F F F Pt
   0.7500000000000000    0.5507917956742645    0.6858273993820379 T T T Ba
   0.2500000000000000    0.9492082043257354    0.6713154577608194 T T T Ba
   0.7500000000000000    0.0507917956742645    0.6858273993820379 T T T Ba
   0.2500000000000000    0.4492082043257355    0.6713154577608194 T T T Ba
   0.4433090969332339    0.6643108141711878    0.6306158305958840 T T T In
   0.5566909030667661    0.8356891858288122    0.5836698836898304 F F F In
   0.0566909030667661    0.6643108141711878    0.6306158305958840 T T T In
   0.9433090969332341    0.8356891858288122    0.5836698836898304 F F F In
   0.4433090969332339    0.1643108141711878    0.6306158305958840 T T T In
   0.5566909030667661    0.3356891858288121    0.5836698836898304 F F F In
   0.0566909030667661    0.1643108141711878    0.6306158305958840 T T T In
   0.9433090969332341    0.3356891858288121    0.5836698836898304 F F F In
   0.2500000000000001    0.7259915958226699    0.7108559422603815 T T T Pt
   0.7500000000000000    0.7740084041773301    0.6462869148824757 T T T Pt
   0.2500000000000000    0.2259915958226699    0.7108559422603814 T T T Pt
   0.7500000000000000    0.2740084041773300    0.6462869148824757 T T T Pt
