Ba48 In96 Pt48
1.0
  23.9555187153202880    0.0000000000000000   -4.5531150590373723
  -0.0000000000000010   16.3156795009957492   -4.5531150590373732
   0.0000000000000000    0.0000000000000000   31.8718054132616189
Ba In Pt Ba In Pt Ba In Pt
16 32 16 16 32 16 16 32 16
Selective dynamics
direct
   0.7246041021628677    0.6250000000000000    0.4026220145946954 F F F Ba
   0.2246041021628677    0.1250000000000000    0.4026220145946954 F F F Ba
   0.2246041021628677    0.6250000000000000    0.3311934431661240 T T T Ba
   0.7246041021628677    0.1249999999999999    0.3311934431661240 T T T Ba
   0.5253958978371324    0.8750000000000000    0.3384494139767332 T T T Ba
   0.0253958978371323    0.3750000000000000    0.3384494139767332 T T T Ba
   0.0253958978371323    0.8750000000000000    0.4098779854053046 F F F Ba
   0.5253958978371324    0.3749999999999999    0.4098779854053046 F F F Ba
   0.9746041021628677    0.6249999999999999    0.3669077288804097 T T T Ba
   0.4746041021628677    0.1250000000000000    0.3669077288804097 T T T Ba
   0.4746041021628677    0.6250000000000000    0.2954791574518383 T T T Ba
   0.9746041021628677    0.1250000000000000    0.2954791574518383 T T T Ba
   0.7753958978371324    0.8749999999999999    0.3027351282624475 T T T Ba
   0.2753958978371323    0.3750000000000000    0.3027351282624475 T T T Ba
   0.2753958978371323    0.8750000000000000    0.3741636996910189 T T T Ba
   0.7753958978371324    0.3749999999999999    0.3741636996910189 T T T Ba
   0.6678445929144061    0.7783454515333830    0.3449914349211128 T T T In
   0.1678445929144061    0.2783454515333830    0.3449914349211128 T T T In
   0.1678445929144061    0.7783454515333830    0.4164200063496842 F F F In
   0.6678445929144061    0.2783454515333830    0.4164200063496842 F F F In
   0.5821554070855939    0.7216545484666169    0.3960799936503159 F F F In
   0.0821554070855939    0.2216545484666169    0.3960799936503159 F F F In
   0.0821554070855939    0.7216545484666169    0.3246514222217445 T T T In
   0.5821554070855939    0.2216545484666169    0.3246514222217445 T T T In
   0.6678445929144061    0.9716545484666169    0.3726070201972890 T T T In
   0.1678445929144061    0.4716545484666170    0.3726070201972891 T T T In
   0.1678445929144061    0.9716545484666169    0.3011784487687176 T T T In
   0.6678445929144061    0.4716545484666170    0.3011784487687176 T T T In
   0.5821554070855939    0.5283454515333830    0.3684644083741396 T T T In
   0.0821554070855939    0.0283454515333829    0.3684644083741396 T T T In
   0.0821554070855939    0.5283454515333830    0.2970358369455682 T T T In
   0.5821554070855939    0.0283454515333829    0.2970358369455682 T T T In
   0.9178445929144062    0.7783454515333830    0.3092771492068271 T T T In
   0.4178445929144061    0.2783454515333830    0.3092771492068271 T T T In
   0.4178445929144061    0.7783454515333831    0.3807057206353985 T T T In
   0.9178445929144062    0.2783454515333830    0.3807057206353985 T T T In
   0.8321554070855940    0.7216545484666169    0.3603657079360302 T T T In
   0.3321554070855939    0.2216545484666169    0.3603657079360302 T T T In
   0.3321554070855939    0.7216545484666170    0.2889371365074587 T T T In
   0.8321554070855940    0.2216545484666169    0.2889371365074587 T T T In
   0.9178445929144062    0.9716545484666168    0.3368927344830033 T T T In
   0.4178445929144061    0.4716545484666169    0.3368927344830033 T T T In
   0.4178445929144061    0.9716545484666168    0.4083213059115748 F F F In
   0.9178445929144062    0.4716545484666169    0.4083213059115748 F F F In
   0.8321554070855940    0.5283454515333830    0.3327501226598539 T T T In
   0.3321554070855939    0.0283454515333830    0.3327501226598539 T T T In
   0.3321554070855939    0.5283454515333830    0.4041786940884253 F F F In
   0.8321554070855940    0.0283454515333829    0.4041786940884253 F F F In
   0.6370042020886650    0.8750000000000000    0.4258220288698094 F F F Pt
   0.1370042020886650    0.3749999999999999    0.4258220288698094 F F F Pt
   0.1370042020886650    0.8750000000000000    0.3543934574412379 T T T Pt
   0.6370042020886650    0.3749999999999999    0.3543934574412379 T T T Pt
   0.6129957979113350    0.6249999999999999    0.3152493997016193 T T T Pt
   0.1129957979113350    0.1250000000000000    0.3152493997016193 T T T Pt
   0.1129957979113350    0.6249999999999999    0.3866779711301908 T T T Pt
   0.6129957979113350    0.1250000000000000    0.3866779711301908 T T T Pt
   0.8870042020886652    0.8749999999999999    0.3901077431555237 F F F Pt
   0.3870042020886650    0.3750000000000000    0.3901077431555237 F F F Pt
   0.3870042020886650    0.8750000000000000    0.3186791717269522 T T T Pt
   0.8870042020886652    0.3749999999999999    0.3186791717269522 T T T Pt
   0.8629957979113350    0.6249999999999999    0.4223922568444765 F F F Pt
   0.3629957979113350    0.1250000000000000    0.4223922568444765 F F F Pt
   0.3629957979113350    0.6250000000000000    0.3509636854159051 T T T Pt
   0.8629957979113350    0.1250000000000000    0.3509636854159050 T T T Pt
   0.7246041021628677    0.6250000000000000    0.5454791574518383 F F F Ba
   0.2246041021628677    0.1250000000000000    0.5454791574518383 F F F Ba
   0.2246041021628677    0.6250000000000000    0.4740505860232669 F F F Ba
   0.7246041021628677    0.1249999999999999    0.4740505860232668 F F F Ba
   0.5253958978371324    0.8750000000000000    0.4813065568338761 F F F Ba
   0.0253958978371323    0.3750000000000000    0.4813065568338761 F F F Ba
   0.0253958978371323    0.8750000000000000    0.5527351282624475 F F F Ba
   0.5253958978371324    0.3749999999999999    0.5527351282624475 F F F Ba
   0.9746041021628677    0.6249999999999999    0.5097648717375525 F F F Ba
   0.4746041021628677    0.1250000000000000    0.5097648717375526 F F F Ba
   0.4746041021628677    0.6250000000000000    0.4383363003089812 F F F Ba
   0.9746041021628677    0.1250000000000000    0.4383363003089811 F F F Ba
   0.7753958978371324    0.8749999999999999    0.4455922711195903 F F F Ba
   0.2753958978371323    0.3750000000000000    0.4455922711195903 F F F Ba
   0.2753958978371323    0.8750000000000000    0.5170208425481617 F F F Ba
   0.7753958978371324    0.3749999999999999    0.5170208425481617 F F F Ba
   0.6678445929144061    0.7783454515333830    0.4878485777782556 F F F In
   0.1678445929144061    0.2783454515333830    0.4878485777782556 F F F In
   0.1678445929144061    0.7783454515333830    0.5592771492068270 F F F In
   0.6678445929144061    0.2783454515333830    0.5592771492068270 F F F In
   0.5821554070855939    0.7216545484666169    0.5389371365074587 F F F In
   0.0821554070855939    0.2216545484666169    0.5389371365074588 F F F In
   0.0821554070855939    0.7216545484666169    0.4675085650788873 F F F In
   0.5821554070855939    0.2216545484666169    0.4675085650788873 F F F In
   0.6678445929144061    0.9716545484666169    0.5154641630544319 F F F In
   0.1678445929144061    0.4716545484666170    0.5154641630544319 F F F In
   0.1678445929144061    0.9716545484666169    0.4440355916258605 F F F In
   0.6678445929144061    0.4716545484666170    0.4440355916258605 F F F In
   0.5821554070855939    0.5283454515333830    0.5113215512312824 F F F In
   0.0821554070855939    0.0283454515333829    0.5113215512312825 F F F In
   0.0821554070855939    0.5283454515333830    0.4398929798027110 F F F In
   0.5821554070855939    0.0283454515333829    0.4398929798027110 F F F In
   0.9178445929144062    0.7783454515333830    0.4521342920639699 F F F In
   0.4178445929144061    0.2783454515333830    0.4521342920639699 F F F In
   0.4178445929144061    0.7783454515333831    0.5235628634925413 F F F In
   0.9178445929144062    0.2783454515333830    0.5235628634925413 F F F In
   0.8321554070855940    0.7216545484666169    0.5032228507931731 F F F In
   0.3321554070855939    0.2216545484666169    0.5032228507931731 F F F In
   0.3321554070855939    0.7216545484666170    0.4317942793646016 F F F In
   0.8321554070855940    0.2216545484666169    0.4317942793646016 F F F In
   0.9178445929144062    0.9716545484666168    0.4797498773401462 F F F In
   0.4178445929144061    0.4716545484666169    0.4797498773401462 F F F In
   0.4178445929144061    0.9716545484666168    0.5511784487687176 F F F In
   0.9178445929144062    0.4716545484666169    0.5511784487687177 F F F In
   0.8321554070855940    0.5283454515333830    0.4756072655169967 F F F In
   0.3321554070855939    0.0283454515333830    0.4756072655169967 F F F In
   0.3321554070855939    0.5283454515333830    0.5470358369455681 F F F In
   0.8321554070855940    0.0283454515333829    0.5470358369455681 F F F In
   0.6370042020886650    0.8750000000000000    0.5686791717269521 F F F Pt
   0.1370042020886650    0.3749999999999999    0.5686791717269521 F F F Pt
   0.1370042020886650    0.8750000000000000    0.4972506002983808 F F F Pt
   0.6370042020886650    0.3749999999999999    0.4972506002983808 F F F Pt
   0.6129957979113350    0.6249999999999999    0.4581065425587622 F F F Pt
   0.1129957979113350    0.1250000000000000    0.4581065425587622 F F F Pt
   0.1129957979113350    0.6249999999999999    0.5295351139873337 F F F Pt
   0.6129957979113350    0.1250000000000000    0.5295351139873337 F F F Pt
   0.8870042020886652    0.8749999999999999    0.5329648860126665 F F F Pt
   0.3870042020886650    0.3750000000000000    0.5329648860126665 F F F Pt
   0.3870042020886650    0.8750000000000000    0.4615363145840951 F F F Pt
   0.8870042020886652    0.3749999999999999    0.4615363145840951 F F F Pt
   0.8629957979113350    0.6249999999999999    0.5652493997016192 F F F Pt
   0.3629957979113350    0.1250000000000000    0.5652493997016194 F F F Pt
   0.3629957979113350    0.6250000000000000    0.4938208282730479 F F F Pt
   0.8629957979113350    0.1250000000000000    0.4938208282730479 F F F Pt
   0.7246041021628677    0.6250000000000000    0.6883363003089811 T T T Ba
   0.2246041021628677    0.1250000000000000    0.6883363003089811 T T T Ba
   0.2246041021628677    0.6250000000000000    0.6169077288804097 T T T Ba
   0.7246041021628677    0.1249999999999999    0.6169077288804097 T T T Ba
   0.5253958978371324    0.8750000000000000    0.6241636996910189 T T T Ba
   0.0253958978371323    0.3750000000000000    0.6241636996910189 T T T Ba
   0.0253958978371323    0.8750000000000000    0.6955922711195903 T T T Ba
   0.5253958978371324    0.3749999999999999    0.6955922711195903 T T T Ba
   0.9746041021628677    0.6249999999999999    0.6526220145946954 T T T Ba
   0.4746041021628677    0.1250000000000000    0.6526220145946955 T T T Ba
   0.4746041021628677    0.6250000000000000    0.5811934431661240 F F F Ba
   0.9746041021628677    0.1250000000000000    0.5811934431661240 F F F Ba
   0.7753958978371324    0.8749999999999999    0.5884494139767332 F F F Ba
   0.2753958978371323    0.3750000000000000    0.5884494139767332 F F F Ba
   0.2753958978371323    0.8750000000000000    0.6598779854053046 T T T Ba
   0.7753958978371324    0.3749999999999999    0.6598779854053046 T T T Ba
   0.6678445929144061    0.7783454515333830    0.6307057206353985 T T T In
   0.1678445929144061    0.2783454515333830    0.6307057206353985 T T T In
   0.1678445929144061    0.7783454515333830    0.7021342920639699 T T T In
   0.6678445929144061    0.2783454515333830    0.7021342920639699 T T T In
   0.5821554070855939    0.7216545484666169    0.6817942793646016 T T T In
   0.0821554070855939    0.2216545484666169    0.6817942793646016 T T T In
   0.0821554070855939    0.7216545484666169    0.6103657079360302 F F F In
   0.5821554070855939    0.2216545484666169    0.6103657079360302 F F F In
   0.6678445929144061    0.9716545484666169    0.6583213059115747 T T T In
   0.1678445929144061    0.4716545484666170    0.6583213059115748 T T T In
   0.1678445929144061    0.9716545484666169    0.5868927344830033 F F F In
   0.6678445929144061    0.4716545484666170    0.5868927344830033 F F F In
   0.5821554070855939    0.5283454515333830    0.6541786940884253 T T T In
   0.0821554070855939    0.0283454515333829    0.6541786940884253 T T T In
   0.0821554070855939    0.5283454515333830    0.5827501226598539 F F F In
   0.5821554070855939    0.0283454515333829    0.5827501226598539 F F F In
   0.9178445929144062    0.7783454515333830    0.5949914349211127 F F F In
   0.4178445929144061    0.2783454515333830    0.5949914349211127 F F F In
   0.4178445929144061    0.7783454515333831    0.6664200063496842 T T T In
   0.9178445929144062    0.2783454515333830    0.6664200063496842 T T T In
   0.8321554070855940    0.7216545484666169    0.6460799936503159 T T T In
   0.3321554070855939    0.2216545484666169    0.6460799936503159 T T T In
   0.3321554070855939    0.7216545484666170    0.5746514222217445 F F F In
   0.8321554070855940    0.2216545484666169    0.5746514222217445 F F F In
   0.9178445929144062    0.9716545484666168    0.6226070201972891 T T T In
   0.4178445929144061    0.4716545484666169    0.6226070201972891 T T T In
   0.4178445929144061    0.9716545484666168    0.6940355916258605 T T T In
   0.9178445929144062    0.4716545484666169    0.6940355916258605 T T T In
   0.8321554070855940    0.5283454515333830    0.6184644083741395 T T T In
   0.3321554070855939    0.0283454515333830    0.6184644083741395 T T T In
   0.3321554070855939    0.5283454515333830    0.6898929798027110 T T T In
   0.8321554070855940    0.0283454515333829    0.6898929798027110 T T T In
   0.6370042020886650    0.8750000000000000    0.7115363145840951 T T T Pt
   0.1370042020886650    0.3749999999999999    0.7115363145840951 T T T Pt
   0.1370042020886650    0.8750000000000000    0.6401077431555235 T T T Pt
   0.6370042020886650    0.3749999999999999    0.6401077431555235 T T T Pt
   0.6129957979113350    0.6249999999999999    0.6009636854159051 F F F Pt
   0.1129957979113350    0.1250000000000000    0.6009636854159051 F F F Pt
   0.1129957979113350    0.6249999999999999    0.6723922568444765 T T T Pt
   0.6129957979113350    0.1250000000000000    0.6723922568444765 T T T Pt
   0.8870042020886652    0.8749999999999999    0.6758220288698094 T T T Pt
   0.3870042020886650    0.3750000000000000    0.6758220288698094 T T T Pt
   0.3870042020886650    0.8750000000000000    0.6043934574412380 F F F Pt
   0.8870042020886652    0.3749999999999999    0.6043934574412380 F F F Pt
   0.8629957979113350    0.6249999999999999    0.7081065425587622 T T T Pt
   0.3629957979113350    0.1250000000000000    0.7081065425587622 T T T Pt
   0.3629957979113350    0.6250000000000000    0.6366779711301908 T T T Pt
   0.8629957979113350    0.1250000000000000    0.6366779711301906 T T T Pt
