Sr9 Ag36 Sb18
1.0
   4.1420136657673980    0.0000000000000000   -2.3913927049179167
  -0.0000000000000016   25.3624861220353637    4.7827854098358298
   0.0000000000000000    0.0000000000000000   33.4794978688508209
Sr Ag Sb Sr Ag Sb Sr Ag Sb
3 12 6 3 12 6 3 12 6
Selective dynamics
direct
   0.0000000000000000    0.0000000000000000    0.4047619047619049 F F F Sr
   0.3333333333333333    0.3333333333333333    0.3095238095238096 T T T Sr
   0.6666666666666666    0.6666666666666666    0.3571428571428573 T T T Sr
   0.3333333333333333    0.1904432555870817    0.3299366777732741 T T T Ag
   0.0000000000000000    0.1428900777462516    0.3843490365124403 T T T Ag
   0.6666666666666666    0.2315905796272067    0.4192965838627801 F F F Ag
   0.6666666666666667    0.1017427537061266    0.2949891304229344 T T T Ag
   0.6666666666666666    0.5237765889204150    0.3775557253923217 T T T Ag
   0.3333333333333333    0.4762234110795850    0.2891109412743451 T T T Ag
   0.0000000000000000    0.5649239129605400    0.3240584886246848 T T T Ag
   0.0000000000000000    0.4350760870394599    0.3426081780419820 T T T Ag
   0.0000000000000000    0.8571099222537484    0.4251747730113694 F F F Ag
   0.6666666666666666    0.8095567444129182    0.3367299888933927 T T T Ag
   0.3333333333333332    0.8982572462938734    0.3716775362437325 T T T Ag
   0.3333333333333335    0.7684094203727931    0.3902272256610296 T T T Ag
   0.3333333333333333    0.0780930483459154    0.3459867073791550 T T T Sb
   0.0000000000000000    0.2552402849874179    0.3682990069065595 T T T Sb
   0.6666666666666666    0.4114263816792488    0.3936057549982026 T T T Sb
   0.3333333333333333    0.5885736183207513    0.4159180545256070 F F F Sb
   0.0000000000000000    0.7447597150125820    0.2983676597601074 T T T Sb
   0.6666666666666666    0.9219069516540845    0.3206799592875118 T T T Sb
   0.0000000000000000    0.0000000000000000    0.5476190476190477 F F F Sr
   0.3333333333333333    0.3333333333333333    0.4523809523809524 F F F Sr
   0.6666666666666666    0.6666666666666666    0.5000000000000001 F F F Sr
   0.3333333333333333    0.1904432555870817    0.4727938206304170 F F F Ag
   0.0000000000000000    0.1428900777462516    0.5272061793695832 F F F Ag
   0.6666666666666666    0.2315905796272067    0.5621537267199229 F F F Ag
   0.6666666666666667    0.1017427537061266    0.4378462732800772 F F F Ag
   0.6666666666666666    0.5237765889204150    0.5204128682494646 F F F Ag
   0.3333333333333333    0.4762234110795850    0.4319680841314880 F F F Ag
   0.0000000000000000    0.5649239129605400    0.4669156314818277 F F F Ag
   0.0000000000000000    0.4350760870394599    0.4854653208991249 F F F Ag
   0.0000000000000000    0.8571099222537484    0.5680319158685122 F F F Ag
   0.6666666666666666    0.8095567444129182    0.4795871317505356 F F F Ag
   0.3333333333333332    0.8982572462938734    0.5145346791008754 F F F Ag
   0.3333333333333335    0.7684094203727931    0.5330843685181725 F F F Ag
   0.3333333333333333    0.0780930483459154    0.4888438502362979 F F F Sb
   0.0000000000000000    0.2552402849874179    0.5111561497637023 F F F Sb
   0.6666666666666666    0.4114263816792488    0.5364628978553455 F F F Sb
   0.3333333333333333    0.5885736183207513    0.5587751973827499 F F F Sb
   0.0000000000000000    0.7447597150125820    0.4412248026172503 F F F Sb
   0.6666666666666666    0.9219069516540845    0.4635371021446547 F F F Sb
   0.0000000000000000    0.0000000000000000    0.6904761904761906 T T T Sr
   0.3333333333333333    0.3333333333333333    0.5952380952380953 F F F Sr
   0.6666666666666666    0.6666666666666666    0.6428571428571430 T T T Sr
   0.3333333333333333    0.1904432555870817    0.6156509634875598 T T T Ag
   0.0000000000000000    0.1428900777462516    0.6700633222267260 T T T Ag
   0.6666666666666666    0.2315905796272067    0.7050108695770658 T T T Ag
   0.6666666666666667    0.1017427537061266    0.5807034161372201 F F F Ag
   0.6666666666666666    0.5237765889204150    0.6632700111066074 T T T Ag
   0.3333333333333333    0.4762234110795850    0.5748252269886308 F F F Ag
   0.0000000000000000    0.5649239129605400    0.6097727743389705 T T T Ag
   0.0000000000000000    0.4350760870394599    0.6283224637562677 T T T Ag
   0.0000000000000000    0.8571099222537484    0.7108890587256551 T T T Ag
   0.6666666666666666    0.8095567444129182    0.6224442746076784 T T T Ag
   0.3333333333333332    0.8982572462938734    0.6573918219580182 T T T Ag
   0.3333333333333335    0.7684094203727931    0.6759415113753153 T T T Ag
   0.3333333333333333    0.0780930483459154    0.6317009930934407 T T T Sb
   0.0000000000000000    0.2552402849874179    0.6540132926208452 T T T Sb
   0.6666666666666666    0.4114263816792488    0.6793200407124883 T T T Sb
   0.3333333333333333    0.5885736183207513    0.7016323402398927 T T T Sb
   0.0000000000000000    0.7447597150125820    0.5840819454743931 F F F Sb
   0.6666666666666666    0.9219069516540845    0.6063942450017975 T T T Sb
