Hf18 Cu24 Si12
1.0
  10.9426348160758078    0.0000000000000000    0.0000000000000007
   0.0000000000000010    6.3177331567051374   -3.9817702062760159
   0.0000000000000000    0.0000000000000000   31.8541616502081197
Hf Cu Si Hf Cu Si Hf Cu Si
6 8 4 6 8 4 6 8 4
Selective dynamics
direct
   0.2069958899481375    0.7930041100518626    0.4289866248675939 T T T Hf
   0.7069958899481374    0.2930041100518625    0.3664866248675939 T T T Hf
   0.2930041100518626    0.2930041100518626    0.3664866248675939 T T T Hf
   0.7930041100518626    0.7930041100518626    0.4289866248675939 T T T Hf
   0.5000000000000000    0.9139917798962749    0.3191100835981454 T T T Hf
   0.0000000000000000    0.4139917798962749    0.3816100835981454 T T T Hf
   0.5000000000000000    0.2527155726902386    0.4239505576973909 T T T Cu
   0.0000000000000000    0.7527155726902386    0.3614505576973909 T T T Cu
   0.3763577863451193    0.6236422136548807    0.3453163878179711 T T T Cu
   0.8763577863451193    0.1236422136548807    0.4078163878179711 T T T Cu
   0.5000000000000000    0.5000000000000000    0.3923611111111110 T T T Cu
   0.0000000000000000    0.0000000000000000    0.3298611111111110 T T T Cu
   0.1236422136548807    0.1236422136548808    0.4078163878179711 T T T Cu
   0.6236422136548807    0.6236422136548807    0.3453163878179711 T T T Cu
   0.3333333333333333    0.0000000000000000    0.3923611111111110 T T T Si
   0.8333333333333333    0.5000000000000000    0.3298611111111110 T T T Si
   0.1666666666666667    0.5000000000000000    0.3298611111111110 T T T Si
   0.6666666666666667    0.0000000000000000    0.3923611111111110 T T T Si
   0.2069958899481375    0.7930041100518626    0.5539866248675939 F F F Hf
   0.7069958899481374    0.2930041100518625    0.4914866248675939 F F F Hf
   0.2930041100518626    0.2930041100518626    0.4914866248675939 F F F Hf
   0.7930041100518626    0.7930041100518626    0.5539866248675939 F F F Hf
   0.5000000000000000    0.9139917798962749    0.4441100835981454 F F F Hf
   0.0000000000000000    0.4139917798962749    0.5066100835981454 F F F Hf
   0.5000000000000000    0.2527155726902386    0.5489505576973909 F F F Cu
   0.0000000000000000    0.7527155726902386    0.4864505576973909 F F F Cu
   0.3763577863451193    0.6236422136548807    0.4703163878179711 F F F Cu
   0.8763577863451193    0.1236422136548807    0.5328163878179711 F F F Cu
   0.5000000000000000    0.5000000000000000    0.5173611111111110 F F F Cu
   0.0000000000000000    0.0000000000000000    0.4548611111111110 F F F Cu
   0.1236422136548807    0.1236422136548808    0.5328163878179711 F F F Cu
   0.6236422136548807    0.6236422136548807    0.4703163878179711 F F F Cu
   0.3333333333333333    0.0000000000000000    0.5173611111111110 F F F Si
   0.8333333333333333    0.5000000000000000    0.4548611111111110 F F F Si
   0.1666666666666667    0.5000000000000000    0.4548611111111110 F F F Si
   0.6666666666666667    0.0000000000000000    0.5173611111111110 F F F Si
   0.2069958899481375    0.7930041100518626    0.6789866248675939 T T T Hf
   0.7069958899481374    0.2930041100518625    0.6164866248675939 T T T Hf
   0.2930041100518626    0.2930041100518626    0.6164866248675939 T T T Hf
   0.7930041100518626    0.7930041100518626    0.6789866248675939 T T T Hf
   0.5000000000000000    0.9139917798962749    0.5691100835981454 T T T Hf
   0.0000000000000000    0.4139917798962749    0.6316100835981454 T T T Hf
   0.5000000000000000    0.2527155726902386    0.6739505576973909 T T T Cu
   0.0000000000000000    0.7527155726902386    0.6114505576973909 T T T Cu
   0.3763577863451193    0.6236422136548807    0.5953163878179711 T T T Cu
   0.8763577863451193    0.1236422136548807    0.6578163878179711 T T T Cu
   0.5000000000000000    0.5000000000000000    0.6423611111111110 T T T Cu
   0.0000000000000000    0.0000000000000000    0.5798611111111110 T T T Cu
   0.1236422136548807    0.1236422136548808    0.6578163878179711 T T T Cu
   0.6236422136548807    0.6236422136548807    0.5953163878179711 T T T Cu
   0.3333333333333333    0.0000000000000000    0.6423611111111110 T T T Si
   0.8333333333333333    0.5000000000000000    0.5798611111111110 T T T Si
   0.1666666666666667    0.5000000000000000    0.5798611111111110 T T T Si
   0.6666666666666667    0.0000000000000000    0.6423611111111110 T T T Si
