Al24 Ru12 Pt12
1.0
   6.0518919055329974    0.0000000000000000    6.0518919055329965
   6.0518919055329965    6.0518919055329974   -0.0000000000000014
   0.0000000000000000    0.0000000000000000   48.4151352442639791
Al Ru Pt Al Ru Pt Al Ru Pt
8 4 4 8 4 4 8 4 4
Selective dynamics
direct
   0.0000000000000002    0.7499999999999999    0.3593750000000000 T T T Al
   0.0000000000000001    0.7499999999999999    0.4218750000000000 T T T Al
   0.5000000000000000    0.2500000000000000    0.3593750000000000 T T T Al
   0.5000000000000000    0.2499999999999999    0.4218750000000000 T T T Al
   0.0000000000000000    0.2500000000000000    0.3593750000000000 T T T Al
   0.0000000000000000    0.2500000000000000    0.4218750000000000 T T T Al
   0.5000000000000002    0.7499999999999999    0.3593750000000000 T T T Al
   0.5000000000000000    0.7500000000000000    0.4218750000000000 T T T Al
   0.5000000000000000    0.0000000000000000    0.3281250000000000 T T T Ru
   0.0000000000000001    0.4999999999999999    0.3281250000000000 T T T Ru
   0.5000000000000000    0.5000000000000000    0.3281250000000000 T T T Ru
   0.0000000000000001    0.0000000000000000    0.3281250000000000 T T T Ru
   0.0000000000000000    0.0000000000000000    0.3906250000000000 T T T Pt
   0.5000000000000001    0.4999999999999999    0.3906250000000000 T T T Pt
   0.0000000000000000    0.4999999999999999    0.3906250000000000 T T T Pt
   0.5000000000000001    0.0000000000000000    0.3906250000000000 T T T Pt
   0.0000000000000002    0.7499999999999999    0.4843750000000000 F F F Al
   0.0000000000000001    0.7499999999999999    0.5468750000000000 F F F Al
   0.5000000000000000    0.2500000000000000    0.4843750000000000 F F F Al
   0.5000000000000000    0.2499999999999999    0.5468750000000000 F F F Al
   0.0000000000000000    0.2500000000000000    0.4843750000000000 F F F Al
   0.0000000000000000    0.2500000000000000    0.5468750000000000 F F F Al
   0.5000000000000002    0.7499999999999999    0.4843750000000000 F F F Al
   0.5000000000000000    0.7500000000000000    0.5468750000000000 F F F Al
   0.5000000000000000    0.0000000000000000    0.4531250000000000 F F F Ru
   0.0000000000000001    0.4999999999999999    0.4531250000000000 F F F Ru
   0.5000000000000000    0.5000000000000000    0.4531250000000000 F F F Ru
   0.0000000000000001    0.0000000000000000    0.4531250000000000 F F F Ru
   0.0000000000000000    0.0000000000000000    0.5156250000000000 F F F Pt
   0.5000000000000001    0.4999999999999999    0.5156250000000000 F F F Pt
   0.0000000000000000    0.4999999999999999    0.5156250000000000 F F F Pt
   0.5000000000000001    0.0000000000000000    0.5156250000000000 F F F Pt
   0.0000000000000002    0.7499999999999999    0.6093750000000000 T T T Al
   0.0000000000000001    0.7499999999999999    0.6718750000000000 T T T Al
   0.5000000000000000    0.2500000000000000    0.6093750000000000 T T T Al
   0.5000000000000000    0.2499999999999999    0.6718750000000000 T T T Al
   0.0000000000000000    0.2500000000000000    0.6093750000000000 T T T Al
   0.0000000000000000    0.2500000000000000    0.6718750000000000 T T T Al
   0.5000000000000002    0.7499999999999999    0.6093750000000000 T T T Al
   0.5000000000000000    0.7500000000000000    0.6718750000000000 T T T Al
   0.5000000000000000    0.0000000000000000    0.5781250000000000 T T T Ru
   0.0000000000000001    0.4999999999999999    0.5781250000000000 T T T Ru
   0.5000000000000000    0.5000000000000000    0.5781250000000000 T T T Ru
   0.0000000000000001    0.0000000000000000    0.5781250000000000 T T T Ru
   0.0000000000000000    0.0000000000000000    0.6406250000000000 T T T Pt
   0.5000000000000001    0.4999999999999999    0.6406250000000000 T T T Pt
   0.0000000000000000    0.4999999999999999    0.6406250000000000 T T T Pt
   0.5000000000000001    0.0000000000000000    0.6406250000000000 T T T Pt
