Li18 Y18 Ge18
1.0
   7.0790952721533218    0.0000000000000000    0.0000000000000004
   7.0790952721533191   12.2613526829901840    4.2537543102151627
   0.0000000000000000    0.0000000000000000   29.7762801715061443
Li Y Ge Li Y Ge Li Y Ge
6 6 6 6 6 6 6 6 6
Selective dynamics
direct
   0.0000000000000000    0.3834316590736294    0.2904621439418625 T T T Li
   0.0000000000000000    0.8834316590736293    0.3618907153704339 T T T Li
   0.7668633181472586    0.1165683409263706    0.3285854751057566 T T T Li
   0.7668633181472586    0.6165683409263706    0.4000140465343280 F F F Li
   0.2331366818527414    0.5000000000000000    0.4166666666666667 F F F Li
   0.2331366818527413    0.0000000000000000    0.3452380952380953 T T T Li
   0.5765615239948331    0.4999999999999999    0.3452380952380953 T T T Y
   0.5765615239948331    0.9999999999999999    0.4166666666666667 F F F Y
   0.0000000000000000    0.2117192380025835    0.3864210612377262 T T T Y
   0.0000000000000000    0.7117192380025834    0.3149924898091548 T T T Y
   0.4234384760051669    0.2882807619974165    0.3754837006670358 T T T Y
   0.4234384760051669    0.7882807619974165    0.3040551292384643 T T T Y
   0.6666666666666666    0.3333333333333333    0.2976190476190477 T T T Ge
   0.6666666666666665    0.8333333333333333    0.3690476190476191 T T T Ge
   0.3333333333333333    0.1666666666666667    0.3214285714285715 T T T Ge
   0.3333333333333332    0.6666666666666666    0.3928571428571429 T T T Ge
   0.0000000000000001    0.5000000000000000    0.3452380952380953 T T T Ge
   0.0000000000000000    0.0000000000000000    0.4166666666666667 F F F Ge
   0.0000000000000000    0.3834316590736294    0.4333192867990053 F F F Li
   0.0000000000000000    0.8834316590736293    0.5047478582275768 F F F Li
   0.7668633181472586    0.1165683409263706    0.4714426179628994 F F F Li
   0.7668633181472586    0.6165683409263706    0.5428711893914708 F F F Li
   0.2331366818527414    0.5000000000000000    0.5595238095238095 F F F Li
   0.2331366818527413    0.0000000000000000    0.4880952380952381 F F F Li
   0.5765615239948331    0.4999999999999999    0.4880952380952381 F F F Y
   0.5765615239948331    0.9999999999999999    0.5595238095238095 F F F Y
   0.0000000000000000    0.2117192380025835    0.5292782040948691 F F F Y
   0.0000000000000000    0.7117192380025834    0.4578496326662976 F F F Y
   0.4234384760051669    0.2882807619974165    0.5183408435241786 F F F Y
   0.4234384760051669    0.7882807619974165    0.4469122720956072 F F F Y
   0.6666666666666666    0.3333333333333333    0.4404761904761905 F F F Ge
   0.6666666666666665    0.8333333333333333    0.5119047619047620 F F F Ge
   0.3333333333333333    0.1666666666666667    0.4642857142857143 F F F Ge
   0.3333333333333332    0.6666666666666666    0.5357142857142858 F F F Ge
   0.0000000000000001    0.5000000000000000    0.4880952380952381 F F F Ge
   0.0000000000000000    0.0000000000000000    0.5595238095238095 F F F Ge
   0.0000000000000000    0.3834316590736294    0.5761764296561482 F F F Li
   0.0000000000000000    0.8834316590736293    0.6476050010847196 T T T Li
   0.7668633181472586    0.1165683409263706    0.6142997608200422 T T T Li
   0.7668633181472586    0.6165683409263706    0.6857283322486137 T T T Li
   0.2331366818527414    0.5000000000000000    0.7023809523809524 T T T Li
   0.2331366818527413    0.0000000000000000    0.6309523809523809 T T T Li
   0.5765615239948331    0.4999999999999999    0.6309523809523809 T T T Y
   0.5765615239948331    0.9999999999999999    0.7023809523809524 T T T Y
   0.0000000000000000    0.2117192380025835    0.6721353469520119 T T T Y
   0.0000000000000000    0.7117192380025834    0.6007067755234405 T T T Y
   0.4234384760051669    0.2882807619974165    0.6611979863813215 T T T Y
   0.4234384760051669    0.7882807619974165    0.5897694149527500 F F F Y
   0.6666666666666666    0.3333333333333333    0.5833333333333334 F F F Ge
   0.6666666666666665    0.8333333333333333    0.6547619047619048 T T T Ge
   0.3333333333333333    0.1666666666666667    0.6071428571428572 T T T Ge
   0.3333333333333332    0.6666666666666666    0.6785714285714286 T T T Ge
   0.0000000000000001    0.5000000000000000    0.6309523809523809 T T T Ge
   0.0000000000000000    0.0000000000000000    0.7023809523809524 T T T Ge
