Y16 Mg16 Ag32
1.0
   7.0037868757848161    0.0000000000000000    0.0000000000000004
   0.0000000000000023   14.0075737515696304   -7.0037868757848152
   0.0000000000000000    0.0000000000000000   35.0189343789240795
Y Mg Ag Y Mg Ag
8 8 16 8 8 16
Selective dynamics
direct
   0.0000000000000000    0.5000000000000000    0.4875000000000000 F F F Y
   0.0000000000000000    0.0000000000000000    0.3875000000000000 T T T Y
   0.5000000000000000    0.2500000000000000    0.4375000000000000 F F F Y
   0.5000000000000000    0.7500000000000000    0.3375000000000000 T T T Y
   0.5000000000000000    0.5000000000000000    0.3875000000000000 T T T Y
   0.5000000000000000    0.0000000000000000    0.4875000000000000 F F F Y
   0.0000000000000000    0.2500000000000000    0.3375000000000000 T T T Y
   0.0000000000000000    0.7500000000000000    0.4375000000000000 F F F Y
   0.0000000000000000    0.5000000000000000    0.3875000000000000 T T T Mg
   0.0000000000000000    0.0000000000000000    0.4875000000000000 F F F Mg
   0.5000000000000000    0.2500000000000000    0.3375000000000000 T T T Mg
   0.5000000000000000    0.7500000000000000    0.4375000000000000 F F F Mg
   0.5000000000000000    0.5000000000000000    0.4875000000000000 F F F Mg
   0.5000000000000000    0.0000000000000000    0.3875000000000000 T T T Mg
   0.0000000000000000    0.2500000000000000    0.4375000000000000 F F F Mg
   0.0000000000000000    0.7500000000000000    0.3375000000000000 T T T Mg
   0.2499999999999999    0.3750000000000001    0.3125000000000000 T T T Ag
   0.2500000000000000    0.8750000000000000    0.4125000000000000 F F F Ag
   0.2499999999999999    0.1250000000000000    0.4625000000000000 F F F Ag
   0.2500000000000000    0.6250000000000000    0.3625000000000000 T T T Ag
   0.7500000000000000    0.1250000000000000    0.4625000000000000 F F F Ag
   0.7500000000000000    0.6250000000000000    0.3625000000000000 T T T Ag
   0.7500000000000000    0.3750000000000001    0.3125000000000000 T T T Ag
   0.7500000000000000    0.8750000000000000    0.4125000000000000 F F F Ag
   0.7500000000000000    0.3750000000000001    0.4125000000000000 F F F Ag
   0.7500000000000000    0.8750000000000000    0.3125000000000000 T T T Ag
   0.7500000000000000    0.1250000000000000    0.3624999999999999 T T T Ag
   0.7500000000000000    0.6250000000000000    0.4625000000000000 F F F Ag
   0.2500000000000000    0.1250000000000000    0.3624999999999999 T T T Ag
   0.2500000000000000    0.6250000000000000    0.4625000000000000 F F F Ag
   0.2499999999999999    0.3750000000000001    0.4125000000000000 F F F Ag
   0.2500000000000000    0.8750000000000000    0.3125000000000000 T T T Ag
   0.0000000000000000    0.5000000000000000    0.6875000000000000 T T T Y
   0.0000000000000000    0.0000000000000000    0.5875000000000000 F F F Y
   0.5000000000000000    0.2500000000000000    0.6375000000000000 T T T Y
   0.5000000000000000    0.7500000000000000    0.5375000000000000 F F F Y
   0.5000000000000000    0.5000000000000000    0.5875000000000000 F F F Y
   0.5000000000000000    0.0000000000000000    0.6875000000000000 T T T Y
   0.0000000000000000    0.2500000000000000    0.5375000000000000 F F F Y
   0.0000000000000000    0.7500000000000000    0.6375000000000000 T T T Y
   0.0000000000000000    0.5000000000000000    0.5875000000000000 F F F Mg
   0.0000000000000000    0.0000000000000000    0.6875000000000000 T T T Mg
   0.5000000000000000    0.2500000000000000    0.5375000000000000 F F F Mg
   0.5000000000000000    0.7500000000000000    0.6375000000000000 T T T Mg
   0.5000000000000000    0.5000000000000000    0.6875000000000000 T T T Mg
   0.5000000000000000    0.0000000000000000    0.5875000000000000 F F F Mg
   0.0000000000000000    0.2500000000000000    0.6375000000000000 T T T Mg
   0.0000000000000000    0.7500000000000000    0.5375000000000000 F F F Mg
   0.2499999999999999    0.3750000000000001    0.5125000000000000 F F F Ag
   0.2500000000000000    0.8750000000000000    0.6125000000000000 T T T Ag
   0.2499999999999999    0.1250000000000000    0.6625000000000001 T T T Ag
   0.2500000000000000    0.6250000000000000    0.5625000000000000 F F F Ag
   0.7500000000000000    0.1250000000000000    0.6625000000000001 T T T Ag
   0.7500000000000000    0.6250000000000000    0.5625000000000000 F F F Ag
   0.7500000000000000    0.3750000000000001    0.5125000000000000 F F F Ag
   0.7500000000000000    0.8750000000000000    0.6125000000000000 T T T Ag
   0.7500000000000000    0.3750000000000001    0.6125000000000000 T T T Ag
   0.7500000000000000    0.8750000000000000    0.5125000000000000 F F F Ag
   0.7500000000000000    0.1250000000000000    0.5625000000000000 F F F Ag
   0.7500000000000000    0.6250000000000000    0.6625000000000001 T T T Ag
   0.2500000000000000    0.1250000000000000    0.5625000000000000 F F F Ag
   0.2500000000000000    0.6250000000000000    0.6625000000000001 T T T Ag
   0.2499999999999999    0.3750000000000001    0.6125000000000000 T T T Ag
   0.2500000000000000    0.8750000000000000    0.5125000000000000 F F F Ag
