Ca5 Zn10 As10
1.0
   3.6317419000535072    0.0000000000000000   -6.2903614908694134
  -0.0000000000000067    7.0400506509014926   -4.1935743272462771
   0.0000000000000000    0.0000000000000000   54.5164662542015677
Ca Zn As Ca Zn As Ca Zn As Ca Zn As Ca Zn As
1 2 2 1 2 2 1 2 2 1 2 2 1 2 2
Selective dynamics
direct
   0.0000000000000000    0.0000000000000000    0.3615384615384615 T T T Ca
   0.6666666666666666    0.6311063088705209    0.3331620237592708 T T T Zn
   0.3333333333333333    0.3688936911294789    0.3129918223945752 T T T Zn
   0.6666666666666666    0.2576905013739646    0.3813608077979972 T T T As
   0.3333333333333333    0.7423094986260351    0.3417161152789258 T T T As
   0.0000000000000000    0.0000000000000000    0.4384615384615384 F F F Ca
   0.6666666666666666    0.6311063088705209    0.4100851006823477 T T T Zn
   0.3333333333333333    0.3688936911294789    0.3899148993176522 T T T Zn
   0.6666666666666666    0.2576905013739646    0.4582838847210742 F F F As
   0.3333333333333333    0.7423094986260351    0.4186391922020027 T T T As
   0.0000000000000000    0.0000000000000000    0.5153846153846153 F F F Ca
   0.6666666666666666    0.6311063088705209    0.4870081776054246 F F F Zn
   0.3333333333333333    0.3688936911294789    0.4668379762407291 F F F Zn
   0.6666666666666666    0.2576905013739646    0.5352069616441510 F F F As
   0.3333333333333333    0.7423094986260351    0.4955622691250796 F F F As
   0.0000000000000000    0.0000000000000000    0.5923076923076922 T T T Ca
   0.6666666666666666    0.6311063088705209    0.5639312545285016 F F F Zn
   0.3333333333333333    0.3688936911294789    0.5437610531638061 F F F Zn
   0.6666666666666666    0.2576905013739646    0.6121300385672280 T T T As
   0.3333333333333333    0.7423094986260351    0.5724853460481565 F F F As
   0.0000000000000000    0.0000000000000000    0.6692307692307692 T T T Ca
   0.6666666666666666    0.6311063088705209    0.6408543314515784 T T T Zn
   0.3333333333333333    0.3688936911294789    0.6206841300868829 T T T Zn
   0.6666666666666666    0.2576905013739646    0.6890531154903049 T T T As
   0.3333333333333333    0.7423094986260351    0.6494084229712335 T T T As
