Zr12 Mn2 Te4
1.0
   6.7710014955017339    0.0000000000000000   -3.9092395361112868
   0.0000000000000006    3.6420896971511492    0.0000000000000002
   0.0000000000000000    0.0000000000000000   39.0923953611128496
Zr Mn Te Zr Mn Te
6 1 2 6 1 2
Selective dynamics
direct
   0.0000000000000000    0.0000000000000000    0.4702513651453011 F F F Zr
   0.2401457146153945    0.0000000000000000    0.4222222222222222 F F F Zr
   0.7598542853846056    0.0000000000000000    0.3741930792991433 T T T Zr
   0.0000000000000001    0.5000000000000000    0.3414379021709700 T T T Zr
   0.5960783997437389    0.5000000000000000    0.4222222222222222 F F F Zr
   0.4039216002562612    0.5000000000000000    0.3030065422734745 T T T Zr
   0.0000000000000000    0.5000000000000000    0.4222222222222222 F F F Mn
   0.6666666666666666    0.0000000000000000    0.4888888888888888 F F F Te
   0.3333333333333334    0.0000000000000000    0.3555555555555555 T T T Te
   0.0000000000000000    0.0000000000000000    0.6702513651453010 T T T Zr
   0.2401457146153945    0.0000000000000000    0.6222222222222222 T T T Zr
   0.7598542853846056    0.0000000000000000    0.5741930792991433 F F F Zr
   0.0000000000000001    0.5000000000000000    0.5414379021709700 F F F Zr
   0.5960783997437389    0.5000000000000000    0.6222222222222222 T T T Zr
   0.4039216002562612    0.5000000000000000    0.5030065422734744 F F F Zr
   0.0000000000000000    0.5000000000000000    0.6222222222222222 T T T Mn
   0.6666666666666666    0.0000000000000000    0.6888888888888889 T T T Te
   0.3333333333333334    0.0000000000000000    0.5555555555555556 F F F Te
