Zr36 Ga12 Co6
1.0
  13.5875973325242647    0.0000000000000000    0.0000000000000008
   6.7937986662621315    3.9224014887865613    6.7228688371175895
   0.0000000000000000    0.0000000000000000   50.4215162783819224
Zr Ga Co Zr Ga Co Zr Ga Co Zr Ga Co Zr Ga Co Zr Ga Co
6 2 1 6 2 1 6 2 1 6 2 1 6 2 1 6 2 1
Selective dynamics
direct
   0.0000000000000000    0.7503357007407914    0.3147700547160426 T T T Zr
   0.7503357007407914    0.4993285985184173    0.3482376683456925 T T T Zr
   0.2496642992592086    0.7503357007407914    0.3147700547160426 T T T Zr
   0.5954571427387663    0.4045428572612337    0.3275424338466503 T T T Zr
   0.4045428572612337    0.1909142854775325    0.3560262434178104 T T T Zr
   0.0000000000000000    0.4045428572612337    0.3275424338466503 T T T Zr
   0.6666666666666666    0.0000000000000000    0.3481481481481481 T T T Ga
   0.3333333333333333    0.0000000000000000    0.3481481481481481 T T T Ga
   0.0000000000000000    0.0000000000000000    0.3148148148148148 T T T Co
   0.0000000000000000    0.7503357007407914    0.3814367213827092 T T T Zr
   0.7503357007407914    0.4993285985184173    0.4149043350123591 T T T Zr
   0.2496642992592086    0.7503357007407914    0.3814367213827092 T T T Zr
   0.5954571427387663    0.4045428572612337    0.3942091005133169 T T T Zr
   0.4045428572612337    0.1909142854775325    0.4226929100844771 T T T Zr
   0.0000000000000000    0.4045428572612337    0.3942091005133169 T T T Zr
   0.6666666666666666    0.0000000000000000    0.4148148148148147 T T T Ga
   0.3333333333333333    0.0000000000000000    0.4148148148148147 T T T Ga
   0.0000000000000000    0.0000000000000000    0.3814814814814814 T T T Co
   0.0000000000000000    0.7503357007407914    0.4481033880493759 F F F Zr
   0.7503357007407914    0.4993285985184173    0.4815710016790258 F F F Zr
   0.2496642992592086    0.7503357007407914    0.4481033880493759 F F F Zr
   0.5954571427387663    0.4045428572612337    0.4608757671799836 F F F Zr
   0.4045428572612337    0.1909142854775325    0.4893595767511438 F F F Zr
   0.0000000000000000    0.4045428572612337    0.4608757671799836 F F F Zr
   0.6666666666666666    0.0000000000000000    0.4814814814814814 F F F Ga
   0.3333333333333333    0.0000000000000000    0.4814814814814814 F F F Ga
   0.0000000000000000    0.0000000000000000    0.4481481481481481 F F F Co
   0.0000000000000000    0.7503357007407914    0.5147700547160425 F F F Zr
   0.7503357007407914    0.4993285985184173    0.5482376683456924 F F F Zr
   0.2496642992592086    0.7503357007407914    0.5147700547160425 F F F Zr
   0.5954571427387663    0.4045428572612337    0.5275424338466503 F F F Zr
   0.4045428572612337    0.1909142854775325    0.5560262434178105 F F F Zr
   0.0000000000000000    0.4045428572612337    0.5275424338466503 F F F Zr
   0.6666666666666666    0.0000000000000000    0.5481481481481481 F F F Ga
   0.3333333333333333    0.0000000000000000    0.5481481481481481 F F F Ga
   0.0000000000000000    0.0000000000000000    0.5148148148148148 F F F Co
   0.0000000000000000    0.7503357007407914    0.5814367213827092 T T T Zr
   0.7503357007407914    0.4993285985184173    0.6149043350123591 T T T Zr
   0.2496642992592086    0.7503357007407914    0.5814367213827092 T T T Zr
   0.5954571427387663    0.4045428572612337    0.5942091005133170 T T T Zr
   0.4045428572612337    0.1909142854775325    0.6226929100844771 T T T Zr
   0.0000000000000000    0.4045428572612337    0.5942091005133170 T T T Zr
   0.6666666666666666    0.0000000000000000    0.6148148148148147 T T T Ga
   0.3333333333333333    0.0000000000000000    0.6148148148148147 T T T Ga
   0.0000000000000000    0.0000000000000000    0.5814814814814815 T T T Co
   0.0000000000000000    0.7503357007407914    0.6481033880493758 T T T Zr
   0.7503357007407914    0.4993285985184173    0.6815710016790257 T T T Zr
   0.2496642992592086    0.7503357007407914    0.6481033880493758 T T T Zr
   0.5954571427387663    0.4045428572612337    0.6608757671799836 T T T Zr
   0.4045428572612337    0.1909142854775325    0.6893595767511438 T T T Zr
   0.0000000000000000    0.4045428572612337    0.6608757671799836 T T T Zr
   0.6666666666666666    0.0000000000000000    0.6814814814814814 T T T Ga
   0.3333333333333333    0.0000000000000000    0.6814814814814814 T T T Ga
   0.0000000000000000    0.0000000000000000    0.6481481481481481 T T T Co
