Sc24 Ni4 Te8
1.0
  13.4845341349667418    0.0000000000000000    0.0000000000000008
   6.7422670674833727    3.8926497063598688    3.7461719541990730
   0.0000000000000000    0.0000000000000000   37.4617195419907176
Sc Ni Te Sc Ni Te Sc Ni Te Sc Ni Te
6 1 2 6 1 2 6 1 2 6 1 2
Selective dynamics
direct
   0.0000000000000000    0.7621275638159304    0.3071205769517403 T T T Sc
   0.7621275638159304    0.4757448723681392    0.3357588460965194 T T T Sc
   0.2378724361840696    0.7621275638159304    0.3071205769517403 T T T Sc
   0.0000000000000000    0.3921810242272202    0.3941152309106113 T T T Sc
   0.3921810242272202    0.2156379515455595    0.3117695381787774 T T T Sc
   0.6078189757727798    0.3921810242272202    0.3941152309106113 T T T Sc
   0.0000000000000000    0.0000000000000000    0.3333333333333334 T T T Ni
   0.6666666666666666    0.0000000000000000    0.3833333333333334 T T T Te
   0.3333333333333334    0.0000000000000000    0.3833333333333334 T T T Te
   0.0000000000000000    0.7621275638159304    0.4071205769517403 T T T Sc
   0.7621275638159304    0.4757448723681392    0.4357588460965194 F F F Sc
   0.2378724361840696    0.7621275638159304    0.4071205769517403 T T T Sc
   0.0000000000000000    0.3921810242272202    0.4941152309106113 F F F Sc
   0.3921810242272202    0.2156379515455595    0.4117695381787774 T T T Sc
   0.6078189757727798    0.3921810242272202    0.4941152309106113 F F F Sc
   0.0000000000000000    0.0000000000000000    0.4333333333333333 F F F Ni
   0.6666666666666666    0.0000000000000000    0.4833333333333333 F F F Te
   0.3333333333333334    0.0000000000000000    0.4833333333333333 F F F Te
   0.0000000000000000    0.7621275638159304    0.5071205769517403 F F F Sc
   0.7621275638159304    0.4757448723681392    0.5357588460965195 F F F Sc
   0.2378724361840696    0.7621275638159304    0.5071205769517403 F F F Sc
   0.0000000000000000    0.3921810242272202    0.5941152309106114 T T T Sc
   0.3921810242272202    0.2156379515455595    0.5117695381787775 F F F Sc
   0.6078189757727798    0.3921810242272202    0.5941152309106114 T T T Sc
   0.0000000000000000    0.0000000000000000    0.5333333333333333 F F F Ni
   0.6666666666666666    0.0000000000000000    0.5833333333333334 T T T Te
   0.3333333333333334    0.0000000000000000    0.5833333333333334 T T T Te
   0.0000000000000000    0.7621275638159304    0.6071205769517403 T T T Sc
   0.7621275638159304    0.4757448723681392    0.6357588460965193 T T T Sc
   0.2378724361840696    0.7621275638159304    0.6071205769517403 T T T Sc
   0.0000000000000000    0.3921810242272202    0.6941152309106113 T T T Sc
   0.3921810242272202    0.2156379515455595    0.6117695381787773 T T T Sc
   0.6078189757727798    0.3921810242272202    0.6941152309106113 T T T Sc
   0.0000000000000000    0.0000000000000000    0.6333333333333333 T T T Ni
   0.6666666666666666    0.0000000000000000    0.6833333333333333 T T T Te
   0.3333333333333334    0.0000000000000000    0.6833333333333333 T T T Te
