Sc48 Ni8 Te16
1.0
  20.5979661282336544    0.0000000000000000    0.0000000000000013
   5.8851331794953294    5.0966748380976394    3.7461719541990730
   0.0000000000000000    0.0000000000000000   33.7155475877916473
Sc Ni Te Sc Ni Te Sc Ni Te Sc Ni Te
12 2 4 12 2 4 12 2 4 12 2 4
Selective dynamics
direct
   0.5000000000000000    0.2621275638159304    0.3813685422920571 T T T Sc
   0.0000000000000000    0.7621275638159304    0.3258129867365015 T T T Sc
   0.8810637819079652    0.3568086542761044    0.3708484211298155 T T T Sc
   0.3810637819079652    0.8568086542761044    0.3152928655742600 T T T Sc
   0.6189362180920348    0.3810637819079652    0.3681534069484976 T T T Sc
   0.1189362180920348    0.8810637819079652    0.3125978513929421 T T T Sc
   0.5000000000000001    0.8921810242272202    0.3669181578019138 T T T Sc
   0.0000000000000000    0.3921810242272202    0.3113626022463582 T T T Sc
   0.6960905121136102    0.9117284636591696    0.3647462200872527 T T T Sc
   0.1960905121136102    0.4117284636591696    0.3091906645316972 T T T Sc
   0.8039094878863898    0.1960905121136101    0.3331504369256482 T T T Sc
   0.3039094878863899    0.6960905121136101    0.2775948813700927 T T T Sc
   0.5000000000000000    0.5000000000000000    0.2993827160493827 T T T Ni
   0.0000000000000000    0.0000000000000000    0.3549382716049382 T T T Ni
   0.8333333333333334    0.8333333333333334    0.3179012345679012 T T T Te
   0.3333333333333334    0.3333333333333334    0.3734567901234567 T T T Te
   0.6666666666666667    0.6666666666666666    0.3364197530864197 T T T Te
   0.1666666666666667    0.1666666666666666    0.2808641975308642 T T T Te
   0.5000000000000000    0.2621275638159304    0.4924796534031682 F F F Sc
   0.0000000000000000    0.7621275638159304    0.4369240978476127 F F F Sc
   0.8810637819079652    0.3568086542761044    0.4819595322409266 F F F Sc
   0.3810637819079652    0.8568086542761044    0.4264039766853711 F F F Sc
   0.6189362180920348    0.3810637819079652    0.4792645180596087 F F F Sc
   0.1189362180920348    0.8810637819079652    0.4237089625040532 F F F Sc
   0.5000000000000001    0.8921810242272202    0.4780292689130249 F F F Sc
   0.0000000000000000    0.3921810242272202    0.4224737133574693 F F F Sc
   0.6960905121136102    0.9117284636591696    0.4758573311983638 F F F Sc
   0.1960905121136102    0.4117284636591696    0.4203017756428083 F F F Sc
   0.8039094878863898    0.1960905121136101    0.4442615480367593 F F F Sc
   0.3039094878863899    0.6960905121136101    0.3887059924812038 F F F Sc
   0.5000000000000000    0.5000000000000000    0.4104938271604938 F F F Ni
   0.0000000000000000    0.0000000000000000    0.4660493827160493 F F F Ni
   0.8333333333333334    0.8333333333333334    0.4290123456790123 F F F Te
   0.3333333333333334    0.3333333333333334    0.4845679012345678 F F F Te
   0.6666666666666667    0.6666666666666666    0.4475308641975309 F F F Te
   0.1666666666666667    0.1666666666666666    0.3919753086419753 F F F Te
   0.5000000000000000    0.2621275638159304    0.6035907645142793 F F F Sc
   0.0000000000000000    0.7621275638159304    0.5480352089587237 F F F Sc
   0.8810637819079652    0.3568086542761044    0.5930706433520377 F F F Sc
   0.3810637819079652    0.8568086542761044    0.5375150877964822 F F F Sc
   0.6189362180920348    0.3810637819079652    0.5903756291707198 F F F Sc
   0.1189362180920348    0.8810637819079652    0.5348200736151643 F F F Sc
   0.5000000000000001    0.8921810242272202    0.5891403800241359 F F F Sc
   0.0000000000000000    0.3921810242272202    0.5335848244685804 F F F Sc
   0.6960905121136102    0.9117284636591696    0.5869684423094750 F F F Sc
   0.1960905121136102    0.4117284636591696    0.5314128867539194 F F F Sc
   0.8039094878863898    0.1960905121136101    0.5553726591478705 F F F Sc
   0.3039094878863899    0.6960905121136101    0.4998171035923149 F F F Sc
   0.5000000000000000    0.5000000000000000    0.5216049382716049 F F F Ni
   0.0000000000000000    0.0000000000000000    0.5771604938271604 F F F Ni
   0.8333333333333334    0.8333333333333334    0.5401234567901234 F F F Te
   0.3333333333333334    0.3333333333333334    0.5956790123456790 F F F Te
   0.6666666666666667    0.6666666666666666    0.5586419753086419 F F F Te
   0.1666666666666667    0.1666666666666666    0.5030864197530864 F F F Te
   0.5000000000000000    0.2621275638159304    0.7147018756253904 T T T Sc
   0.0000000000000000    0.7621275638159304    0.6591463200698349 T T T Sc
   0.8810637819079652    0.3568086542761044    0.7041817544631488 T T T Sc
   0.3810637819079652    0.8568086542761044    0.6486261989075933 T T T Sc
   0.6189362180920348    0.3810637819079652    0.7014867402818310 T T T Sc
   0.1189362180920348    0.8810637819079652    0.6459311847262754 T T T Sc
   0.5000000000000001    0.8921810242272202    0.7002514911352471 T T T Sc
   0.0000000000000000    0.3921810242272202    0.6446959355796915 T T T Sc
   0.6960905121136102    0.9117284636591696    0.6980795534205860 T T T Sc
   0.1960905121136102    0.4117284636591696    0.6425239978650306 T T T Sc
   0.8039094878863898    0.1960905121136101    0.6664837702589815 T T T Sc
   0.3039094878863899    0.6960905121136101    0.6109282147034261 T T T Sc
   0.5000000000000000    0.5000000000000000    0.6327160493827160 T T T Ni
   0.0000000000000000    0.0000000000000000    0.6882716049382716 T T T Ni
   0.8333333333333334    0.8333333333333334    0.6512345679012346 T T T Te
   0.3333333333333334    0.3333333333333334    0.7067901234567900 T T T Te
   0.6666666666666667    0.6666666666666666    0.6697530864197531 T T T Te
   0.1666666666666667    0.1666666666666666    0.6141975308641975 T T T Te
