Li32 Al32 Au64
1.0
  12.5724669804397902    0.0000000000000000   -6.2862334902198951
  -0.0000000000000036   12.5724669804397902   -6.2862334902198951
   0.0000000000000000    0.0000000000000000   31.4311674510994763
Li Al Au Li Al Au
16 16 32 16 16 32
Selective dynamics
direct
   0.5000000000000000    0.4999999999999999    0.4750000000000000 F F F Li
   0.0000000000000000    0.0000000000000000    0.4750000000000000 F F F Li
   0.0000000000000000    0.5000000000000000    0.3750000000000000 T T T Li
   0.5000000000000000    0.0000000000000000    0.3750000000000000 T T T Li
   0.7500000000000000    0.7499999999999999    0.3750000000000000 T T T Li
   0.2500000000000000    0.2500000000000000    0.3750000000000000 T T T Li
   0.2500000000000000    0.7500000000000000    0.4750000000000000 F F F Li
   0.7500000000000000    0.2500000000000000    0.4750000000000000 F F F Li
   0.5000000000000000    0.7500000000000000    0.4250000000000000 T T T Li
   0.0000000000000000    0.2500000000000000    0.4250000000000000 T T T Li
   0.0000000000000000    0.7500000000000000    0.3250000000000000 T T T Li
   0.5000000000000000    0.2500000000000001    0.3250000000000000 T T T Li
   0.7500000000000000    0.4999999999999999    0.4250000000000000 T T T Li
   0.2500000000000000    0.0000000000000000    0.4250000000000000 T T T Li
   0.2500000000000000    0.5000000000000000    0.3250000000000001 T T T Li
   0.7500000000000000    0.0000000000000000    0.3250000000000000 T T T Li
   0.5000000000000000    0.5000000000000000    0.3750000000000000 T T T Al
   0.0000000000000000    0.0000000000000000    0.3750000000000000 T T T Al
   0.0000000000000000    0.5000000000000000    0.4750000000000000 F F F Al
   0.5000000000000000    0.0000000000000000    0.4750000000000000 F F F Al
   0.7500000000000000    0.7499999999999999    0.4750000000000000 F F F Al
   0.2500000000000000    0.2500000000000001    0.4750000000000000 F F F Al
   0.2500000000000000    0.7500000000000000    0.3750000000000000 T T T Al
   0.7500000000000000    0.2500000000000001    0.3750000000000000 T T T Al
   0.5000000000000000    0.7499999999999999    0.3250000000000000 T T T Al
   0.0000000000000000    0.2500000000000000    0.3250000000000000 T T T Al
   0.0000000000000000    0.7500000000000000    0.4250000000000000 T T T Al
   0.5000000000000000    0.2500000000000000    0.4250000000000000 T T T Al
   0.7500000000000000    0.4999999999999999    0.3250000000000000 T T T Al
   0.2500000000000000    0.0000000000000000    0.3250000000000000 T T T Al
   0.2500000000000000    0.5000000000000000    0.4250000000000000 T T T Al
   0.7500000000000000    0.0000000000000000    0.4250000000000000 T T T Al
   0.8750000000000001    0.8750000000000000    0.4750000000000000 F F F Au
   0.3750000000000000    0.3750000000000001    0.4750000000000000 F F F Au
   0.3750000000000000    0.8750000000000001    0.3750000000000000 T T T Au
   0.8750000000000001    0.3750000000000000    0.3750000000000001 T T T Au
   0.6250000000000000    0.8750000000000000    0.4250000000000000 T T T Au
   0.1250000000000000    0.3750000000000000    0.4250000000000000 T T T Au
   0.1250000000000000    0.8750000000000001    0.3250000000000001 T T T Au
   0.6250000000000000    0.3749999999999999    0.3250000000000000 T T T Au
   0.6250000000000000    0.6250000000000000    0.3750000000000000 T T T Au
   0.1250000000000000    0.1250000000000000    0.3750000000000000 T T T Au
   0.1250000000000000    0.6250000000000000    0.4750000000000000 F F F Au
   0.6250000000000000    0.1250000000000000    0.4750000000000000 F F F Au
   0.8750000000000001    0.6250000000000000    0.4250000000000000 T T T Au
   0.3750000000000000    0.1250000000000000    0.4250000000000000 T T T Au
   0.3750000000000000    0.6250000000000000    0.3250000000000000 T T T Au
   0.8750000000000001    0.1250000000000000    0.3250000000000001 T T T Au
   0.8750000000000001    0.6250000000000000    0.3250000000000001 T T T Au
   0.3750000000000000    0.1250000000000001    0.3250000000000000 T T T Au
   0.3750000000000000    0.6250000000000000    0.4250000000000000 T T T Au
   0.8750000000000001    0.1250000000000001    0.4250000000000000 T T T Au
   0.6250000000000000    0.6250000000000000    0.4750000000000000 F F F Au
   0.1250000000000000    0.1250000000000001    0.4750000000000000 F F F Au
   0.1250000000000000    0.6250000000000000    0.3750000000000000 T T T Au
   0.6250000000000000    0.1250000000000001    0.3750000000000000 T T T Au
   0.6250000000000000    0.8750000000000000    0.3250000000000001 T T T Au
   0.1250000000000000    0.3750000000000001    0.3250000000000000 T T T Au
   0.1250000000000000    0.8750000000000001    0.4250000000000000 T T T Au
   0.6250000000000000    0.3750000000000001    0.4250000000000000 T T T Au
   0.8750000000000001    0.8750000000000000    0.3750000000000001 T T T Au
   0.3750000000000000    0.3750000000000001    0.3750000000000000 T T T Au
   0.3750000000000000    0.8750000000000001    0.4750000000000000 F F F Au
   0.8750000000000001    0.3750000000000001    0.4750000000000001 F F F Au
   0.5000000000000000    0.4999999999999999    0.6750000000000000 T T T Li
   0.0000000000000000    0.0000000000000000    0.6750000000000000 T T T Li
   0.0000000000000000    0.5000000000000000    0.5750000000000000 T T T Li
   0.5000000000000000    0.0000000000000000    0.5750000000000001 T T T Li
   0.7500000000000000    0.7499999999999999    0.5750000000000001 T T T Li
   0.2500000000000000    0.2500000000000000    0.5750000000000001 T T T Li
   0.2500000000000000    0.7500000000000000    0.6750000000000000 T T T Li
   0.7500000000000000    0.2500000000000000    0.6750000000000000 T T T Li
   0.5000000000000000    0.7500000000000000    0.6250000000000000 T T T Li
   0.0000000000000000    0.2500000000000000    0.6250000000000000 T T T Li
   0.0000000000000000    0.7500000000000000    0.5250000000000000 F F F Li
   0.5000000000000000    0.2500000000000001    0.5250000000000000 F F F Li
   0.7500000000000000    0.4999999999999999    0.6250000000000000 T T T Li
   0.2500000000000000    0.0000000000000000    0.6250000000000000 T T T Li
   0.2500000000000000    0.5000000000000000    0.5250000000000000 F F F Li
   0.7500000000000000    0.0000000000000000    0.5250000000000000 F F F Li
   0.5000000000000000    0.5000000000000000    0.5750000000000000 T T T Al
   0.0000000000000000    0.0000000000000000    0.5750000000000000 T T T Al
   0.0000000000000000    0.5000000000000000    0.6750000000000000 T T T Al
   0.5000000000000000    0.0000000000000000    0.6750000000000000 T T T Al
   0.7500000000000000    0.7499999999999999    0.6750000000000000 T T T Al
   0.2500000000000000    0.2500000000000001    0.6750000000000000 T T T Al
   0.2500000000000000    0.7500000000000000    0.5750000000000000 T T T Al
   0.7500000000000000    0.2500000000000001    0.5750000000000000 T T T Al
   0.5000000000000000    0.7499999999999999    0.5250000000000000 F F F Al
   0.0000000000000000    0.2500000000000000    0.5250000000000000 F F F Al
   0.0000000000000000    0.7500000000000000    0.6250000000000000 T T T Al
   0.5000000000000000    0.2500000000000000    0.6250000000000000 T T T Al
   0.7500000000000000    0.4999999999999999    0.5250000000000000 F F F Al
   0.2500000000000000    0.0000000000000000    0.5250000000000000 F F F Al
   0.2500000000000000    0.5000000000000000    0.6250000000000000 T T T Al
   0.7500000000000000    0.0000000000000000    0.6250000000000000 T T T Al
   0.8750000000000001    0.8750000000000000    0.6750000000000000 T T T Au
   0.3750000000000000    0.3750000000000001    0.6750000000000000 T T T Au
   0.3750000000000000    0.8750000000000001    0.5750000000000000 T T T Au
   0.8750000000000001    0.3750000000000000    0.5750000000000001 T T T Au
   0.6250000000000000    0.8750000000000000    0.6250000000000000 T T T Au
   0.1250000000000000    0.3750000000000000    0.6250000000000000 T T T Au
   0.1250000000000000    0.8750000000000001    0.5250000000000000 F F F Au
   0.6250000000000000    0.3749999999999999    0.5250000000000000 F F F Au
   0.6250000000000000    0.6250000000000000    0.5750000000000001 T T T Au
   0.1250000000000000    0.1250000000000000    0.5750000000000001 T T T Au
   0.1250000000000000    0.6250000000000000    0.6750000000000000 T T T Au
   0.6250000000000000    0.1250000000000000    0.6750000000000000 T T T Au
   0.8750000000000001    0.6250000000000000    0.6250000000000001 T T T Au
   0.3750000000000000    0.1250000000000000    0.6250000000000000 T T T Au
   0.3750000000000000    0.6250000000000000    0.5250000000000000 F F F Au
   0.8750000000000001    0.1250000000000000    0.5250000000000000 F F F Au
   0.8750000000000001    0.6250000000000000    0.5250000000000000 F F F Au
   0.3750000000000000    0.1250000000000001    0.5250000000000000 F F F Au
   0.3750000000000000    0.6250000000000000    0.6250000000000000 T T T Au
   0.8750000000000001    0.1250000000000001    0.6250000000000000 T T T Au
   0.6250000000000000    0.6250000000000000    0.6750000000000000 T T T Au
   0.1250000000000000    0.1250000000000001    0.6750000000000000 T T T Au
   0.1250000000000000    0.6250000000000000    0.5750000000000000 T T T Au
   0.6250000000000000    0.1250000000000001    0.5750000000000000 T T T Au
   0.6250000000000000    0.8750000000000000    0.5250000000000000 F F F Au
   0.1250000000000000    0.3750000000000001    0.5250000000000000 F F F Au
   0.1250000000000000    0.8750000000000001    0.6250000000000000 T T T Au
   0.6250000000000000    0.3750000000000001    0.6250000000000000 T T T Au
   0.8750000000000001    0.8750000000000000    0.5750000000000001 T T T Au
   0.3750000000000000    0.3750000000000001    0.5750000000000000 T T T Au
   0.3750000000000000    0.8750000000000001    0.6750000000000000 T T T Au
   0.8750000000000001    0.3750000000000001    0.6750000000000000 T T T Au
