Sr12 Ge36 Pd12
1.0
   9.0600854423149677    0.0000000000000000   -4.5300427211574839
   0.0000000000000017   10.3740770027613429   -4.5300427211574803
   0.0000000000000000    0.0000000000000000   31.7102990481023852
Sr Ge Pd Sr Ge Pd Sr Ge Pd
4 12 4 4 12 4 4 12 4
Selective dynamics
direct
   0.2500000000000000    0.4986768827729122    0.3091625543961303 T T T Sr
   0.7500000000000000    0.4986768827729122    0.3805911258247018 T T T Sr
   0.0000000000000000    0.9986768827729121    0.4163054115389875 F F F Sr
   0.5000000000000000    0.9986768827729121    0.3448768401104161 T T T Sr
   0.0000000000000000    0.3996884775523313    0.3307356393646188 T T T Ge
   0.5000000000000000    0.3996884775523313    0.4021642107931902 T T T Ge
   0.2500000000000000    0.2533925171849987    0.3455505021692856 T T T Ge
   0.7500000000000000    0.2533925171849987    0.4169790735978570 F F F Ge
   0.0000000000000000    0.2533925171849987    0.3812647878835713 T T T Ge
   0.5000000000000000    0.2533925171849987    0.3098362164549999 T T T Ge
   0.2500000000000000    0.8996884775523313    0.3664499250789045 T T T Ge
   0.7500000000000000    0.8996884775523313    0.2950213536503331 T T T Ge
   0.0000000000000000    0.7533925171849987    0.3098362164549999 T T T Ge
   0.5000000000000000    0.7533925171849987    0.3812647878835713 T T T Ge
   0.2500000000000000    0.7533925171849987    0.4169790735978570 F F F Ge
   0.7500000000000000    0.7533925171849987    0.3455505021692856 T T T Ge
   0.2500000000000000    0.1425446153047574    0.4011436590435368 T T T Pd
   0.7500000000000000    0.1425446153047574    0.3297150876149654 T T T Pd
   0.0000000000000000    0.6425446153047574    0.3654293733292511 T T T Pd
   0.5000000000000000    0.6425446153047574    0.2940008019006797 T T T Pd
   0.2500000000000000    0.4986768827729122    0.4520196972532732 F F F Sr
   0.7500000000000000    0.4986768827729122    0.5234482686818447 F F F Sr
   0.0000000000000000    0.9986768827729121    0.5591625543961303 F F F Sr
   0.5000000000000000    0.9986768827729121    0.4877339829675589 F F F Sr
   0.0000000000000000    0.3996884775523313    0.4735927822217617 F F F Ge
   0.5000000000000000    0.3996884775523313    0.5450213536503330 F F F Ge
   0.2500000000000000    0.2533925171849987    0.4884076450264284 F F F Ge
   0.7500000000000000    0.2533925171849987    0.5598362164549998 F F F Ge
   0.0000000000000000    0.2533925171849987    0.5241219307407141 F F F Ge
   0.5000000000000000    0.2533925171849987    0.4526933593121427 F F F Ge
   0.2500000000000000    0.8996884775523313    0.5093070679360474 F F F Ge
   0.7500000000000000    0.8996884775523313    0.4378784965074759 F F F Ge
   0.0000000000000000    0.7533925171849987    0.4526933593121427 F F F Ge
   0.5000000000000000    0.7533925171849987    0.5241219307407141 F F F Ge
   0.2500000000000000    0.7533925171849987    0.5598362164549998 F F F Ge
   0.7500000000000000    0.7533925171849987    0.4884076450264284 F F F Ge
   0.2500000000000000    0.1425446153047574    0.5440008019006797 F F F Pd
   0.7500000000000000    0.1425446153047574    0.4725722304721082 F F F Pd
   0.0000000000000000    0.6425446153047574    0.5082865161863939 F F F Pd
   0.5000000000000000    0.6425446153047574    0.4368579447578225 F F F Pd
   0.2500000000000000    0.4986768827729122    0.5948768401104161 T T T Sr
   0.7500000000000000    0.4986768827729122    0.6663054115389875 T T T Sr
   0.0000000000000000    0.9986768827729121    0.7020196972532732 T T T Sr
   0.5000000000000000    0.9986768827729121    0.6305911258247018 T T T Sr
   0.0000000000000000    0.3996884775523313    0.6164499250789045 T T T Ge
   0.5000000000000000    0.3996884775523313    0.6878784965074759 T T T Ge
   0.2500000000000000    0.2533925171849987    0.6312647878835713 T T T Ge
   0.7500000000000000    0.2533925171849987    0.7026933593121427 T T T Ge
   0.0000000000000000    0.2533925171849987    0.6669790735978569 T T T Ge
   0.5000000000000000    0.2533925171849987    0.5955505021692855 T T T Ge
   0.2500000000000000    0.8996884775523313    0.6521642107931902 T T T Ge
   0.7500000000000000    0.8996884775523313    0.5807356393646188 F F F Ge
   0.0000000000000000    0.7533925171849987    0.5955505021692855 T T T Ge
   0.5000000000000000    0.7533925171849987    0.6669790735978569 T T T Ge
   0.2500000000000000    0.7533925171849987    0.7026933593121427 T T T Ge
   0.7500000000000000    0.7533925171849987    0.6312647878835713 T T T Ge
   0.2500000000000000    0.1425446153047574    0.6868579447578225 T T T Pd
   0.7500000000000000    0.1425446153047574    0.6154293733292511 T T T Pd
   0.0000000000000000    0.6425446153047574    0.6511436590435368 T T T Pd
   0.5000000000000000    0.6425446153047574    0.5797150876149654 F F F Pd
