Mn36 Fe36 As36
1.0
  11.0528105631938427    0.0000000000000000  -12.7626863079238007
   0.0000000000000040    6.6659100973162451   -6.3813431539618994
   0.0000000000000000    0.0000000000000000   51.0507452316952097
Mn Fe As Mn Fe As Mn Fe As
12 12 12 12 12 12 12 12 12
Selective dynamics
direct
   0.5000000000000000    0.7500000000000000    0.3944939516460469 T T T Mn
   0.0000000000000000    0.2499999999999999    0.3944939516460469 T T T Mn
   0.0000000000000000    0.7500000000000000    0.3319939516460469 T T T Mn
   0.5000000000000001    0.2499999999999999    0.3319939516460469 T T T Mn
   0.6998019711935903    0.7500000000000000    0.3943701836420409 T T T Mn
   0.1998019711935904    0.2499999999999999    0.3943701836420409 T T T Mn
   0.1998019711935904    0.7500000000000000    0.3318701836420409 T T T Mn
   0.6998019711935903    0.2499999999999999    0.3318701836420409 T T T Mn
   0.8001980288064097    0.7500000000000000    0.3569691980452457 T T T Mn
   0.3001980288064097    0.2499999999999999    0.3569691980452457 T T T Mn
   0.3001980288064097    0.7500000000000000    0.4194691980452457 T T T Mn
   0.8001980288064097    0.2499999999999999    0.4194691980452457 T T T Mn
   0.5000000000000000    0.5000000000000000    0.3207476888493373 T T T Fe
   0.0000000000000000    0.0000000000000000    0.3207476888493373 T T T Fe
   0.0000000000000000    0.4999999999999999    0.3832476888493373 T T T Fe
   0.5000000000000000    0.9999999999999999    0.3832476888493373 T T T Fe
   0.8697870223804287    0.4999999999999999    0.4268645778371052 F F F Fe
   0.3697870223804288    0.9999999999999999    0.4268645778371052 F F F Fe
   0.3697870223804288    0.4999999999999999    0.3643645778371052 T T T Fe
   0.8697870223804287    0.9999999999999999    0.3643645778371052 T T T Fe
   0.6302129776195713    0.5000000000000000    0.4294710666468909 F F F Fe
   0.1302129776195713    0.0000000000000000    0.4294710666468909 F F F Fe
   0.1302129776195713    0.4999999999999999    0.3669710666468909 T T T Fe
   0.6302129776195714    0.0000000000000000    0.3669710666468909 T T T Fe
   0.8333333333333334    0.4999999999999999    0.3715277777777778 T T T As
   0.3333333333333334    0.0000000000000000    0.3715277777777778 T T T As
   0.3333333333333334    0.4999999999999999    0.4340277777777778 F F F As
   0.8333333333333335    0.9999999999999999    0.4340277777777778 F F F As
   0.6666666666666667    0.4999999999999999    0.3923611111111112 T T T As
   0.1666666666666667    0.9999999999999999    0.3923611111111112 T T T As
   0.1666666666666667    0.4999999999999999    0.3298611111111112 T T T As
   0.6666666666666667    0.9999999999999999    0.3298611111111112 T T T As
   0.5000000000000000    0.7500000000000000    0.3194444444444445 T T T As
   0.0000000000000000    0.2500000000000000    0.3194444444444445 T T T As
   0.0000000000000000    0.7500000000000000    0.3819444444444445 T T T As
   0.5000000000000000    0.2499999999999999    0.3819444444444445 T T T As
   0.5000000000000000    0.7500000000000000    0.5194939516460468 F F F Mn
   0.0000000000000000    0.2499999999999999    0.5194939516460468 F F F Mn
   0.0000000000000000    0.7500000000000000    0.4569939516460469 F F F Mn
   0.5000000000000001    0.2499999999999999    0.4569939516460469 F F F Mn
   0.6998019711935903    0.7500000000000000    0.5193701836420408 F F F Mn
   0.1998019711935904    0.2499999999999999    0.5193701836420408 F F F Mn
   0.1998019711935904    0.7500000000000000    0.4568701836420409 F F F Mn
   0.6998019711935903    0.2499999999999999    0.4568701836420409 F F F Mn
   0.8001980288064097    0.7500000000000000    0.4819691980452457 F F F Mn
   0.3001980288064097    0.2499999999999999    0.4819691980452457 F F F Mn
   0.3001980288064097    0.7500000000000000    0.5444691980452456 F F F Mn
   0.8001980288064097    0.2499999999999999    0.5444691980452456 F F F Mn
   0.5000000000000000    0.5000000000000000    0.4457476888493373 F F F Fe
   0.0000000000000000    0.0000000000000000    0.4457476888493373 F F F Fe
   0.0000000000000000    0.4999999999999999    0.5082476888493372 F F F Fe
   0.5000000000000000    0.9999999999999999    0.5082476888493372 F F F Fe
   0.8697870223804287    0.4999999999999999    0.5518645778371052 F F F Fe
   0.3697870223804288    0.9999999999999999    0.5518645778371052 F F F Fe
   0.3697870223804288    0.4999999999999999    0.4893645778371052 F F F Fe
   0.8697870223804287    0.9999999999999999    0.4893645778371052 F F F Fe
   0.6302129776195713    0.5000000000000000    0.5544710666468908 F F F Fe
   0.1302129776195713    0.0000000000000000    0.5544710666468908 F F F Fe
   0.1302129776195713    0.4999999999999999    0.4919710666468909 F F F Fe
   0.6302129776195714    0.0000000000000000    0.4919710666468909 F F F Fe
   0.8333333333333334    0.4999999999999999    0.4965277777777778 F F F As
   0.3333333333333334    0.0000000000000000    0.4965277777777778 F F F As
   0.3333333333333334    0.4999999999999999    0.5590277777777778 F F F As
   0.8333333333333335    0.9999999999999999    0.5590277777777779 F F F As
   0.6666666666666667    0.4999999999999999    0.5173611111111112 F F F As
   0.1666666666666667    0.9999999999999999    0.5173611111111112 F F F As
   0.1666666666666667    0.4999999999999999    0.4548611111111112 F F F As
   0.6666666666666667    0.9999999999999999    0.4548611111111112 F F F As
   0.5000000000000000    0.7500000000000000    0.4444444444444445 F F F As
   0.0000000000000000    0.2500000000000000    0.4444444444444445 F F F As
   0.0000000000000000    0.7500000000000000    0.5069444444444444 F F F As
   0.5000000000000000    0.2499999999999999    0.5069444444444444 F F F As
   0.5000000000000000    0.7500000000000000    0.6444939516460468 T T T Mn
   0.0000000000000000    0.2499999999999999    0.6444939516460468 T T T Mn
   0.0000000000000000    0.7500000000000000    0.5819939516460468 T T T Mn
   0.5000000000000001    0.2499999999999999    0.5819939516460468 T T T Mn
   0.6998019711935903    0.7500000000000000    0.6443701836420408 T T T Mn
   0.1998019711935904    0.2499999999999999    0.6443701836420408 T T T Mn
   0.1998019711935904    0.7500000000000000    0.5818701836420408 T T T Mn
   0.6998019711935903    0.2499999999999999    0.5818701836420408 T T T Mn
   0.8001980288064097    0.7500000000000000    0.6069691980452456 T T T Mn
   0.3001980288064097    0.2499999999999999    0.6069691980452456 T T T Mn
   0.3001980288064097    0.7500000000000000    0.6694691980452456 T T T Mn
   0.8001980288064097    0.2499999999999999    0.6694691980452456 T T T Mn
   0.5000000000000000    0.5000000000000000    0.5707476888493372 F F F Fe
   0.0000000000000000    0.0000000000000000    0.5707476888493372 F F F Fe
   0.0000000000000000    0.4999999999999999    0.6332476888493372 T T T Fe
   0.5000000000000000    0.9999999999999999    0.6332476888493372 T T T Fe
   0.8697870223804287    0.4999999999999999    0.6768645778371052 T T T Fe
   0.3697870223804288    0.9999999999999999    0.6768645778371052 T T T Fe
   0.3697870223804288    0.4999999999999999    0.6143645778371052 T T T Fe
   0.8697870223804287    0.9999999999999999    0.6143645778371052 T T T Fe
   0.6302129776195713    0.5000000000000000    0.6794710666468908 T T T Fe
   0.1302129776195713    0.0000000000000000    0.6794710666468908 T T T Fe
   0.1302129776195713    0.4999999999999999    0.6169710666468908 T T T Fe
   0.6302129776195714    0.0000000000000000    0.6169710666468908 T T T Fe
   0.8333333333333334    0.4999999999999999    0.6215277777777778 T T T As
   0.3333333333333334    0.0000000000000000    0.6215277777777778 T T T As
   0.3333333333333334    0.4999999999999999    0.6840277777777778 T T T As
   0.8333333333333335    0.9999999999999999    0.6840277777777779 T T T As
   0.6666666666666667    0.4999999999999999    0.6423611111111112 T T T As
   0.1666666666666667    0.9999999999999999    0.6423611111111112 T T T As
   0.1666666666666667    0.4999999999999999    0.5798611111111112 T T T As
   0.6666666666666667    0.9999999999999999    0.5798611111111112 T T T As
   0.5000000000000000    0.7500000000000000    0.5694444444444444 F F F As
   0.0000000000000000    0.2500000000000000    0.5694444444444444 F F F As
   0.0000000000000000    0.7500000000000000    0.6319444444444444 T T T As
   0.5000000000000000    0.2499999999999999    0.6319444444444444 T T T As
