Y16 Ti16 Ge16
1.0
   4.0649404827486455    0.0000000000000000   -4.0649404827486446
  -0.0000000000000009   15.3494929682153938   -4.0649404827486419
   0.0000000000000000    0.0000000000000000   40.6494048274864568
Y Ti Ge Y Ti Ge Y Ti Ge Y Ti Ge
4 4 4 4 4 4 4 4 4 4 4 4
Selective dynamics
direct
   0.5000000000000000    0.1711946903490684    0.3504528023682402 T T T Y
   0.5000000000000000    0.6711946903490684    0.3004528023682402 T T T Y
   0.0000000000000000    0.3288053096509316    0.3662138642984265 T T T Y
   0.0000000000000000    0.8288053096509315    0.3162138642984265 T T T Y
   0.5000000000000000    0.0000000000000000    0.3833333333333334 T T T Ti
   0.5000000000000000    0.4999999999999999    0.3333333333333334 T T T Ti
   0.0000000000000000    0.0000000000000000    0.3833333333333334 T T T Ti
   0.0000000000000000    0.5000000000000000    0.3333333333333334 T T T Ti
   0.0000000000000000    0.1215807352017464    0.3454914068535080 T T T Ge
   0.0000000000000000    0.6215807352017464    0.3954914068535080 T T T Ge
   0.5000000000000000    0.3784192647982536    0.3711752598131587 T T T Ge
   0.5000000000000000    0.8784192647982535    0.3211752598131587 T T T Ge
   0.5000000000000000    0.1711946903490684    0.4504528023682402 F F F Y
   0.5000000000000000    0.6711946903490684    0.4004528023682402 T T T Y
   0.0000000000000000    0.3288053096509316    0.4662138642984265 F F F Y
   0.0000000000000000    0.8288053096509315    0.4162138642984265 F F F Y
   0.5000000000000000    0.0000000000000000    0.4833333333333333 F F F Ti
   0.5000000000000000    0.4999999999999999    0.4333333333333333 F F F Ti
   0.0000000000000000    0.0000000000000000    0.4833333333333333 F F F Ti
   0.0000000000000000    0.5000000000000000    0.4333333333333333 F F F Ti
   0.0000000000000000    0.1215807352017464    0.4454914068535080 F F F Ge
   0.0000000000000000    0.6215807352017464    0.4954914068535080 F F F Ge
   0.5000000000000000    0.3784192647982536    0.4711752598131587 F F F Ge
   0.5000000000000000    0.8784192647982535    0.4211752598131587 F F F Ge
   0.5000000000000000    0.1711946903490684    0.5504528023682402 F F F Y
   0.5000000000000000    0.6711946903490684    0.5004528023682402 F F F Y
   0.0000000000000000    0.3288053096509316    0.5662138642984265 F F F Y
   0.0000000000000000    0.8288053096509315    0.5162138642984265 F F F Y
   0.5000000000000000    0.0000000000000000    0.5833333333333334 F F F Ti
   0.5000000000000000    0.4999999999999999    0.5333333333333333 F F F Ti
   0.0000000000000000    0.0000000000000000    0.5833333333333334 F F F Ti
   0.0000000000000000    0.5000000000000000    0.5333333333333333 F F F Ti
   0.0000000000000000    0.1215807352017464    0.5454914068535079 F F F Ge
   0.0000000000000000    0.6215807352017464    0.5954914068535080 T T T Ge
   0.5000000000000000    0.3784192647982536    0.5711752598131588 F F F Ge
   0.5000000000000000    0.8784192647982535    0.5211752598131587 F F F Ge
   0.5000000000000000    0.1711946903490684    0.6504528023682401 T T T Y
   0.5000000000000000    0.6711946903490684    0.6004528023682402 T T T Y
   0.0000000000000000    0.3288053096509316    0.6662138642984266 T T T Y
   0.0000000000000000    0.8288053096509315    0.6162138642984265 T T T Y
   0.5000000000000000    0.0000000000000000    0.6833333333333333 T T T Ti
   0.5000000000000000    0.4999999999999999    0.6333333333333333 T T T Ti
   0.0000000000000000    0.0000000000000000    0.6833333333333333 T T T Ti
   0.0000000000000000    0.5000000000000000    0.6333333333333333 T T T Ti
   0.0000000000000000    0.1215807352017464    0.6454914068535080 T T T Ge
   0.0000000000000000    0.6215807352017464    0.6954914068535080 T T T Ge
   0.5000000000000000    0.3784192647982536    0.6711752598131587 T T T Ge
   0.5000000000000000    0.8784192647982535    0.6211752598131587 T T T Ge
