Sr8 Si24 Ni8
1.0
   9.8242361467667259    0.0000000000000000    0.0000000000000006
   0.0000000000000007    4.1997329125323155   -4.1997329125323146
   0.0000000000000000    0.0000000000000000   41.9973291253231551
Sr Si Ni Sr Si Ni Sr Si Ni Sr Si Ni
2 6 2 2 6 2 2 6 2 2 6 2
Selective dynamics
direct
   0.9010551376477132    0.5000000000000000    0.3700000000000001 T T T Sr
   0.4010551376477132    0.0000000000000000    0.3700000000000001 T T T Sr
   0.9977016405027258    0.0000000000000000    0.3700000000000001 T T T Si
   0.6498632570521075    0.0000000000000000    0.3200000000000001 T T T Si
   0.6498632570521075    0.5000000000000000    0.3200000000000001 T T T Si
   0.4977016405027258    0.5000000000000000    0.3700000000000001 T T T Si
   0.1498632570521076    0.5000000000000000    0.3200000000000001 T T T Si
   0.1498632570521076    0.0000000000000000    0.3200000000000001 T T T Si
   0.7558177277453382    0.0000000000000000    0.3700000000000001 T T T Ni
   0.2558177277453383    0.5000000000000000    0.3700000000000001 T T T Ni
   0.9010551376477132    0.5000000000000000    0.4700000000000000 F F F Sr
   0.4010551376477132    0.0000000000000000    0.4700000000000000 F F F Sr
   0.9977016405027258    0.0000000000000000    0.4700000000000000 F F F Si
   0.6498632570521075    0.0000000000000000    0.4200000000000000 T T T Si
   0.6498632570521075    0.5000000000000000    0.4200000000000000 T T T Si
   0.4977016405027258    0.5000000000000000    0.4700000000000000 F F F Si
   0.1498632570521076    0.5000000000000000    0.4200000000000000 T T T Si
   0.1498632570521076    0.0000000000000000    0.4200000000000000 T T T Si
   0.7558177277453382    0.0000000000000000    0.4700000000000000 F F F Ni
   0.2558177277453383    0.5000000000000000    0.4700000000000000 F F F Ni
   0.9010551376477132    0.5000000000000000    0.5700000000000001 T T T Sr
   0.4010551376477132    0.0000000000000000    0.5700000000000001 T T T Sr
   0.9977016405027258    0.0000000000000000    0.5700000000000001 T T T Si
   0.6498632570521075    0.0000000000000000    0.5200000000000000 F F F Si
   0.6498632570521075    0.5000000000000000    0.5200000000000000 F F F Si
   0.4977016405027258    0.5000000000000000    0.5700000000000001 T T T Si
   0.1498632570521076    0.5000000000000000    0.5200000000000000 F F F Si
   0.1498632570521076    0.0000000000000000    0.5200000000000000 F F F Si
   0.7558177277453382    0.0000000000000000    0.5700000000000001 T T T Ni
   0.2558177277453383    0.5000000000000000    0.5700000000000001 T T T Ni
   0.9010551376477132    0.5000000000000000    0.6700000000000000 T T T Sr
   0.4010551376477132    0.0000000000000000    0.6700000000000000 T T T Sr
   0.9977016405027258    0.0000000000000000    0.6700000000000000 T T T Si
   0.6498632570521075    0.0000000000000000    0.6200000000000001 T T T Si
   0.6498632570521075    0.5000000000000000    0.6200000000000001 T T T Si
   0.4977016405027258    0.5000000000000000    0.6700000000000000 T T T Si
   0.1498632570521076    0.5000000000000000    0.6200000000000001 T T T Si
   0.1498632570521076    0.0000000000000000    0.6200000000000001 T T T Si
   0.7558177277453382    0.0000000000000000    0.6700000000000000 T T T Ni
   0.2558177277453383    0.5000000000000000    0.6700000000000000 T T T Ni
