Y16 Ge16 Au16
1.0
   7.3553045684537084    0.0000000000000000    0.0000000000000005
   0.0000000000000012    7.7435667022468655   -8.9415006400601023
   0.0000000000000000    0.0000000000000000   44.7075032003005077
Y Ge Au Y Ge Au Y Ge Au Y Ge Au
4 4 4 4 4 4 4 4 4 4 4 4
Selective dynamics
direct
   0.9661355547979937    0.4999999999999999    0.3250000000000000 T T T Y
   0.9661355547979937    0.0000000000000000    0.3749999999999999 T T T Y
   0.4661355547979937    0.4999999999999999    0.3250000000000000 T T T Y
   0.4661355547979937    0.0000000000000000    0.3749999999999999 T T T Y
   0.1740863943387083    0.1666666666666667    0.3583333333333333 T T T Ge
   0.1740863943387083    0.6666666666666667    0.3083333333333333 T T T Ge
   0.6740863943387083    0.3333333333333334    0.3416666666666666 T T T Ge
   0.6740863943387083    0.8333333333333335    0.3916666666666666 T T T Ge
   0.2506780508632929    0.3333333333333334    0.3416666666666666 T T T Au
   0.2506780508632929    0.8333333333333335    0.3916666666666666 T T T Au
   0.7506780508632929    0.1666666666666667    0.3583333333333333 T T T Au
   0.7506780508632929    0.6666666666666667    0.3083333333333333 T T T Au
   0.9661355547979937    0.4999999999999999    0.4249999999999999 F F F Y
   0.9661355547979937    0.0000000000000000    0.4750000000000000 F F F Y
   0.4661355547979937    0.4999999999999999    0.4249999999999999 F F F Y
   0.4661355547979937    0.0000000000000000    0.4750000000000000 F F F Y
   0.1740863943387083    0.1666666666666667    0.4583333333333333 F F F Ge
   0.1740863943387083    0.6666666666666667    0.4083333333333333 T T T Ge
   0.6740863943387083    0.3333333333333334    0.4416666666666666 F F F Ge
   0.6740863943387083    0.8333333333333335    0.4916666666666666 F F F Ge
   0.2506780508632929    0.3333333333333334    0.4416666666666666 F F F Au
   0.2506780508632929    0.8333333333333335    0.4916666666666666 F F F Au
   0.7506780508632929    0.1666666666666667    0.4583333333333333 F F F Au
   0.7506780508632929    0.6666666666666667    0.4083333333333333 T T T Au
   0.9661355547979937    0.4999999999999999    0.5249999999999999 F F F Y
   0.9661355547979937    0.0000000000000000    0.5750000000000000 F F F Y
   0.4661355547979937    0.4999999999999999    0.5249999999999999 F F F Y
   0.4661355547979937    0.0000000000000000    0.5750000000000000 F F F Y
   0.1740863943387083    0.1666666666666667    0.5583333333333333 F F F Ge
   0.1740863943387083    0.6666666666666667    0.5083333333333333 F F F Ge
   0.6740863943387083    0.3333333333333334    0.5416666666666666 F F F Ge
   0.6740863943387083    0.8333333333333335    0.5916666666666666 T T T Ge
   0.2506780508632929    0.3333333333333334    0.5416666666666666 F F F Au
   0.2506780508632929    0.8333333333333335    0.5916666666666666 T T T Au
   0.7506780508632929    0.1666666666666667    0.5583333333333333 F F F Au
   0.7506780508632929    0.6666666666666667    0.5083333333333333 F F F Au
   0.9661355547979937    0.4999999999999999    0.6250000000000000 T T T Y
   0.9661355547979937    0.0000000000000000    0.6749999999999999 T T T Y
   0.4661355547979937    0.4999999999999999    0.6250000000000000 T T T Y
   0.4661355547979937    0.0000000000000000    0.6749999999999999 T T T Y
   0.1740863943387083    0.1666666666666667    0.6583333333333332 T T T Ge
   0.1740863943387083    0.6666666666666667    0.6083333333333333 T T T Ge
   0.6740863943387083    0.3333333333333334    0.6416666666666666 T T T Ge
   0.6740863943387083    0.8333333333333335    0.6916666666666667 T T T Ge
   0.2506780508632929    0.3333333333333334    0.6416666666666666 T T T Au
   0.2506780508632929    0.8333333333333335    0.6916666666666667 T T T Au
   0.7506780508632929    0.1666666666666667    0.6583333333333332 T T T Au
   0.7506780508632929    0.6666666666666667    0.6083333333333333 T T T Au
