Y18 In18 Cu18
1.0
   3.9754339012580093    0.0000000000000000    0.0000000000000002
   0.0000000000000021   12.9456391089113954  -14.9483364487234862
   0.0000000000000000    0.0000000000000000   52.3191775705321973
Y In Cu Y In Cu Y In Cu
6 6 6 6 6 6 6 6 6
Selective dynamics
direct
   0.5000000000000000    0.5000000000000001    0.3898770379407621 F F F Y
   0.5000000000000000    0.0000000000000000    0.3184484665121906 T T T Y
   0.5000000000000000    0.2951251883482229    0.4191448681767302 F F F Y
   0.5000000000000000    0.7951251883482229    0.3477162967481588 T T T Y
   0.5000000000000000    0.2048748116517772    0.3219304748348886 T T T Y
   0.5000000000000000    0.7048748116517771    0.3933590462634600 F F F Y
   0.0000000000000000    0.5000000000000000    0.3419421966455001 T T T In
   0.0000000000000000    0.0000000000000000    0.4133707680740715 F F F In
   0.0000000000000000    0.1273532438148060    0.3951774475290992 F F F In
   0.0000000000000000    0.6273532438148059    0.3237488761005278 T T T In
   0.0000000000000000    0.3726467561851941    0.3938327367777815 F F F In
   0.0000000000000000    0.8726467561851941    0.3224041653492101 T T T In
   0.0000000000000000    0.1666666666666667    0.3531746031746031 T T T Cu
   0.0000000000000000    0.6666666666666667    0.2817460317460317 T T T Cu
   0.0000000000000000    0.3333333333333333    0.3293650793650794 T T T Cu
   0.0000000000000000    0.8333333333333334    0.4007936507936507 F F F Cu
   0.5000000000000000    0.5000000000000000    0.3055555555555555 T T T Cu
   0.5000000000000000    0.0000000000000000    0.3769841269841270 F F F Cu
   0.5000000000000000    0.5000000000000001    0.5327341807979049 F F F Y
   0.5000000000000000    0.0000000000000000    0.4613056093693335 F F F Y
   0.5000000000000000    0.2951251883482229    0.5620020110338730 F F F Y
   0.5000000000000000    0.7951251883482229    0.4905734396053016 F F F Y
   0.5000000000000000    0.2048748116517772    0.4647876176920314 F F F Y
   0.5000000000000000    0.7048748116517771    0.5362161891206029 F F F Y
   0.0000000000000000    0.5000000000000000    0.4847993395026429 F F F In
   0.0000000000000000    0.0000000000000000    0.5562279109312144 F F F In
   0.0000000000000000    0.1273532438148060    0.5380345903862420 F F F In
   0.0000000000000000    0.6273532438148059    0.4666060189576706 F F F In
   0.0000000000000000    0.3726467561851941    0.5366898796349244 F F F In
   0.0000000000000000    0.8726467561851941    0.4652613082063529 F F F In
   0.0000000000000000    0.1666666666666667    0.4960317460317460 F F F Cu
   0.0000000000000000    0.6666666666666667    0.4246031746031745 F F F Cu
   0.0000000000000000    0.3333333333333333    0.4722222222222222 F F F Cu
   0.0000000000000000    0.8333333333333334    0.5436507936507936 F F F Cu
   0.5000000000000000    0.5000000000000000    0.4484126984126984 F F F Cu
   0.5000000000000000    0.0000000000000000    0.5198412698412698 F F F Cu
   0.5000000000000000    0.5000000000000001    0.6755913236550478 T T T Y
   0.5000000000000000    0.0000000000000000    0.6041627522264763 F F F Y
   0.5000000000000000    0.2951251883482229    0.7048591538910159 T T T Y
   0.5000000000000000    0.7951251883482229    0.6334305824624444 T T T Y
   0.5000000000000000    0.2048748116517772    0.6076447605491743 F F F Y
   0.5000000000000000    0.7048748116517771    0.6790733319777457 T T T Y
   0.0000000000000000    0.5000000000000000    0.6276564823597858 T T T In
   0.0000000000000000    0.0000000000000000    0.6990850537883572 T T T In
   0.0000000000000000    0.1273532438148060    0.6808917332433849 T T T In
   0.0000000000000000    0.6273532438148059    0.6094631618148134 F F F In
   0.0000000000000000    0.3726467561851941    0.6795470224920672 T T T In
   0.0000000000000000    0.8726467561851941    0.6081184510634958 F F F In
   0.0000000000000000    0.1666666666666667    0.6388888888888888 T T T Cu
   0.0000000000000000    0.6666666666666667    0.5674603174603174 F F F Cu
   0.0000000000000000    0.3333333333333333    0.6150793650793651 F F F Cu
   0.0000000000000000    0.8333333333333334    0.6865079365079364 T T T Cu
   0.5000000000000000    0.5000000000000000    0.5912698412698412 F F F Cu
   0.5000000000000000    0.0000000000000000    0.6626984126984127 T T T Cu
