Cd4 In8 Te16
1.0
   6.4156495631043207    0.0000000000000000    0.0000000000000004
   0.0000000000000020   12.6979346375979798   -6.4156495631043207
   0.0000000000000000    0.0000000000000000   32.0782478155216069
Cd In Te Cd In Te
2 4 8 2 4 8
Selective dynamics
direct
   0.0000000000000000    0.0000000000000000    0.3071428571428572 T T T Cd
   0.5000000000000000    0.5000000000000000    0.3071428571428572 T T T Cd
   0.5000000000000000    0.0000000000000000    0.4071428571428571 T T T In
   0.0000000000000000    0.2500000000000000    0.4571428571428571 F F F In
   0.0000000000000000    0.5000000000000000    0.4071428571428571 T T T In
   0.5000000000000000    0.7500000000000000    0.4571428571428571 F F F In
   0.2738958481627876    0.1365614993928546    0.4883168720617074 F F F Te
   0.7306914247986036    0.3634385006071454    0.3346097268968438 T T T Te
   0.2693085752013964    0.3634385006071454    0.4250513876317287 F F F Te
   0.7261041518372124    0.1365614993928546    0.3805934419811488 T T T Te
   0.7738958481627877    0.6365614993928546    0.4883168720617073 F F F Te
   0.2306914247986036    0.8634385006071453    0.3346097268968438 T T T Te
   0.7693085752013964    0.8634385006071454    0.4250513876317287 F F F Te
   0.2261041518372124    0.6365614993928546    0.3805934419811488 T T T Te
   0.0000000000000000    0.0000000000000000    0.5071428571428571 F F F Cd
   0.5000000000000000    0.5000000000000000    0.5071428571428571 F F F Cd
   0.5000000000000000    0.0000000000000000    0.6071428571428572 T T T In
   0.0000000000000000    0.2500000000000000    0.6571428571428571 T T T In
   0.0000000000000000    0.5000000000000000    0.6071428571428572 T T T In
   0.5000000000000000    0.7500000000000000    0.6571428571428571 T T T In
   0.2738958481627876    0.1365614993928546    0.6883168720617073 T T T Te
   0.7306914247986036    0.3634385006071454    0.5346097268968438 F F F Te
   0.2693085752013964    0.3634385006071454    0.6250513876317287 T T T Te
   0.7261041518372124    0.1365614993928546    0.5805934419811488 F F F Te
   0.7738958481627877    0.6365614993928546    0.6883168720617073 T T T Te
   0.2306914247986036    0.8634385006071453    0.5346097268968437 F F F Te
   0.7693085752013964    0.8634385006071454    0.6250513876317287 T T T Te
   0.2261041518372124    0.6365614993928546    0.5805934419811488 F F F Te
