Cd6 In12 Te24
1.0
  12.6979346375979798    0.0000000000000000    0.0000000000000008
   0.0000000000000010    6.4156495631043198   -6.4156495631043189
   0.0000000000000000    0.0000000000000000   44.9095469417302411
Cd In Te Cd In Te Cd In Te
2 4 8 2 4 8 2 4 8
Selective dynamics
direct
   0.0000000000000000    0.0000000000000000    0.4081632653061224 F F F Cd
   0.5000000000000000    0.5000000000000000    0.4081632653061224 F F F Cd
   0.0000000000000000    0.5000000000000000    0.4081632653061224 F F F In
   0.7500000000000000    0.0000000000000000    0.3367346938775510 T T T In
   0.5000000000000000    0.0000000000000000    0.4081632653061224 F F F In
   0.2500000000000000    0.5000000000000000    0.3367346938775510 T T T In
   0.8634385006071454    0.7261041518372124    0.4019912048255247 F F F Te
   0.6365614993928546    0.2693085752013964    0.3360793691687808 T T T Te
   0.6365614993928546    0.7306914247986036    0.3373900185863211 T T T Te
   0.8634385006071454    0.2738958481627876    0.2714781829295773 T T T Te
   0.3634385006071456    0.2261041518372123    0.4019912048255247 F F F Te
   0.1365614993928547    0.7693085752013964    0.3360793691687808 T T T Te
   0.1365614993928546    0.2306914247986036    0.3373900185863211 T T T Te
   0.3634385006071454    0.7738958481627876    0.2714781829295773 T T T Te
   0.0000000000000000    0.0000000000000000    0.5510204081632653 F F F Cd
   0.5000000000000000    0.5000000000000000    0.5510204081632653 F F F Cd
   0.0000000000000000    0.5000000000000000    0.5510204081632653 F F F In
   0.7500000000000000    0.0000000000000000    0.4795918367346939 F F F In
   0.5000000000000000    0.0000000000000000    0.5510204081632653 F F F In
   0.2500000000000000    0.5000000000000000    0.4795918367346939 F F F In
   0.8634385006071454    0.7261041518372124    0.5448483476826675 F F F Te
   0.6365614993928546    0.2693085752013964    0.4789365120259237 F F F Te
   0.6365614993928546    0.7306914247986036    0.4802471614434640 F F F Te
   0.8634385006071454    0.2738958481627876    0.4143353257867201 F F F Te
   0.3634385006071456    0.2261041518372123    0.5448483476826675 F F F Te
   0.1365614993928547    0.7693085752013964    0.4789365120259237 F F F Te
   0.1365614993928546    0.2306914247986036    0.4802471614434640 F F F Te
   0.3634385006071454    0.7738958481627876    0.4143353257867201 F F F Te
   0.0000000000000000    0.0000000000000000    0.6938775510204080 T T T Cd
   0.5000000000000000    0.5000000000000000    0.6938775510204080 T T T Cd
   0.0000000000000000    0.5000000000000000    0.6938775510204080 T T T In
   0.7500000000000000    0.0000000000000000    0.6224489795918366 T T T In
   0.5000000000000000    0.0000000000000000    0.6938775510204080 T T T In
   0.2500000000000000    0.5000000000000000    0.6224489795918366 T T T In
   0.8634385006071454    0.7261041518372124    0.6877054905398103 T T T Te
   0.6365614993928546    0.2693085752013964    0.6217936548830665 T T T Te
   0.6365614993928546    0.7306914247986036    0.6231043043006068 T T T Te
   0.8634385006071454    0.2738958481627876    0.5571924686438630 F F F Te
   0.3634385006071456    0.2261041518372123    0.6877054905398103 T T T Te
   0.1365614993928547    0.7693085752013964    0.6217936548830665 T T T Te
   0.1365614993928546    0.2306914247986036    0.6231043043006068 T T T Te
   0.3634385006071454    0.7738958481627876    0.5571924686438630 F F F Te
