Hf10 Si20 Ni20
1.0
   3.7541489945317963    0.0000000000000000   -3.7541489945317958
   0.0000000000000059    9.6820710058927677   -7.5082979890635890
   0.0000000000000000    0.0000000000000000   45.0497879343815555
Hf Si Ni Hf Si Ni Hf Si Ni Hf Si Ni Hf Si Ni
2 4 4 2 4 4 2 4 4 2 4 4 2 4 4
Selective dynamics
direct
   0.0000000000000000    0.0000000000000000    0.3500000000000000 T T T Hf
   0.5000000000000000    0.5000000000000000    0.3500000000000000 T T T Hf
   0.0000000000000000    0.3810913464303097    0.3301818910717182 T T T Si
   0.5000000000000000    0.1189086535696903    0.2864847755949484 T T T Si
   0.5000000000000000    0.8810913464303096    0.3301818910717182 T T T Si
   0.0000000000000000    0.6189086535696904    0.2864847755949484 T T T Si
   0.5000000000000000    0.2500000000000000    0.3500000000000000 T T T Ni
   0.0000000000000000    0.2500000000000000    0.3500000000000000 T T T Ni
   0.0000000000000000    0.7500000000000000    0.3500000000000000 T T T Ni
   0.5000000000000000    0.7500000000000000    0.3500000000000000 T T T Ni
   0.0000000000000000    0.0000000000000000    0.4333333333333333 F F F Hf
   0.5000000000000000    0.5000000000000000    0.4333333333333333 F F F Hf
   0.0000000000000000    0.3810913464303097    0.4135152244050516 F F F Si
   0.5000000000000000    0.1189086535696903    0.3698181089282817 T T T Si
   0.5000000000000000    0.8810913464303096    0.4135152244050516 F F F Si
   0.0000000000000000    0.6189086535696904    0.3698181089282817 T T T Si
   0.5000000000000000    0.2500000000000000    0.4333333333333333 F F F Ni
   0.0000000000000000    0.2500000000000000    0.4333333333333333 F F F Ni
   0.0000000000000000    0.7500000000000000    0.4333333333333333 F F F Ni
   0.5000000000000000    0.7500000000000000    0.4333333333333333 F F F Ni
   0.0000000000000000    0.0000000000000000    0.5166666666666666 F F F Hf
   0.5000000000000000    0.5000000000000000    0.5166666666666666 F F F Hf
   0.0000000000000000    0.3810913464303097    0.4968485577383849 F F F Si
   0.5000000000000000    0.1189086535696903    0.4531514422616151 F F F Si
   0.5000000000000000    0.8810913464303096    0.4968485577383849 F F F Si
   0.0000000000000000    0.6189086535696904    0.4531514422616151 F F F Si
   0.5000000000000000    0.2500000000000000    0.5166666666666666 F F F Ni
   0.0000000000000000    0.2500000000000000    0.5166666666666666 F F F Ni
   0.0000000000000000    0.7500000000000000    0.5166666666666666 F F F Ni
   0.5000000000000000    0.7500000000000000    0.5166666666666666 F F F Ni
   0.0000000000000000    0.0000000000000000    0.6000000000000000 T T T Hf
   0.5000000000000000    0.5000000000000000    0.6000000000000000 T T T Hf
   0.0000000000000000    0.3810913464303097    0.5801818910717182 T T T Si
   0.5000000000000000    0.1189086535696903    0.5364847755949484 F F F Si
   0.5000000000000000    0.8810913464303096    0.5801818910717182 T T T Si
   0.0000000000000000    0.6189086535696904    0.5364847755949484 F F F Si
   0.5000000000000000    0.2500000000000000    0.6000000000000000 T T T Ni
   0.0000000000000000    0.2500000000000000    0.6000000000000000 T T T Ni
   0.0000000000000000    0.7500000000000000    0.6000000000000000 T T T Ni
   0.5000000000000000    0.7500000000000000    0.6000000000000000 T T T Ni
   0.0000000000000000    0.0000000000000000    0.6833333333333333 T T T Hf
   0.5000000000000000    0.5000000000000000    0.6833333333333333 T T T Hf
   0.0000000000000000    0.3810913464303097    0.6635152244050516 T T T Si
   0.5000000000000000    0.1189086535696903    0.6198181089282817 T T T Si
   0.5000000000000000    0.8810913464303096    0.6635152244050515 T T T Si
   0.0000000000000000    0.6189086535696904    0.6198181089282817 T T T Si
   0.5000000000000000    0.2500000000000000    0.6833333333333333 T T T Ni
   0.0000000000000000    0.2500000000000000    0.6833333333333333 T T T Ni
   0.0000000000000000    0.7500000000000000    0.6833333333333333 T T T Ni
   0.5000000000000000    0.7500000000000000    0.6833333333333333 T T T Ni
