Hf32 Si64 Ni64
1.0
   7.5082979890635926    0.0000000000000000   -3.7541489945317963
  -0.0000000000000012   19.3641420117855247   -3.7541489945317994
   0.0000000000000000    0.0000000000000000   33.7873409507861666
Hf Si Ni Hf Si Ni Hf Si Ni Hf Si Ni
8 16 16 8 16 16 8 16 16 8 16 16
Selective dynamics
direct
   0.5000000000000000    0.5000000000000000    0.3722222222222223 T T T Hf
   0.0000000000000000    0.0000000000000000    0.3722222222222223 T T T Hf
   0.0000000000000000    0.5000000000000000    0.3166666666666667 T T T Hf
   0.5000000000000000    0.0000000000000000    0.3166666666666667 T T T Hf
   0.7500000000000000    0.7499999999999999    0.3722222222222222 T T T Hf
   0.2500000000000000    0.2500000000000000    0.3722222222222223 T T T Hf
   0.2500000000000000    0.7499999999999999    0.3166666666666667 T T T Hf
   0.7500000000000000    0.2500000000000000    0.3166666666666667 T T T Hf
   0.5000000000000000    0.6905456732151548    0.2822828525794617 T T T Si
   0.0000000000000000    0.1905456732151548    0.2822828525794617 T T T Si
   0.0000000000000000    0.6905456732151548    0.3378384081350173 T T T Si
   0.5000000000000000    0.1905456732151548    0.3378384081350173 T T T Si
   0.7500000000000000    0.5594543267848451    0.3510504807538717 T T T Si
   0.2500000000000000    0.0594543267848452    0.3510504807538717 T T T Si
   0.2500000000000000    0.5594543267848452    0.2954949251983162 T T T Si
   0.7500000000000000    0.0594543267848452    0.2954949251983162 T T T Si
   0.7500000000000000    0.9405456732151548    0.2822828525794617 T T T Si
   0.2500000000000000    0.4405456732151548    0.2822828525794617 T T T Si
   0.2500000000000000    0.9405456732151548    0.3378384081350173 T T T Si
   0.7500000000000000    0.4405456732151548    0.3378384081350173 T T T Si
   0.5000000000000000    0.8094543267848452    0.2954949251983162 T T T Si
   0.0000000000000000    0.3094543267848452    0.2954949251983162 T T T Si
   0.0000000000000000    0.8094543267848452    0.3510504807538717 T T T Si
   0.5000000000000000    0.3094543267848452    0.3510504807538717 T T T Si
   0.7500000000000000    0.6250000000000000    0.3027777777777778 T T T Ni
   0.2500000000000000    0.1250000000000000    0.3027777777777778 T T T Ni
   0.2500000000000000    0.6250000000000000    0.3583333333333334 T T T Ni
   0.7500000000000000    0.1250000000000000    0.3583333333333334 T T T Ni
   0.5000000000000000    0.6250000000000000    0.3305555555555556 T T T Ni
   0.0000000000000000    0.1250000000000000    0.3305555555555556 T T T Ni
   0.0000000000000000    0.6250000000000000    0.3861111111111112 F F F Ni
   0.5000000000000000    0.1250000000000000    0.3861111111111112 F F F Ni
   0.5000000000000000    0.8750000000000000    0.3583333333333334 T T T Ni
   0.0000000000000000    0.3750000000000000    0.3583333333333334 T T T Ni
   0.0000000000000000    0.8750000000000000    0.3027777777777778 T T T Ni
   0.5000000000000000    0.3750000000000000    0.3027777777777778 T T T Ni
   0.7500000000000000    0.8750000000000000    0.3305555555555556 T T T Ni
   0.2500000000000000    0.3750000000000000    0.3305555555555556 T T T Ni
   0.2500000000000000    0.8750000000000000    0.3861111111111112 F F F Ni
   0.7500000000000000    0.3750000000000000    0.3861111111111112 F F F Ni
   0.5000000000000000    0.5000000000000000    0.4833333333333334 F F F Hf
   0.0000000000000000    0.0000000000000000    0.4833333333333334 F F F Hf
   0.0000000000000000    0.5000000000000000    0.4277777777777778 F F F Hf
   0.5000000000000000    0.0000000000000000    0.4277777777777778 F F F Hf
   0.7500000000000000    0.7499999999999999    0.4833333333333334 F F F Hf
   0.2500000000000000    0.2500000000000000    0.4833333333333334 F F F Hf
   0.2500000000000000    0.7499999999999999    0.4277777777777778 F F F Hf
   0.7500000000000000    0.2500000000000000    0.4277777777777778 F F F Hf
   0.5000000000000000    0.6905456732151548    0.3933939636905728 F F F Si
   0.0000000000000000    0.1905456732151548    0.3933939636905728 F F F Si
   0.0000000000000000    0.6905456732151548    0.4489495192461284 F F F Si
   0.5000000000000000    0.1905456732151548    0.4489495192461284 F F F Si
   0.7500000000000000    0.5594543267848451    0.4621615918649828 F F F Si
   0.2500000000000000    0.0594543267848452    0.4621615918649828 F F F Si
   0.2500000000000000    0.5594543267848452    0.4066060363094273 F F F Si
   0.7500000000000000    0.0594543267848452    0.4066060363094273 F F F Si
   0.7500000000000000    0.9405456732151548    0.3933939636905728 F F F Si
   0.2500000000000000    0.4405456732151548    0.3933939636905728 F F F Si
   0.2500000000000000    0.9405456732151548    0.4489495192461284 F F F Si
   0.7500000000000000    0.4405456732151548    0.4489495192461284 F F F Si
   0.5000000000000000    0.8094543267848452    0.4066060363094273 F F F Si
   0.0000000000000000    0.3094543267848452    0.4066060363094273 F F F Si
   0.0000000000000000    0.8094543267848452    0.4621615918649828 F F F Si
   0.5000000000000000    0.3094543267848452    0.4621615918649828 F F F Si
   0.7500000000000000    0.6250000000000000    0.4138888888888890 F F F Ni
   0.2500000000000000    0.1250000000000000    0.4138888888888889 F F F Ni
   0.2500000000000000    0.6250000000000000    0.4694444444444445 F F F Ni
   0.7500000000000000    0.1250000000000000    0.4694444444444445 F F F Ni
   0.5000000000000000    0.6250000000000000    0.4416666666666667 F F F Ni
   0.0000000000000000    0.1250000000000000    0.4416666666666667 F F F Ni
   0.0000000000000000    0.6250000000000000    0.4972222222222222 F F F Ni
   0.5000000000000000    0.1250000000000000    0.4972222222222222 F F F Ni
   0.5000000000000000    0.8750000000000000    0.4694444444444445 F F F Ni
   0.0000000000000000    0.3750000000000000    0.4694444444444445 F F F Ni
   0.0000000000000000    0.8750000000000000    0.4138888888888889 F F F Ni
   0.5000000000000000    0.3750000000000000    0.4138888888888889 F F F Ni
   0.7500000000000000    0.8750000000000000    0.4416666666666667 F F F Ni
   0.2500000000000000    0.3750000000000000    0.4416666666666667 F F F Ni
   0.2500000000000000    0.8750000000000000    0.4972222222222222 F F F Ni
   0.7500000000000000    0.3750000000000000    0.4972222222222222 F F F Ni
   0.5000000000000000    0.5000000000000000    0.5944444444444446 F F F Hf
   0.0000000000000000    0.0000000000000000    0.5944444444444446 F F F Hf
   0.0000000000000000    0.5000000000000000    0.5388888888888890 F F F Hf
   0.5000000000000000    0.0000000000000000    0.5388888888888890 F F F Hf
   0.7500000000000000    0.7499999999999999    0.5944444444444444 F F F Hf
   0.2500000000000000    0.2500000000000000    0.5944444444444446 F F F Hf
   0.2500000000000000    0.7499999999999999    0.5388888888888890 F F F Hf
   0.7500000000000000    0.2500000000000000    0.5388888888888890 F F F Hf
   0.5000000000000000    0.6905456732151548    0.5045050748016839 F F F Si
   0.0000000000000000    0.1905456732151548    0.5045050748016839 F F F Si
   0.0000000000000000    0.6905456732151548    0.5600606303572395 F F F Si
   0.5000000000000000    0.1905456732151548    0.5600606303572395 F F F Si
   0.7500000000000000    0.5594543267848451    0.5732727029760940 F F F Si
   0.2500000000000000    0.0594543267848452    0.5732727029760940 F F F Si
   0.2500000000000000    0.5594543267848452    0.5177171474205384 F F F Si
   0.7500000000000000    0.0594543267848452    0.5177171474205384 F F F Si
   0.7500000000000000    0.9405456732151548    0.5045050748016839 F F F Si
   0.2500000000000000    0.4405456732151548    0.5045050748016839 F F F Si
   0.2500000000000000    0.9405456732151548    0.5600606303572395 F F F Si
   0.7500000000000000    0.4405456732151548    0.5600606303572395 F F F Si
   0.5000000000000000    0.8094543267848452    0.5177171474205384 F F F Si
   0.0000000000000000    0.3094543267848452    0.5177171474205384 F F F Si
   0.0000000000000000    0.8094543267848452    0.5732727029760940 F F F Si
   0.5000000000000000    0.3094543267848452    0.5732727029760940 F F F Si
   0.7500000000000000    0.6250000000000000    0.5250000000000000 F F F Ni
   0.2500000000000000    0.1250000000000000    0.5250000000000000 F F F Ni
   0.2500000000000000    0.6250000000000000    0.5805555555555556 F F F Ni
   0.7500000000000000    0.1250000000000000    0.5805555555555556 F F F Ni
   0.5000000000000000    0.6250000000000000    0.5527777777777778 F F F Ni
   0.0000000000000000    0.1250000000000000    0.5527777777777778 F F F Ni
   0.0000000000000000    0.6250000000000000    0.6083333333333334 F F F Ni
   0.5000000000000000    0.1250000000000000    0.6083333333333334 F F F Ni
   0.5000000000000000    0.8750000000000000    0.5805555555555556 F F F Ni
   0.0000000000000000    0.3750000000000000    0.5805555555555556 F F F Ni
   0.0000000000000000    0.8750000000000000    0.5250000000000000 F F F Ni
   0.5000000000000000    0.3750000000000000    0.5250000000000000 F F F Ni
   0.7500000000000000    0.8750000000000000    0.5527777777777778 F F F Ni
   0.2500000000000000    0.3750000000000000    0.5527777777777778 F F F Ni
   0.2500000000000000    0.8750000000000000    0.6083333333333334 F F F Ni
   0.7500000000000000    0.3750000000000000    0.6083333333333334 F F F Ni
   0.5000000000000000    0.5000000000000000    0.7055555555555556 T T T Hf
   0.0000000000000000    0.0000000000000000    0.7055555555555556 T T T Hf
   0.0000000000000000    0.5000000000000000    0.6500000000000000 T T T Hf
   0.5000000000000000    0.0000000000000000    0.6500000000000000 T T T Hf
   0.7500000000000000    0.7499999999999999    0.7055555555555556 T T T Hf
   0.2500000000000000    0.2500000000000000    0.7055555555555556 T T T Hf
   0.2500000000000000    0.7499999999999999    0.6500000000000000 T T T Hf
   0.7500000000000000    0.2500000000000000    0.6500000000000000 T T T Hf
   0.5000000000000000    0.6905456732151548    0.6156161859127950 F F F Si
   0.0000000000000000    0.1905456732151548    0.6156161859127950 F F F Si
   0.0000000000000000    0.6905456732151548    0.6711717414683506 T T T Si
   0.5000000000000000    0.1905456732151548    0.6711717414683506 T T T Si
   0.7500000000000000    0.5594543267848451    0.6843838140872051 T T T Si
   0.2500000000000000    0.0594543267848452    0.6843838140872051 T T T Si
   0.2500000000000000    0.5594543267848452    0.6288282585316495 T T T Si
   0.7500000000000000    0.0594543267848452    0.6288282585316495 T T T Si
   0.7500000000000000    0.9405456732151548    0.6156161859127951 F F F Si
   0.2500000000000000    0.4405456732151548    0.6156161859127951 F F F Si
   0.2500000000000000    0.9405456732151548    0.6711717414683506 T T T Si
   0.7500000000000000    0.4405456732151548    0.6711717414683506 T T T Si
   0.5000000000000000    0.8094543267848452    0.6288282585316495 T T T Si
   0.0000000000000000    0.3094543267848452    0.6288282585316495 T T T Si
   0.0000000000000000    0.8094543267848452    0.6843838140872051 T T T Si
   0.5000000000000000    0.3094543267848452    0.6843838140872051 T T T Si
   0.7500000000000000    0.6250000000000000    0.6361111111111111 T T T Ni
   0.2500000000000000    0.1250000000000000    0.6361111111111111 T T T Ni
   0.2500000000000000    0.6250000000000000    0.6916666666666667 T T T Ni
   0.7500000000000000    0.1250000000000000    0.6916666666666667 T T T Ni
   0.5000000000000000    0.6250000000000000    0.6638888888888890 T T T Ni
   0.0000000000000000    0.1250000000000000    0.6638888888888890 T T T Ni
   0.0000000000000000    0.6250000000000000    0.7194444444444444 T T T Ni
   0.5000000000000000    0.1250000000000000    0.7194444444444444 T T T Ni
   0.5000000000000000    0.8750000000000000    0.6916666666666667 T T T Ni
   0.0000000000000000    0.3750000000000000    0.6916666666666667 T T T Ni
   0.0000000000000000    0.8750000000000000    0.6361111111111111 T T T Ni
   0.5000000000000000    0.3750000000000000    0.6361111111111111 T T T Ni
   0.7500000000000000    0.8750000000000000    0.6638888888888890 T T T Ni
   0.2500000000000000    0.3750000000000000    0.6638888888888890 T T T Ni
   0.2500000000000000    0.8750000000000000    0.7194444444444444 T T T Ni
   0.7500000000000000    0.3750000000000000    0.7194444444444444 T T T Ni
