Ca16 In32 Pd16
1.0
  15.7838189008189165    0.0000000000000000   -4.4998517029915783
  -0.0000000000000038    5.2772934948685171   -6.7343493574611104
   0.0000000000000000    0.0000000000000000   44.9985170299157318
Ca In Pd Ca In Pd Ca In Pd Ca In Pd
4 8 4 4 8 4 4 8 4 4 8 4
Selective dynamics
direct
   0.1250000000000000    0.1313210664410677    0.3760091981321069 T T T Ca
   0.6250000000000000    0.1313210664410677    0.3260091981321068 T T T Ca
   0.3750000000000000    0.8686789335589323    0.3614908018678932 T T T Ca
   0.8750000000000000    0.8686789335589323    0.3114908018678932 T T T Ca
   0.0264200778665078    0.7102959877976147    0.3529755711250087 T T T In
   0.5264200778665078    0.7102959877976147    0.3029755711250087 T T T In
   0.4735799221334922    0.2897040122023853    0.3845244288749914 T T T In
   0.9735799221334922    0.2897040122023853    0.3345244288749915 T T T In
   0.2764200778665078    0.2897040122023853    0.3648084444482930 T T T In
   0.7764200778665078    0.2897040122023853    0.3148084444482930 T T T In
   0.2235799221334922    0.7102959877976147    0.3726915555517071 T T T In
   0.7235799221334922    0.7102959877976147    0.3226915555517071 T T T In
   0.1250000000000000    0.5659019396436020    0.3912292389064561 T T T Pd
   0.6250000000000000    0.5659019396436020    0.3412292389064561 T T T Pd
   0.3750000000000000    0.4340980603563980    0.3462707610935440 T T T Pd
   0.8750000000000000    0.4340980603563980    0.3962707610935440 T T T Pd
   0.1250000000000000    0.1313210664410677    0.4760091981321068 F F F Ca
   0.6250000000000000    0.1313210664410677    0.4260091981321069 F F F Ca
   0.3750000000000000    0.8686789335589323    0.4614908018678932 F F F Ca
   0.8750000000000000    0.8686789335589323    0.4114908018678932 T T T Ca
   0.0264200778665078    0.7102959877976147    0.4529755711250086 F F F In
   0.5264200778665078    0.7102959877976147    0.4029755711250086 T T T In
   0.4735799221334922    0.2897040122023853    0.4845244288749914 F F F In
   0.9735799221334922    0.2897040122023853    0.4345244288749914 F F F In
   0.2764200778665078    0.2897040122023853    0.4648084444482930 F F F In
   0.7764200778665078    0.2897040122023853    0.4148084444482930 F F F In
   0.2235799221334922    0.7102959877976147    0.4726915555517071 F F F In
   0.7235799221334922    0.7102959877976147    0.4226915555517071 F F F In
   0.1250000000000000    0.5659019396436020    0.4912292389064561 F F F Pd
   0.6250000000000000    0.5659019396436020    0.4412292389064561 F F F Pd
   0.3750000000000000    0.4340980603563980    0.4462707610935440 F F F Pd
   0.8750000000000000    0.4340980603563980    0.4962707610935440 F F F Pd
   0.1250000000000000    0.1313210664410677    0.5760091981321069 F F F Ca
   0.6250000000000000    0.1313210664410677    0.5260091981321069 F F F Ca
   0.3750000000000000    0.8686789335589323    0.5614908018678932 F F F Ca
   0.8750000000000000    0.8686789335589323    0.5114908018678932 F F F Ca
   0.0264200778665078    0.7102959877976147    0.5529755711250086 F F F In
   0.5264200778665078    0.7102959877976147    0.5029755711250087 F F F In
   0.4735799221334922    0.2897040122023853    0.5845244288749915 F F F In
   0.9735799221334922    0.2897040122023853    0.5345244288749914 F F F In
   0.2764200778665078    0.2897040122023853    0.5648084444482930 F F F In
   0.7764200778665078    0.2897040122023853    0.5148084444482930 F F F In
   0.2235799221334922    0.7102959877976147    0.5726915555517071 F F F In
   0.7235799221334922    0.7102959877976147    0.5226915555517071 F F F In
   0.1250000000000000    0.5659019396436020    0.5912292389064562 T T T Pd
   0.6250000000000000    0.5659019396436020    0.5412292389064561 F F F Pd
   0.3750000000000000    0.4340980603563980    0.5462707610935440 F F F Pd
   0.8750000000000000    0.4340980603563980    0.5962707610935439 T T T Pd
   0.1250000000000000    0.1313210664410677    0.6760091981321068 T T T Ca
   0.6250000000000000    0.1313210664410677    0.6260091981321068 T T T Ca
   0.3750000000000000    0.8686789335589323    0.6614908018678932 T T T Ca
   0.8750000000000000    0.8686789335589323    0.6114908018678932 T T T Ca
   0.0264200778665078    0.7102959877976147    0.6529755711250087 T T T In
   0.5264200778665078    0.7102959877976147    0.6029755711250087 T T T In
   0.4735799221334922    0.2897040122023853    0.6845244288749914 T T T In
   0.9735799221334922    0.2897040122023853    0.6345244288749914 T T T In
   0.2764200778665078    0.2897040122023853    0.6648084444482930 T T T In
   0.7764200778665078    0.2897040122023853    0.6148084444482930 T T T In
   0.2235799221334922    0.7102959877976147    0.6726915555517071 T T T In
   0.7235799221334922    0.7102959877976147    0.6226915555517071 T T T In
   0.1250000000000000    0.5659019396436020    0.6912292389064560 T T T Pd
   0.6250000000000000    0.5659019396436020    0.6412292389064560 T T T Pd
   0.3750000000000000    0.4340980603563980    0.6462707610935440 T T T Pd
   0.8750000000000000    0.4340980603563980    0.6962707610935439 T T T Pd
