Rb6 Ge24 Pt24
1.0
   8.8081851628022072    0.0000000000000000    0.0000000000000005
   0.0000000000000014    8.8081851628022072    0.0000000000000005
   0.0000000000000000    0.0000000000000000   33.6352257280638511
Rb Ge Pt Rb Ge Pt Rb Ge Pt
2 8 8 2 8 8 2 8 8
Selective dynamics
direct
   0.0000000000000000    0.0000000000000000    0.3549639194317933 T T T Rb
   0.5000000000000000    0.5000000000000000    0.2835353480032219 T T T Rb
   0.8825441458975192    0.6196010101653044    0.3976013024352576 F F F Ge
   0.1174558541024808    0.3803989898346956    0.3976013024352576 F F F Ge
   0.8803989898346956    0.3825441458975192    0.3261727310066861 T T T Ge
   0.1196010101653044    0.6174558541024808    0.3261727310066861 T T T Ge
   0.3825441458975192    0.1196010101653044    0.3261727310066861 T T T Ge
   0.6174558541024808    0.8803989898346956    0.3261727310066861 T T T Ge
   0.3803989898346956    0.8825441458975192    0.3976013024352576 F F F Ge
   0.6196010101653044    0.1174558541024808    0.3976013024352576 F F F Ge
   0.1756021046418468    0.3286219902455619    0.3261577177067942 T T T Pt
   0.8243978953581532    0.6713780097544380    0.3261577177067942 T T T Pt
   0.1713780097544380    0.6756021046418468    0.3975862891353656 F F F Pt
   0.8286219902455622    0.3243978953581531    0.3975862891353657 F F F Pt
   0.6756021046418467    0.8286219902455620    0.3975862891353656 F F F Pt
   0.3243978953581532    0.1713780097544380    0.3975862891353656 F F F Pt
   0.6713780097544380    0.1756021046418468    0.3261577177067942 T T T Pt
   0.3286219902455620    0.8243978953581532    0.3261577177067942 T T T Pt
   0.0000000000000000    0.0000000000000000    0.4978210622889362 F F F Rb
   0.5000000000000000    0.5000000000000000    0.4263924908603648 F F F Rb
   0.8825441458975192    0.6196010101653044    0.5404584452924004 F F F Ge
   0.1174558541024808    0.3803989898346956    0.5404584452924004 F F F Ge
   0.8803989898346956    0.3825441458975192    0.4690298738638290 F F F Ge
   0.1196010101653044    0.6174558541024808    0.4690298738638290 F F F Ge
   0.3825441458975192    0.1196010101653044    0.4690298738638290 F F F Ge
   0.6174558541024808    0.8803989898346956    0.4690298738638290 F F F Ge
   0.3803989898346956    0.8825441458975192    0.5404584452924004 F F F Ge
   0.6196010101653044    0.1174558541024808    0.5404584452924004 F F F Ge
   0.1756021046418468    0.3286219902455619    0.4690148605639371 F F F Pt
   0.8243978953581532    0.6713780097544380    0.4690148605639371 F F F Pt
   0.1713780097544380    0.6756021046418468    0.5404434319925085 F F F Pt
   0.8286219902455622    0.3243978953581531    0.5404434319925085 F F F Pt
   0.6756021046418467    0.8286219902455620    0.5404434319925085 F F F Pt
   0.3243978953581532    0.1713780097544380    0.5404434319925085 F F F Pt
   0.6713780097544380    0.1756021046418468    0.4690148605639371 F F F Pt
   0.3286219902455620    0.8243978953581532    0.4690148605639371 F F F Pt
   0.0000000000000000    0.0000000000000000    0.6406782051460791 T T T Rb
   0.5000000000000000    0.5000000000000000    0.5692496337175076 F F F Rb
   0.8825441458975192    0.6196010101653044    0.6833155881495433 T T T Ge
   0.1174558541024808    0.3803989898346956    0.6833155881495433 T T T Ge
   0.8803989898346956    0.3825441458975192    0.6118870167209718 T T T Ge
   0.1196010101653044    0.6174558541024808    0.6118870167209718 T T T Ge
   0.3825441458975192    0.1196010101653044    0.6118870167209718 T T T Ge
   0.6174558541024808    0.8803989898346956    0.6118870167209718 T T T Ge
   0.3803989898346956    0.8825441458975192    0.6833155881495433 T T T Ge
   0.6196010101653044    0.1174558541024808    0.6833155881495433 T T T Ge
   0.1756021046418468    0.3286219902455619    0.6118720034210799 T T T Pt
   0.8243978953581532    0.6713780097544380    0.6118720034210799 T T T Pt
   0.1713780097544380    0.6756021046418468    0.6833005748496513 T T T Pt
   0.8286219902455622    0.3243978953581531    0.6833005748496515 T T T Pt
   0.6756021046418467    0.8286219902455620    0.6833005748496513 T T T Pt
   0.3243978953581532    0.1713780097544380    0.6833005748496513 T T T Pt
   0.6713780097544380    0.1756021046418468    0.6118720034210799 T T T Pt
   0.3286219902455620    0.8243978953581532    0.6118720034210799 T T T Pt
