Zr24 Mn4 Bi8
1.0
   3.6950536352237022    0.0000000000000000    0.0000000000000002
   0.0000000000000022   13.7556155547367016  -15.8836166867924771
   0.0000000000000000    0.0000000000000000   39.7090417169811971
Zr Mn Bi Zr Mn Bi
12 2 4 12 2 4
Selective dynamics
direct
   0.5000000000000000    0.1180673122488152    0.4847245735608741 F F F Zr
   0.5000000000000000    0.6180673122488152    0.3847245735608741 T T T Zr
   0.5000000000000000    0.3819326877511848    0.4902707237618220 F F F Zr
   0.5000000000000000    0.8819326877511848    0.3902707237618219 T T T Zr
   0.5000000000000000    0.5000000000000000    0.4083380360106371 T T T Zr
   0.5000000000000000    0.0000000000000000    0.3083380360106371 T T T Zr
   0.0000000000000000    0.3046723684722465    0.3220455848055603 T T T Zr
   0.0000000000000000    0.8046723684722465    0.4220455848055604 F F F Zr
   0.0000000000000000    0.1953276315277534    0.3783076900277631 T T T Zr
   0.0000000000000000    0.6953276315277535    0.4783076900277631 F F F Zr
   0.0000000000000000    0.5000000000000000    0.4829800585000097 F F F Zr
   0.0000000000000000    0.0000000000000000    0.3829800585000097 T T T Zr
   0.0000000000000000    0.5000000000000000    0.3611111111111110 T T T Mn
   0.0000000000000000    0.0000000000000000    0.4611111111111110 F F F Mn
   0.5000000000000000    0.3333333333333334    0.3944444444444444 T T T Bi
   0.5000000000000000    0.8333333333333334    0.2944444444444444 T T T Bi
   0.5000000000000000    0.1666666666666667    0.4277777777777778 F F F Bi
   0.5000000000000000    0.6666666666666667    0.3277777777777777 T T T Bi
   0.5000000000000000    0.1180673122488152    0.6847245735608741 T T T Zr
   0.5000000000000000    0.6180673122488152    0.5847245735608742 T T T Zr
   0.5000000000000000    0.3819326877511848    0.6902707237618220 T T T Zr
   0.5000000000000000    0.8819326877511848    0.5902707237618220 T T T Zr
   0.5000000000000000    0.5000000000000000    0.6083380360106372 T T T Zr
   0.5000000000000000    0.0000000000000000    0.5083380360106371 F F F Zr
   0.0000000000000000    0.3046723684722465    0.5220455848055604 F F F Zr
   0.0000000000000000    0.8046723684722465    0.6220455848055604 T T T Zr
   0.0000000000000000    0.1953276315277534    0.5783076900277632 T T T Zr
   0.0000000000000000    0.6953276315277535    0.6783076900277631 T T T Zr
   0.0000000000000000    0.5000000000000000    0.6829800585000096 T T T Zr
   0.0000000000000000    0.0000000000000000    0.5829800585000097 T T T Zr
   0.0000000000000000    0.5000000000000000    0.5611111111111111 F F F Mn
   0.0000000000000000    0.0000000000000000    0.6611111111111111 T T T Mn
   0.5000000000000000    0.3333333333333334    0.5944444444444444 T T T Bi
   0.5000000000000000    0.8333333333333334    0.4944444444444444 F F F Bi
   0.5000000000000000    0.1666666666666667    0.6277777777777778 T T T Bi
   0.5000000000000000    0.6666666666666667    0.5277777777777777 F F F Bi
