Si12 Ni12 Pd12
1.0
   6.1542451552080237    0.0000000000000000    0.0000000000000004
   3.0771225776040088    5.3297326455274572    3.5018744572929386
   0.0000000000000000    0.0000000000000000   35.0187445729293927
Si Ni Pd Si Ni Pd Si Ni Pd Si Ni Pd
3 3 3 3 3 3 3 3 3 3 3 3
Selective dynamics
direct
   0.3333333333333334    0.3333333333333334    0.3388888888888889 T T T Si
   0.6666666666666666    0.6666666666666667    0.3055555555555556 T T T Si
   0.0000000000000000    0.0000000000000000    0.3222222222222222 T T T Si
   0.7465228056264205    0.2534771943735796    0.3468745027848643 T T T Ni
   0.0000000000000000    0.7465228056264205    0.3975699416595802 T T T Ni
   0.2534771943735795    0.0000000000000000    0.3722222222222222 T T T Ni
   0.4003099918119952    0.5996900081880050    0.3622532214034218 T T T Pd
   0.0000000000000000    0.4003099918119952    0.3821912230410227 T T T Pd
   0.5996900081880049    0.0000000000000000    0.3222222222222222 T T T Pd
   0.3333333333333334    0.3333333333333334    0.4388888888888889 F F F Si
   0.6666666666666666    0.6666666666666667    0.4055555555555556 T T T Si
   0.0000000000000000    0.0000000000000000    0.4222222222222222 F F F Si
   0.7465228056264205    0.2534771943735796    0.4468745027848643 F F F Ni
   0.0000000000000000    0.7465228056264205    0.4975699416595802 F F F Ni
   0.2534771943735795    0.0000000000000000    0.4722222222222222 F F F Ni
   0.4003099918119952    0.5996900081880050    0.4622532214034217 F F F Pd
   0.0000000000000000    0.4003099918119952    0.4821912230410227 F F F Pd
   0.5996900081880049    0.0000000000000000    0.4222222222222222 F F F Pd
   0.3333333333333334    0.3333333333333334    0.5388888888888890 F F F Si
   0.6666666666666666    0.6666666666666667    0.5055555555555555 F F F Si
   0.0000000000000000    0.0000000000000000    0.5222222222222223 F F F Si
   0.7465228056264205    0.2534771943735796    0.5468745027848643 F F F Ni
   0.0000000000000000    0.7465228056264205    0.5975699416595801 T T T Ni
   0.2534771943735795    0.0000000000000000    0.5722222222222222 F F F Ni
   0.4003099918119952    0.5996900081880050    0.5622532214034217 F F F Pd
   0.0000000000000000    0.4003099918119952    0.5821912230410227 F F F Pd
   0.5996900081880049    0.0000000000000000    0.5222222222222223 F F F Pd
   0.3333333333333334    0.3333333333333334    0.6388888888888888 T T T Si
   0.6666666666666666    0.6666666666666667    0.6055555555555556 T T T Si
   0.0000000000000000    0.0000000000000000    0.6222222222222222 T T T Si
   0.7465228056264205    0.2534771943735796    0.6468745027848642 T T T Ni
   0.0000000000000000    0.7465228056264205    0.6975699416595802 T T T Ni
   0.2534771943735795    0.0000000000000000    0.6722222222222223 T T T Ni
   0.4003099918119952    0.5996900081880050    0.6622532214034218 T T T Pd
   0.0000000000000000    0.4003099918119952    0.6821912230410228 T T T Pd
   0.5996900081880049    0.0000000000000000    0.6222222222222222 T T T Pd
