Ga12 As12 Pd60
1.0
   7.9857170280592245    0.0000000000000000   -3.9928585140296122
   0.0000000000000022   13.8877809372617964   -3.9928585140296109
   0.0000000000000000    0.0000000000000000   31.9428681122369049
Ga As Pd Ga As Pd Ga As Pd
4 4 20 4 4 20 4 4 20
Selective dynamics
direct
   0.7499999999999999    0.4999999999999999    0.3839285714285715 T T T Ga
   0.2500000000000000    0.0000000000000000    0.3839285714285715 T T T Ga
   0.2500000000000000    0.4999999999999999    0.3214285714285715 T T T Ga
   0.7499999999999999    0.0000000000000000    0.3214285714285715 T T T Ga
   0.5000000000000000    0.7500000000000000    0.3214285714285715 T T T As
   0.0000000000000000    0.2500000000000000    0.3214285714285715 T T T As
   0.0000000000000000    0.7500000000000000    0.3839285714285715 T T T As
   0.5000000000000000    0.2500000000000000    0.3839285714285715 T T T As
   0.7499999999999999    0.6396296638588836    0.3388822794109320 T T T Pd
   0.2500000000000000    0.1396296638588836    0.3388822794109320 T T T Pd
   0.2500000000000000    0.6396296638588836    0.4013822794109320 T T T Pd
   0.7499999999999999    0.1396296638588836    0.4013822794109320 T T T Pd
   0.7499999999999999    0.8603703361411164    0.3664748634462111 T T T Pd
   0.2500000000000000    0.3603703361411164    0.3664748634462111 T T T Pd
   0.2500000000000000    0.8603703361411164    0.4289748634462111 T T T Pd
   0.7499999999999999    0.3603703361411163    0.4289748634462111 T T T Pd
   0.5000000000000000    0.6396296638588836    0.3701322794109320 T T T Pd
   0.0000000000000000    0.1396296638588836    0.3701322794109320 T T T Pd
   0.0000000000000000    0.6396296638588836    0.4326322794109320 F F F Pd
   0.5000000000000000    0.1396296638588836    0.4326322794109320 F F F Pd
   0.5000000000000000    0.8603703361411164    0.3977248634462111 T T T Pd
   0.0000000000000000    0.3603703361411164    0.3977248634462111 T T T Pd
   0.0000000000000000    0.8603703361411164    0.3352248634462111 T T T Pd
   0.5000000000000000    0.3603703361411163    0.3352248634462111 T T T Pd
   0.5000000000000000    0.5000000000000000    0.4151785714285715 T T T Pd
   0.0000000000000000    0.0000000000000000    0.4151785714285715 T T T Pd
   0.0000000000000000    0.5000000000000000    0.3526785714285715 T T T Pd
   0.5000000000000000    0.0000000000000000    0.3526785714285715 T T T Pd
   0.7499999999999999    0.4999999999999999    0.5089285714285715 F F F Ga
   0.2500000000000000    0.0000000000000000    0.5089285714285715 F F F Ga
   0.2500000000000000    0.4999999999999999    0.4464285714285715 F F F Ga
   0.7499999999999999    0.0000000000000000    0.4464285714285715 F F F Ga
   0.5000000000000000    0.7500000000000000    0.4464285714285715 F F F As
   0.0000000000000000    0.2500000000000000    0.4464285714285715 F F F As
   0.0000000000000000    0.7500000000000000    0.5089285714285715 F F F As
   0.5000000000000000    0.2500000000000000    0.5089285714285715 F F F As
   0.7499999999999999    0.6396296638588836    0.4638822794109320 F F F Pd
   0.2500000000000000    0.1396296638588836    0.4638822794109320 F F F Pd
   0.2500000000000000    0.6396296638588836    0.5263822794109320 F F F Pd
   0.7499999999999999    0.1396296638588836    0.5263822794109320 F F F Pd
   0.7499999999999999    0.8603703361411164    0.4914748634462111 F F F Pd
   0.2500000000000000    0.3603703361411164    0.4914748634462111 F F F Pd
   0.2500000000000000    0.8603703361411164    0.5539748634462111 F F F Pd
   0.7499999999999999    0.3603703361411163    0.5539748634462111 F F F Pd
   0.5000000000000000    0.6396296638588836    0.4951322794109320 F F F Pd
   0.0000000000000000    0.1396296638588836    0.4951322794109320 F F F Pd
   0.0000000000000000    0.6396296638588836    0.5576322794109320 F F F Pd
   0.5000000000000000    0.1396296638588836    0.5576322794109320 F F F Pd
   0.5000000000000000    0.8603703361411164    0.5227248634462111 F F F Pd
   0.0000000000000000    0.3603703361411164    0.5227248634462111 F F F Pd
   0.0000000000000000    0.8603703361411164    0.4602248634462111 F F F Pd
   0.5000000000000000    0.3603703361411163    0.4602248634462111 F F F Pd
   0.5000000000000000    0.5000000000000000    0.5401785714285715 F F F Pd
   0.0000000000000000    0.0000000000000000    0.5401785714285715 F F F Pd
   0.0000000000000000    0.5000000000000000    0.4776785714285715 F F F Pd
   0.5000000000000000    0.0000000000000000    0.4776785714285715 F F F Pd
   0.7499999999999999    0.4999999999999999    0.6339285714285715 T T T Ga
   0.2500000000000000    0.0000000000000000    0.6339285714285715 T T T Ga
   0.2500000000000000    0.4999999999999999    0.5714285714285715 F F F Ga
   0.7499999999999999    0.0000000000000000    0.5714285714285715 F F F Ga
   0.5000000000000000    0.7500000000000000    0.5714285714285715 F F F As
   0.0000000000000000    0.2500000000000000    0.5714285714285715 F F F As
   0.0000000000000000    0.7500000000000000    0.6339285714285715 T T T As
   0.5000000000000000    0.2500000000000000    0.6339285714285715 T T T As
   0.7499999999999999    0.6396296638588836    0.5888822794109320 T T T Pd
   0.2500000000000000    0.1396296638588836    0.5888822794109320 T T T Pd
   0.2500000000000000    0.6396296638588836    0.6513822794109320 T T T Pd
   0.7499999999999999    0.1396296638588836    0.6513822794109320 T T T Pd
   0.7499999999999999    0.8603703361411164    0.6164748634462111 T T T Pd
   0.2500000000000000    0.3603703361411164    0.6164748634462111 T T T Pd
   0.2500000000000000    0.8603703361411164    0.6789748634462111 T T T Pd
   0.7499999999999999    0.3603703361411163    0.6789748634462111 T T T Pd
   0.5000000000000000    0.6396296638588836    0.6201322794109320 T T T Pd
   0.0000000000000000    0.1396296638588836    0.6201322794109320 T T T Pd
   0.0000000000000000    0.6396296638588836    0.6826322794109320 T T T Pd
   0.5000000000000000    0.1396296638588836    0.6826322794109320 T T T Pd
   0.5000000000000000    0.8603703361411164    0.6477248634462111 T T T Pd
   0.0000000000000000    0.3603703361411164    0.6477248634462111 T T T Pd
   0.0000000000000000    0.8603703361411164    0.5852248634462111 T T T Pd
   0.5000000000000000    0.3603703361411163    0.5852248634462111 T T T Pd
   0.5000000000000000    0.5000000000000000    0.6651785714285715 T T T Pd
   0.0000000000000000    0.0000000000000000    0.6651785714285715 T T T Pd
   0.0000000000000000    0.5000000000000000    0.6026785714285715 T T T Pd
   0.5000000000000000    0.0000000000000000    0.6026785714285715 T T T Pd
