Ga3 As3 Pd15
1.0
   3.9928585140296131    0.0000000000000000    0.0000000000000002
   0.0000000000000011    6.9438904686308991   -3.9928585140296118
   0.0000000000000000    0.0000000000000000   31.9428681122369049
Ga As Pd Ga As Pd Ga As Pd
1 1 5 1 1 5 1 1 5
Selective dynamics
direct
   0.5000000000000000    0.0000000000000000    0.3303571428571428 T T T Ga
   0.0000000000000000    0.5000000000000000    0.3303571428571428 T T T As
   0.5000000000000000    0.2792593277177673    0.4277645588218638 T T T Pd
   0.5000000000000000    0.7207406722822327    0.3579497268924219 T T T Pd
   0.0000000000000000    0.2792593277177673    0.3652645588218638 T T T Pd
   0.0000000000000000    0.7207406722822327    0.4204497268924219 T T T Pd
   0.0000000000000000    0.0000000000000000    0.3928571428571428 T T T Pd
   0.5000000000000000    0.0000000000000000    0.4553571428571428 F F F Ga
   0.0000000000000000    0.5000000000000000    0.4553571428571428 F F F As
   0.5000000000000000    0.2792593277177673    0.5527645588218637 F F F Pd
   0.5000000000000000    0.7207406722822327    0.4829497268924219 F F F Pd
   0.0000000000000000    0.2792593277177673    0.4902645588218638 F F F Pd
   0.0000000000000000    0.7207406722822327    0.5454497268924219 F F F Pd
   0.0000000000000000    0.0000000000000000    0.5178571428571428 F F F Pd
   0.5000000000000000    0.0000000000000000    0.5803571428571428 T T T Ga
   0.0000000000000000    0.5000000000000000    0.5803571428571428 T T T As
   0.5000000000000000    0.2792593277177673    0.6777645588218637 T T T Pd
   0.5000000000000000    0.7207406722822327    0.6079497268924219 T T T Pd
   0.0000000000000000    0.2792593277177673    0.6152645588218637 T T T Pd
   0.0000000000000000    0.7207406722822327    0.6704497268924219 T T T Pd
   0.0000000000000000    0.0000000000000000    0.6428571428571428 T T T Pd
