Ba12 Cu12 As12
1.0
   3.7865035317356144    0.0000000000000000   -2.1861388333350247
   0.0000000000000030   18.6974185571893869   -4.3722776666700565
   0.0000000000000000    0.0000000000000000   34.9782213333604091
Ba Cu As Ba Cu As Ba Cu As
4 4 4 4 4 4 4 4 4
Selective dynamics
direct
   0.0000000000000000    0.0000000000000000    0.4322916666666666 F F F Ba
   0.0000000000000000    0.5000000000000000    0.3697916666666666 T T T Ba
   0.0000000000000000    0.2500000000000000    0.3385416666666666 T T T Ba
   0.0000000000000000    0.7500000000000000    0.4010416666666666 T T T Ba
   0.6666666666666666    0.3750000000000000    0.3958333333333333 T T T Cu
   0.6666666666666666    0.8750000000000000    0.3333333333333333 T T T Cu
   0.3333333333333333    0.1250000000000000    0.4062499999999999 T T T Cu
   0.3333333333333333    0.6250000000000001    0.3437499999999999 T T T Cu
   0.3333333333333333    0.3750000000000000    0.3124999999999999 T T T As
   0.3333333333333333    0.8750000000000000    0.3749999999999999 T T T As
   0.6666666666666666    0.1250000000000000    0.3645833333333333 T T T As
   0.6666666666666666    0.6250000000000001    0.4270833333333333 F F F As
   0.0000000000000000    0.0000000000000000    0.5572916666666666 F F F Ba
   0.0000000000000000    0.5000000000000000    0.4947916666666666 F F F Ba
   0.0000000000000000    0.2500000000000000    0.4635416666666666 F F F Ba
   0.0000000000000000    0.7500000000000000    0.5260416666666666 F F F Ba
   0.6666666666666666    0.3750000000000000    0.5208333333333333 F F F Cu
   0.6666666666666666    0.8750000000000000    0.4583333333333333 F F F Cu
   0.3333333333333333    0.1250000000000000    0.5312500000000000 F F F Cu
   0.3333333333333333    0.6250000000000001    0.4687499999999999 F F F Cu
   0.3333333333333333    0.3750000000000000    0.4374999999999999 F F F As
   0.3333333333333333    0.8750000000000000    0.4999999999999999 F F F As
   0.6666666666666666    0.1250000000000000    0.4895833333333333 F F F As
   0.6666666666666666    0.6250000000000001    0.5520833333333333 F F F As
   0.0000000000000000    0.0000000000000000    0.6822916666666666 T T T Ba
   0.0000000000000000    0.5000000000000000    0.6197916666666666 T T T Ba
   0.0000000000000000    0.2500000000000000    0.5885416666666666 T T T Ba
   0.0000000000000000    0.7500000000000000    0.6510416666666666 T T T Ba
   0.6666666666666666    0.3750000000000000    0.6458333333333333 T T T Cu
   0.6666666666666666    0.8750000000000000    0.5833333333333333 T T T Cu
   0.3333333333333333    0.1250000000000000    0.6562500000000000 T T T Cu
   0.3333333333333333    0.6250000000000001    0.5937500000000000 T T T Cu
   0.3333333333333333    0.3750000000000000    0.5624999999999999 F F F As
   0.3333333333333333    0.8750000000000000    0.6250000000000000 T T T As
   0.6666666666666666    0.1250000000000000    0.6145833333333333 T T T As
   0.6666666666666666    0.6250000000000001    0.6770833333333333 T T T As
