Ca12 Zn12 Ag12
1.0
   7.3889515664034882    0.0000000000000000    0.0000000000000005
   7.2538309271492833    7.8985976263499316    4.6498712043689530
   0.0000000000000000    0.0000000000000000   32.5490984305826956
Ca Zn Ag Ca Zn Ag Ca Zn Ag
4 4 4 4 4 4 4 4 4
Selective dynamics
direct
   0.6981270756429581    0.0494783079066749    0.3024554798228560 T T T Ca
   0.3018729243570419    0.9505216920933250    0.3165921392247631 T T T Ca
   0.6981270756429581    0.5494783079066750    0.3024554798228560 T T T Ca
   0.3018729243570419    0.4505216920933252    0.3165921392247631 T T T Ca
   0.1050057358047669    0.3402640304419400    0.4037718051749610 T T T Zn
   0.8949942641952332    0.6597359695580599    0.3581329567298010 T T T Zn
   0.1050057358047669    0.8402640304419401    0.4037718051749610 T T T Zn
   0.8949942641952332    0.1597359695580600    0.3581329567298010 T T T Zn
   0.2692870163176978    0.1703775978616519    0.3566127241150021 T T T Ag
   0.7307129836823022    0.8296224021383479    0.4052920377897599 T T T Ag
   0.2692870163176978    0.6703775978616520    0.3566127241150021 T T T Ag
   0.7307129836823022    0.3296224021383480    0.4052920377897599 T T T Ag
   0.6981270756429581    0.0494783079066749    0.4453126226799988 F F F Ca
   0.3018729243570419    0.9505216920933250    0.4594492820819059 F F F Ca
   0.6981270756429581    0.5494783079066750    0.4453126226799988 F F F Ca
   0.3018729243570419    0.4505216920933252    0.4594492820819059 F F F Ca
   0.1050057358047669    0.3402640304419400    0.5466289480321038 F F F Zn
   0.8949942641952332    0.6597359695580599    0.5009900995869438 F F F Zn
   0.1050057358047669    0.8402640304419401    0.5466289480321038 F F F Zn
   0.8949942641952332    0.1597359695580600    0.5009900995869438 F F F Zn
   0.2692870163176978    0.1703775978616519    0.4994698669721450 F F F Ag
   0.7307129836823022    0.8296224021383479    0.5481491806469028 F F F Ag
   0.2692870163176978    0.6703775978616520    0.4994698669721450 F F F Ag
   0.7307129836823022    0.3296224021383480    0.5481491806469028 F F F Ag
   0.6981270756429581    0.0494783079066749    0.5881697655371417 T T T Ca
   0.3018729243570419    0.9505216920933250    0.6023064249390488 T T T Ca
   0.6981270756429581    0.5494783079066750    0.5881697655371416 T T T Ca
   0.3018729243570419    0.4505216920933252    0.6023064249390488 T T T Ca
   0.1050057358047669    0.3402640304419400    0.6894860908892467 T T T Zn
   0.8949942641952332    0.6597359695580599    0.6438472424440866 T T T Zn
   0.1050057358047669    0.8402640304419401    0.6894860908892466 T T T Zn
   0.8949942641952332    0.1597359695580600    0.6438472424440866 T T T Zn
   0.2692870163176978    0.1703775978616519    0.6423270098292878 T T T Ag
   0.7307129836823022    0.8296224021383479    0.6910063235040456 T T T Ag
   0.2692870163176978    0.6703775978616520    0.6423270098292878 T T T Ag
   0.7307129836823022    0.3296224021383480    0.6910063235040456 T T T Ag
