Y12 Si24 Ru24
1.0
   4.1827422866452277    0.0000000000000000    0.0000000000000003
   0.0000000000000031   19.1515874973780313   -4.1827422866452251
   0.0000000000000000    0.0000000000000000   29.2791960065165924
Y Si Ru Y Si Ru Y Si Ru
4 8 8 4 8 8 4 8 8
Selective dynamics
direct
   0.0000000000000000    0.0000000000000000    0.4250000000000000 F F F Y
   0.0000000000000000    0.5000000000000000    0.3535714285714286 T T T Y
   0.5000000000000000    0.2500000000000000    0.3892857142857143 T T T Y
   0.5000000000000000    0.7500000000000000    0.3178571428571429 T T T Y
   0.0000000000000000    0.1840217226568228    0.3084316746652605 T T T Si
   0.0000000000000000    0.6840217226568228    0.3798602460938319 T T T Si
   0.5000000000000000    0.0659782773431772    0.3629968967633111 T T T Si
   0.5000000000000000    0.5659782773431772    0.2915683253347397 T T T Si
   0.5000000000000000    0.4340217226568229    0.4155745318081177 F F F Si
   0.5000000000000000    0.9340217226568228    0.3441459603795462 T T T Si
   0.0000000000000000    0.3159782773431772    0.3272826110490254 T T T Si
   0.0000000000000000    0.8159782773431772    0.3987111824775968 F F F Si
   0.0000000000000000    0.1250000000000000    0.3714285714285715 T T T Ru
   0.0000000000000000    0.6250000000000000    0.3000000000000001 T T T Ru
   0.5000000000000000    0.1250000000000000    0.3000000000000001 T T T Ru
   0.5000000000000000    0.6250000000000000    0.3714285714285715 T T T Ru
   0.5000000000000000    0.3750000000000000    0.3357142857142858 T T T Ru
   0.5000000000000000    0.8749999999999999    0.4071428571428572 F F F Ru
   0.0000000000000000    0.3750000000000001    0.4071428571428573 F F F Ru
   0.0000000000000000    0.8750000000000000    0.3357142857142858 T T T Ru
   0.0000000000000000    0.0000000000000000    0.5678571428571429 F F F Y
   0.0000000000000000    0.5000000000000000    0.4964285714285715 F F F Y
   0.5000000000000000    0.2500000000000000    0.5321428571428573 F F F Y
   0.5000000000000000    0.7500000000000000    0.4607142857142857 F F F Y
   0.0000000000000000    0.1840217226568228    0.4512888175224034 F F F Si
   0.0000000000000000    0.6840217226568228    0.5227173889509747 F F F Si
   0.5000000000000000    0.0659782773431772    0.5058540396204539 F F F Si
   0.5000000000000000    0.5659782773431772    0.4344254681918825 F F F Si
   0.5000000000000000    0.4340217226568229    0.5584316746652604 F F F Si
   0.5000000000000000    0.9340217226568228    0.4870031032366890 F F F Si
   0.0000000000000000    0.3159782773431772    0.4701397539061682 F F F Si
   0.0000000000000000    0.8159782773431772    0.5415683253347396 F F F Si
   0.0000000000000000    0.1250000000000000    0.5142857142857143 F F F Ru
   0.0000000000000000    0.6250000000000000    0.4428571428571429 F F F Ru
   0.5000000000000000    0.1250000000000000    0.4428571428571429 F F F Ru
   0.5000000000000000    0.6250000000000000    0.5142857142857143 F F F Ru
   0.5000000000000000    0.3750000000000000    0.4785714285714286 F F F Ru
   0.5000000000000000    0.8749999999999999    0.5500000000000000 F F F Ru
   0.0000000000000000    0.3750000000000001    0.5500000000000000 F F F Ru
   0.0000000000000000    0.8750000000000000    0.4785714285714286 F F F Ru
   0.0000000000000000    0.0000000000000000    0.7107142857142857 T T T Y
   0.0000000000000000    0.5000000000000000    0.6392857142857143 T T T Y
   0.5000000000000000    0.2500000000000000    0.6750000000000000 T T T Y
   0.5000000000000000    0.7500000000000000    0.6035714285714286 F F F Y
   0.0000000000000000    0.1840217226568228    0.5941459603795463 F F F Si
   0.0000000000000000    0.6840217226568228    0.6655745318081177 T T T Si
   0.5000000000000000    0.0659782773431772    0.6487111824775968 T T T Si
   0.5000000000000000    0.5659782773431772    0.5772826110490255 F F F Si
   0.5000000000000000    0.4340217226568229    0.7012888175224034 T T T Si
   0.5000000000000000    0.9340217226568228    0.6298602460938318 T T T Si
   0.0000000000000000    0.3159782773431772    0.6129968967633110 T T T Si
   0.0000000000000000    0.8159782773431772    0.6844254681918825 T T T Si
   0.0000000000000000    0.1250000000000000    0.6571428571428573 T T T Ru
   0.0000000000000000    0.6250000000000000    0.5857142857142859 F F F Ru
   0.5000000000000000    0.1250000000000000    0.5857142857142859 F F F Ru
   0.5000000000000000    0.6250000000000000    0.6571428571428573 T T T Ru
   0.5000000000000000    0.3750000000000000    0.6214285714285714 T T T Ru
   0.5000000000000000    0.8749999999999999    0.6928571428571428 T T T Ru
   0.0000000000000000    0.3750000000000001    0.6928571428571429 T T T Ru
   0.0000000000000000    0.8750000000000000    0.6214285714285714 T T T Ru
