Sc18 Cu18 Si18
1.0
   6.4219038819281806    0.0000000000000000    0.0000000000000004
   6.4219038819281833   11.1230638048234134    3.9540163563079651
   0.0000000000000000    0.0000000000000000   31.6321308504637244
Sc Cu Si Sc Cu Si Sc Cu Si
6 6 6 6 6 6 6 6 6
Selective dynamics
direct
   0.4306316708251288    0.2846841645874356    0.4331644794265705 F F F Sc
   0.4306316708251288    0.7846841645874355    0.3706644794265705 T T T Sc
   0.0000000000000000    0.2153158354125644    0.3168355205734295 T T T Sc
   0.0000000000000000    0.7153158354125644    0.3793355205734295 T T T Sc
   0.5693683291748712    0.5000000000000000    0.4062500000000000 T T T Sc
   0.5693683291748711    0.0000000000000000    0.3437500000000000 T T T Sc
   0.2423163985806340    0.5000000000000000    0.3437500000000000 T T T Cu
   0.2423163985806340    0.0000000000000000    0.4062500000000000 T T T Cu
   0.0000000000000000    0.3788418007096830    0.3588947749112896 T T T Cu
   0.0000000000000000    0.8788418007096830    0.4213947749112896 F F F Cu
   0.7576836014193660    0.1211581992903169    0.3911052250887104 T T T Cu
   0.7576836014193660    0.6211581992903169    0.3286052250887104 T T T Cu
   0.3333333333333333    0.1666666666666667    0.3854166666666666 T T T Si
   0.3333333333333333    0.6666666666666666    0.3229166666666666 T T T Si
   0.6666666666666666    0.3333333333333333    0.3645833333333333 T T T Si
   0.6666666666666666    0.8333333333333333    0.4270833333333334 F F F Si
   0.0000000000000001    0.5000000000000000    0.4062500000000000 T T T Si
   0.0000000000000000    0.0000000000000000    0.3437500000000000 T T T Si
   0.4306316708251288    0.2846841645874356    0.5581644794265705 F F F Sc
   0.4306316708251288    0.7846841645874355    0.4956644794265705 F F F Sc
   0.0000000000000000    0.2153158354125644    0.4418355205734295 F F F Sc
   0.0000000000000000    0.7153158354125644    0.5043355205734295 F F F Sc
   0.5693683291748712    0.5000000000000000    0.5312500000000000 F F F Sc
   0.5693683291748711    0.0000000000000000    0.4687500000000000 F F F Sc
   0.2423163985806340    0.5000000000000000    0.4687500000000000 F F F Cu
   0.2423163985806340    0.0000000000000000    0.5312500000000000 F F F Cu
   0.0000000000000000    0.3788418007096830    0.4838947749112896 F F F Cu
   0.0000000000000000    0.8788418007096830    0.5463947749112896 F F F Cu
   0.7576836014193660    0.1211581992903169    0.5161052250887104 F F F Cu
   0.7576836014193660    0.6211581992903169    0.4536052250887104 F F F Cu
   0.3333333333333333    0.1666666666666667    0.5104166666666666 F F F Si
   0.3333333333333333    0.6666666666666666    0.4479166666666666 F F F Si
   0.6666666666666666    0.3333333333333333    0.4895833333333333 F F F Si
   0.6666666666666666    0.8333333333333333    0.5520833333333334 F F F Si
   0.0000000000000001    0.5000000000000000    0.5312500000000000 F F F Si
   0.0000000000000000    0.0000000000000000    0.4687500000000000 F F F Si
   0.4306316708251288    0.2846841645874356    0.6831644794265705 T T T Sc
   0.4306316708251288    0.7846841645874355    0.6206644794265705 T T T Sc
   0.0000000000000000    0.2153158354125644    0.5668355205734295 F F F Sc
   0.0000000000000000    0.7153158354125644    0.6293355205734295 T T T Sc
   0.5693683291748712    0.5000000000000000    0.6562500000000000 T T T Sc
   0.5693683291748711    0.0000000000000000    0.5937500000000000 T T T Sc
   0.2423163985806340    0.5000000000000000    0.5937500000000000 T T T Cu
   0.2423163985806340    0.0000000000000000    0.6562500000000000 T T T Cu
   0.0000000000000000    0.3788418007096830    0.6088947749112896 T T T Cu
   0.0000000000000000    0.8788418007096830    0.6713947749112896 T T T Cu
   0.7576836014193660    0.1211581992903169    0.6411052250887104 T T T Cu
   0.7576836014193660    0.6211581992903169    0.5786052250887104 F F F Cu
   0.3333333333333333    0.1666666666666667    0.6354166666666666 T T T Si
   0.3333333333333333    0.6666666666666666    0.5729166666666666 F F F Si
   0.6666666666666666    0.3333333333333333    0.6145833333333333 T T T Si
   0.6666666666666666    0.8333333333333333    0.6770833333333334 T T T Si
   0.0000000000000001    0.5000000000000000    0.6562500000000000 T T T Si
   0.0000000000000000    0.0000000000000000    0.5937500000000000 T T T Si
