Y20 Ga30 Cu10
1.0
   3.7974803625317386    0.0000000000000000   -6.5774289286500451
   0.0000000000000056   14.5271681564997142   -4.3849526191000301
   0.0000000000000000    0.0000000000000000   52.6194314292003753
Y Ga Cu Y Ga Cu Y Ga Cu Y Ga Cu Y Ga Cu
4 6 2 4 6 2 4 6 2 4 6 2 4 6 2
Selective dynamics
direct
   0.3333333333333333    0.3836915706419255    0.2958631794284938 T T T Y
   0.3333333333333333    0.8836915706419256    0.3375298460951605 T T T Y
   0.3333333333333333    0.1193851731807207    0.3571709796400601 T T T Y
   0.3333333333333333    0.6193851731807207    0.3155043129733934 T T T Y
   0.6666666666666666    0.0100486594750144    0.3480596034979179 T T T Ga
   0.6666666666666666    0.5100486594750144    0.3063929368312512 T T T Ga
   0.6666666666666666    0.2281409357206954    0.3662339598517246 T T T Ga
   0.6666666666666666    0.7281409357206954    0.3245672931850579 T T T Ga
   0.0000000000000000    0.2736883346597310    0.3700295764299776 T T T Ga
   0.0000000000000000    0.7736883346597310    0.3283629097633109 T T T Ga
   0.0000000000000000    0.4850458313219121    0.3043093678184927 T T T Cu
   0.0000000000000000    0.9850458313219121    0.3459760344851593 T T T Cu
   0.3333333333333333    0.3836915706419255    0.3791965127618271 T T T Y
   0.3333333333333333    0.8836915706419256    0.4208631794284938 F F F Y
   0.3333333333333333    0.1193851731807207    0.4405043129733934 F F F Y
   0.3333333333333333    0.6193851731807207    0.3988376463067267 T T T Y
   0.6666666666666666    0.0100486594750144    0.4313929368312512 F F F Ga
   0.6666666666666666    0.5100486594750144    0.3897262701645845 T T T Ga
   0.6666666666666666    0.2281409357206954    0.4495672931850579 F F F Ga
   0.6666666666666666    0.7281409357206954    0.4079006265183913 T T T Ga
   0.0000000000000000    0.2736883346597310    0.4533629097633109 F F F Ga
   0.0000000000000000    0.7736883346597310    0.4116962430966442 F F F Ga
   0.0000000000000000    0.4850458313219121    0.3876427011518260 T T T Cu
   0.0000000000000000    0.9850458313219121    0.4293093678184927 F F F Cu
   0.3333333333333333    0.3836915706419255    0.4625298460951605 F F F Y
   0.3333333333333333    0.8836915706419256    0.5041965127618271 F F F Y
   0.3333333333333333    0.1193851731807207    0.5238376463067267 F F F Y
   0.3333333333333333    0.6193851731807207    0.4821709796400601 F F F Y
   0.6666666666666666    0.0100486594750144    0.5147262701645845 F F F Ga
   0.6666666666666666    0.5100486594750144    0.4730596034979179 F F F Ga
   0.6666666666666666    0.2281409357206954    0.5329006265183913 F F F Ga
   0.6666666666666666    0.7281409357206954    0.4912339598517246 F F F Ga
   0.0000000000000000    0.2736883346597310    0.5366962430966442 F F F Ga
   0.0000000000000000    0.7736883346597310    0.4950295764299776 F F F Ga
   0.0000000000000000    0.4850458313219121    0.4709760344851593 F F F Cu
   0.0000000000000000    0.9850458313219121    0.5126427011518260 F F F Cu
   0.3333333333333333    0.3836915706419255    0.5458631794284938 F F F Y
   0.3333333333333333    0.8836915706419256    0.5875298460951605 F F F Y
   0.3333333333333333    0.1193851731807207    0.6071709796400601 T T T Y
   0.3333333333333333    0.6193851731807207    0.5655043129733934 F F F Y
   0.6666666666666666    0.0100486594750144    0.5980596034979179 T T T Ga
   0.6666666666666666    0.5100486594750144    0.5563929368312512 F F F Ga
   0.6666666666666666    0.2281409357206954    0.6162339598517246 T T T Ga
   0.6666666666666666    0.7281409357206954    0.5745672931850579 F F F Ga
   0.0000000000000000    0.2736883346597310    0.6200295764299776 T T T Ga
   0.0000000000000000    0.7736883346597310    0.5783629097633110 F F F Ga
   0.0000000000000000    0.4850458313219121    0.5543093678184927 F F F Cu
   0.0000000000000000    0.9850458313219121    0.5959760344851593 T T T Cu
   0.3333333333333333    0.3836915706419255    0.6291965127618271 T T T Y
   0.3333333333333333    0.8836915706419256    0.6708631794284938 T T T Y
   0.3333333333333333    0.1193851731807207    0.6905043129733934 T T T Y
   0.3333333333333333    0.6193851731807207    0.6488376463067267 T T T Y
   0.6666666666666666    0.0100486594750144    0.6813929368312512 T T T Ga
   0.6666666666666666    0.5100486594750144    0.6397262701645845 T T T Ga
   0.6666666666666666    0.2281409357206954    0.6995672931850579 T T T Ga
   0.6666666666666666    0.7281409357206954    0.6579006265183913 T T T Ga
   0.0000000000000000    0.2736883346597310    0.7033629097633110 T T T Ga
   0.0000000000000000    0.7736883346597310    0.6616962430966442 T T T Ga
   0.0000000000000000    0.4850458313219121    0.6376427011518260 T T T Cu
   0.0000000000000000    0.9850458313219121    0.6793093678184927 T T T Cu
