Sr48 Cd24 As48
1.0
   7.7146663022991850    0.0000000000000000    0.0000000000000005
   0.0000000000000055   34.1490502643491496   -4.4916488020512144
   0.0000000000000000    0.0000000000000000   31.4415416143584778
Sr Cd As Sr Cd As Sr Cd As
16 8 16 16 8 16 16 8 16
Selective dynamics
direct
   0.7635217593204617    0.0174062396027424    0.3417723199432489 T T T Sr
   0.7635217593204617    0.5174062396027423    0.4132008913718204 F F F Sr
   0.1092207434218579    0.1014424005081462    0.3537774857868780 T T T Sr
   0.1092207434218581    0.6014424005081462    0.4252060572154495 F F F Sr
   0.6092207434218579    0.1485575994918537    0.2890796570702648 T T T Sr
   0.6092207434218579    0.6485575994918538    0.3605082284988362 T T T Sr
   0.2635217593204617    0.2325937603972576    0.3010848229138939 T T T Sr
   0.2635217593204617    0.7325937603972577    0.3725133943424653 T T T Sr
   0.7635217593204617    0.2674062396027423    0.3060580342289632 T T T Sr
   0.7635217593204617    0.7674062396027423    0.3774866056575346 T T T Sr
   0.1092207434218579    0.3514424005081462    0.3180632000725923 T T T Sr
   0.1092207434218579    0.8514424005081462    0.3894917715011638 F F F Sr
   0.6092207434218579    0.3985575994918537    0.3962225142131219 F F F Sr
   0.6092207434218579    0.8985575994918538    0.3247939427845505 T T T Sr
   0.2635217593204617    0.4825937603972576    0.4082276800567511 F F F Sr
   0.2635217593204617    0.9825937603972577    0.3367991086281796 T T T Sr
   0.4212479293340436    0.0479013467954914    0.4175573352564987 F F F Cd
   0.4212479293340436    0.5479013467954914    0.3461287638279273 T T T Cd
   0.9212479293340436    0.2020986532045086    0.3681569504577870 T T T Cd
   0.9212479293340436    0.7020986532045086    0.2967283790292155 T T T Cd
   0.4212479293340436    0.2979013467954915    0.3818430495422130 T T T Cd
   0.4212479293340438    0.7979013467954914    0.3104144781136416 T T T Cd
   0.9212479293340436    0.4520986532045086    0.3324426647435012 T T T Cd
   0.9212479293340436    0.9520986532045086    0.4038712361720727 F F F Cd
   0.0585322007643398    0.0316196451581910    0.4152313778797415 F F F As
   0.0585322007643398    0.5316196451581909    0.3438028064511701 T T T As
   0.5131183771593016    0.0879755908562317    0.3518536558366045 T T T As
   0.5131183771593016    0.5879755908562316    0.4232822272651759 F F F As
   0.0131183771593016    0.1620244091437683    0.2910034870205383 T T T As
   0.0131183771593016    0.6620244091437684    0.3624320584491098 T T T As
   0.5585322007643398    0.2183803548418090    0.3704829078345441 T T T As
   0.5585322007643398    0.7183803548418091    0.2990543364059727 T T T As
   0.0585322007643398    0.2816196451581909    0.3795170921654558 T T T As
   0.0585322007643398    0.7816196451581909    0.3080885207368844 T T T As
   0.5131183771593016    0.3379755908562316    0.3161393701223188 T T T As
   0.5131183771593018    0.8379755908562316    0.3875679415508902 F F F As
   0.0131183771593016    0.4120244091437684    0.3981463441633954 F F F As
   0.0131183771593016    0.9120244091437684    0.3267177727348241 T T T As
   0.5585322007643398    0.4683803548418091    0.3347686221202584 T T T As
   0.5585322007643398    0.9683803548418091    0.4061971935488299 F F F As
   0.7635217593204617    0.0174062396027424    0.4846294628003918 F F F Sr
   0.7635217593204617    0.5174062396027423    0.5560580342289632 F F F Sr
   0.1092207434218579    0.1014424005081462    0.4966346286440209 F F F Sr
   0.1092207434218581    0.6014424005081462    0.5680632000725923 F F F Sr
   0.6092207434218579    0.1485575994918537    0.4319367999274076 F F F Sr
   0.6092207434218579    0.6485575994918538    0.5033653713559791 F F F Sr
   0.2635217593204617    0.2325937603972576    0.4439419657710368 F F F Sr
   0.2635217593204617    0.7325937603972577    0.5153705371996082 F F F Sr
   0.7635217593204617    0.2674062396027423    0.4489151770861061 F F F Sr
   0.7635217593204617    0.7674062396027423    0.5203437485146775 F F F Sr
   0.1092207434218579    0.3514424005081462    0.4609203429297352 F F F Sr
   0.1092207434218579    0.8514424005081462    0.5323489143583066 F F F Sr
   0.6092207434218579    0.3985575994918537    0.5390796570702647 F F F Sr
   0.6092207434218579    0.8985575994918538    0.4676510856416934 F F F Sr
   0.2635217593204617    0.4825937603972576    0.5510848229138939 F F F Sr
   0.2635217593204617    0.9825937603972577    0.4796562514853225 F F F Sr
   0.4212479293340436    0.0479013467954914    0.5604144781136416 F F F Cd
   0.4212479293340436    0.5479013467954914    0.4889859066850702 F F F Cd
   0.9212479293340436    0.2020986532045086    0.5110140933149298 F F F Cd
   0.9212479293340436    0.7020986532045086    0.4395855218863584 F F F Cd
   0.4212479293340436    0.2979013467954915    0.5247001923993559 F F F Cd
   0.4212479293340438    0.7979013467954914    0.4532716209707844 F F F Cd
   0.9212479293340436    0.4520986532045086    0.4752998076006441 F F F Cd
   0.9212479293340436    0.9520986532045086    0.5467283790292154 F F F Cd
   0.0585322007643398    0.0316196451581910    0.5580885207368844 F F F As
   0.0585322007643398    0.5316196451581909    0.4866599493083130 F F F As
   0.5131183771593016    0.0879755908562317    0.4947107986937473 F F F As
   0.5131183771593016    0.5879755908562316    0.5661393701223187 F F F As
   0.0131183771593016    0.1620244091437683    0.4338606298776811 F F F As
   0.0131183771593016    0.6620244091437684    0.5052892013062527 F F F As
   0.5585322007643398    0.2183803548418090    0.5133400506916870 F F F As
   0.5585322007643398    0.7183803548418091    0.4419114792631156 F F F As
   0.0585322007643398    0.2816196451581909    0.5223742350225986 F F F As
   0.0585322007643398    0.7816196451581909    0.4509456635940272 F F F As
   0.5131183771593016    0.3379755908562316    0.4589965129794616 F F F As
   0.5131183771593018    0.8379755908562316    0.5304250844080330 F F F As
   0.0131183771593016    0.4120244091437684    0.5410034870205382 F F F As
   0.0131183771593016    0.9120244091437684    0.4695749155919669 F F F As
   0.5585322007643398    0.4683803548418091    0.4776257649774013 F F F As
   0.5585322007643398    0.9683803548418091    0.5490543364059727 F F F As
   0.7635217593204617    0.0174062396027424    0.6274866056575346 T T T Sr
   0.7635217593204617    0.5174062396027423    0.6989151770861061 T T T Sr
   0.1092207434218579    0.1014424005081462    0.6394917715011637 T T T Sr
   0.1092207434218581    0.6014424005081462    0.7109203429297352 T T T Sr
   0.6092207434218579    0.1485575994918537    0.5747939427845505 F F F Sr
   0.6092207434218579    0.6485575994918538    0.6462225142131219 T T T Sr
   0.2635217593204617    0.2325937603972576    0.5867991086281796 F F F Sr
   0.2635217593204617    0.7325937603972577    0.6582276800567510 T T T Sr
   0.7635217593204617    0.2674062396027423    0.5917723199432489 F F F Sr
   0.7635217593204617    0.7674062396027423    0.6632008913718204 T T T Sr
   0.1092207434218579    0.3514424005081462    0.6037774857868781 F F F Sr
   0.1092207434218579    0.8514424005081462    0.6752060572154495 T T T Sr
   0.6092207434218579    0.3985575994918537    0.6819367999274076 T T T Sr
   0.6092207434218579    0.8985575994918538    0.6105082284988362 F F F Sr
   0.2635217593204617    0.4825937603972576    0.6939419657710368 T T T Sr
   0.2635217593204617    0.9825937603972577    0.6225133943424653 T T T Sr
   0.4212479293340436    0.0479013467954914    0.7032716209707844 T T T Cd
   0.4212479293340436    0.5479013467954914    0.6318430495422130 T T T Cd
   0.9212479293340436    0.2020986532045086    0.6538712361720727 T T T Cd
   0.9212479293340436    0.7020986532045086    0.5824426647435013 F F F Cd
   0.4212479293340436    0.2979013467954915    0.6675573352564987 T T T Cd
   0.4212479293340438    0.7979013467954914    0.5961287638279273 F F F Cd
   0.9212479293340436    0.4520986532045086    0.6181569504577868 T T T Cd
   0.9212479293340436    0.9520986532045086    0.6895855218863584 T T T Cd
   0.0585322007643398    0.0316196451581910    0.7009456635940272 T T T As
   0.0585322007643398    0.5316196451581909    0.6295170921654558 T T T As
   0.5131183771593016    0.0879755908562317    0.6375679415508901 T T T As
   0.5131183771593016    0.5879755908562316    0.7089965129794616 T T T As
   0.0131183771593016    0.1620244091437683    0.5767177727348241 F F F As
   0.0131183771593016    0.6620244091437684    0.6481463441633954 T T T As
   0.5585322007643398    0.2183803548418090    0.6561971935488298 T T T As
   0.5585322007643398    0.7183803548418091    0.5847686221202584 F F F As
   0.0585322007643398    0.2816196451581909    0.6652313778797415 T T T As
   0.0585322007643398    0.7816196451581909    0.5938028064511700 F F F As
   0.5131183771593016    0.3379755908562316    0.6018536558366046 F F F As
   0.5131183771593018    0.8379755908562316    0.6732822272651759 T T T As
   0.0131183771593016    0.4120244091437684    0.6838606298776811 T T T As
   0.0131183771593016    0.9120244091437684    0.6124320584491098 F F F As
   0.5585322007643398    0.4683803548418091    0.6204829078345442 T T T As
   0.5585322007643398    0.9683803548418091    0.6919114792631156 T T T As
