Sr16 Cd8 As16
1.0
   4.4916488020512109    0.0000000000000000    0.0000000000000003
  -0.0000000000000048   17.0745251321745783   15.4293326045983683
   0.0000000000000000    0.0000000000000000   38.5733315114959225
Sr Cd As Sr Cd As
8 4 8 8 4 8
Selective dynamics
direct
   0.5000000000000000    0.9651875207945152    0.3820037031462861 T T T Sr
   0.5000000000000000    0.7971151989837074    0.3183724286908884 T T T Sr
   0.0000000000000000    0.7028848010162925    0.4560645878778544 F F F Sr
   0.0000000000000000    0.5348124792054848    0.4541537197818983 F F F Sr
   0.0000000000000000    0.4651875207945153    0.3820037031462860 T T T Sr
   0.0000000000000000    0.2971151989837075    0.3183724286908884 T T T Sr
   0.5000000000000000    0.2028848010162925    0.4560645878778544 F F F Sr
   0.5000000000000000    0.0348124792054847    0.4541537197818983 F F F Sr
   0.0000000000000000    0.9041973064090171    0.3379450229032017 T T T Cd
   0.5000000000000000    0.5958026935909829    0.3613028680304154 T T T Cd
   0.5000000000000000    0.4041973064090171    0.3379450229032017 T T T Cd
   0.0000000000000000    0.0958026935909828    0.3613028680304154 T T T Cd
   0.0000000000000000    0.9367607096836180    0.4523765158794206 F F F As
   0.5000000000000000    0.8240488182875366    0.3883785077168455 T T T As
   0.0000000000000000    0.6759511817124634    0.3476175623468748 T T T As
   0.5000000000000000    0.5632392903163820    0.5017850836263150 F F F As
   0.4999999999999999    0.4367607096836181    0.4523765158794205 F F F As
   0.0000000000000000    0.3240488182875367    0.3883785077168455 T T T As
   0.5000000000000000    0.1759511817124633    0.3476175623468748 T T T As
   0.0000000000000000    0.0632392903163819    0.5017850836263150 F F F As
   0.5000000000000000    0.9651875207945152    0.5820037031462861 F F F Sr
   0.5000000000000000    0.7971151989837074    0.5183724286908885 F F F Sr
   0.0000000000000000    0.7028848010162925    0.6560645878778545 T T T Sr
   0.0000000000000000    0.5348124792054848    0.6541537197818983 T T T Sr
   0.0000000000000000    0.4651875207945153    0.5820037031462860 F F F Sr
   0.0000000000000000    0.2971151989837075    0.5183724286908884 F F F Sr
   0.5000000000000000    0.2028848010162925    0.6560645878778544 T T T Sr
   0.5000000000000000    0.0348124792054847    0.6541537197818983 T T T Sr
   0.0000000000000000    0.9041973064090171    0.5379450229032018 F F F Cd
   0.5000000000000000    0.5958026935909829    0.5613028680304154 F F F Cd
   0.5000000000000000    0.4041973064090171    0.5379450229032017 F F F Cd
   0.0000000000000000    0.0958026935909828    0.5613028680304154 F F F Cd
   0.0000000000000000    0.9367607096836180    0.6523765158794206 T T T As
   0.5000000000000000    0.8240488182875366    0.5883785077168455 F F F As
   0.0000000000000000    0.6759511817124634    0.5476175623468749 F F F As
   0.5000000000000000    0.5632392903163820    0.7017850836263151 T T T As
   0.4999999999999999    0.4367607096836181    0.6523765158794206 T T T As
   0.0000000000000000    0.3240488182875367    0.5883785077168455 F F F As
   0.5000000000000000    0.1759511817124633    0.5476175623468749 F F F As
   0.0000000000000000    0.0632392903163819    0.7017850836263151 T T T As
