Sr24 Cd12 As24
1.0
  17.0745251321745748    0.0000000000000000   -8.9832976041024128
   0.0000000000000030    7.7146663022991859   -4.4916488020512100
   0.0000000000000000    0.0000000000000000   35.9331904164096869
Sr Cd As Sr Cd As Sr Cd As
8 4 8 8 4 8 8 4 8
Selective dynamics
direct
   0.9651875207945152    0.2364782406795384    0.3424976855335712 T T T Sr
   0.7971151989837074    0.8907792565781421    0.3822672320681947 T T T Sr
   0.7028848010162925    0.3907792565781421    0.3587096325763410 T T T Sr
   0.5348124792054848    0.7364782406795383    0.3599039251363135 T T T Sr
   0.4651875207945153    0.2364782406795383    0.4049976855335712 T T T Sr
   0.2971151989837075    0.8907792565781422    0.3197672320681947 T T T Sr
   0.2028848010162924    0.3907792565781421    0.4212096325763410 F F F Sr
   0.0348124792054847    0.7364782406795383    0.4224039251363135 F F F Sr
   0.9041973064090171    0.5787520706659565    0.3075343606854989 T T T Cd
   0.5958026935909828    0.0787520706659564    0.3554357074809904 T T T Cd
   0.4041973064090171    0.5787520706659564    0.3700343606854989 T T T Cd
   0.0958026935909828    0.0787520706659564    0.4179357074809903 F F F Cd
   0.9367607096836180    0.9414677992356603    0.3610146775753621 T T T As
   0.8240488182875366    0.4868816228406985    0.3385134326769715 T T T As
   0.6759511817124634    0.9868816228406984    0.4264890235332032 F F F As
   0.5632392903163820    0.4414677992356603    0.3926343227335531 T T T As
   0.4367607096836181    0.9414677992356602    0.4235146775753622 F F F As
   0.3240488182875367    0.4868816228406984    0.4010134326769715 T T T As
   0.1759511817124632    0.9868816228406985    0.3639890235332032 T T T As
   0.0632392903163819    0.4414677992356602    0.3301343227335531 T T T As
   0.9651875207945152    0.2364782406795384    0.4674976855335712 F F F Sr
   0.7971151989837074    0.8907792565781421    0.5072672320681948 F F F Sr
   0.7028848010162925    0.3907792565781421    0.4837096325763410 F F F Sr
   0.5348124792054848    0.7364782406795383    0.4849039251363135 F F F Sr
   0.4651875207945153    0.2364782406795383    0.5299976855335712 F F F Sr
   0.2971151989837075    0.8907792565781422    0.4447672320681947 F F F Sr
   0.2028848010162924    0.3907792565781421    0.5462096325763410 F F F Sr
   0.0348124792054847    0.7364782406795383    0.5474039251363135 F F F Sr
   0.9041973064090171    0.5787520706659565    0.4325343606854989 F F F Cd
   0.5958026935909828    0.0787520706659564    0.4804357074809904 F F F Cd
   0.4041973064090171    0.5787520706659564    0.4950343606854989 F F F Cd
   0.0958026935909828    0.0787520706659564    0.5429357074809904 F F F Cd
   0.9367607096836180    0.9414677992356603    0.4860146775753621 F F F As
   0.8240488182875366    0.4868816228406985    0.4635134326769715 F F F As
   0.6759511817124634    0.9868816228406984    0.5514890235332033 F F F As
   0.5632392903163820    0.4414677992356603    0.5176343227335531 F F F As
   0.4367607096836181    0.9414677992356602    0.5485146775753622 F F F As
   0.3240488182875367    0.4868816228406984    0.5260134326769715 F F F As
   0.1759511817124632    0.9868816228406985    0.4889890235332032 F F F As
   0.0632392903163819    0.4414677992356602    0.4551343227335531 F F F As
   0.9651875207945152    0.2364782406795384    0.5924976855335712 T T T Sr
   0.7971151989837074    0.8907792565781421    0.6322672320681948 T T T Sr
   0.7028848010162925    0.3907792565781421    0.6087096325763410 T T T Sr
   0.5348124792054848    0.7364782406795383    0.6099039251363136 T T T Sr
   0.4651875207945153    0.2364782406795383    0.6549976855335713 T T T Sr
   0.2971151989837075    0.8907792565781422    0.5697672320681948 F F F Sr
   0.2028848010162924    0.3907792565781421    0.6712096325763410 T T T Sr
   0.0348124792054847    0.7364782406795383    0.6724039251363136 T T T Sr
   0.9041973064090171    0.5787520706659565    0.5575343606854990 F F F Cd
   0.5958026935909828    0.0787520706659564    0.6054357074809904 T T T Cd
   0.4041973064090171    0.5787520706659564    0.6200343606854990 T T T Cd
   0.0958026935909828    0.0787520706659564    0.6679357074809904 T T T Cd
   0.9367607096836180    0.9414677992356603    0.6110146775753621 T T T As
   0.8240488182875366    0.4868816228406985    0.5885134326769715 T T T As
   0.6759511817124634    0.9868816228406984    0.6764890235332033 T T T As
   0.5632392903163820    0.4414677992356603    0.6426343227335531 T T T As
   0.4367607096836181    0.9414677992356602    0.6735146775753622 T T T As
   0.3240488182875367    0.4868816228406984    0.6510134326769716 T T T As
   0.1759511817124632    0.9868816228406985    0.6139890235332033 T T T As
   0.0632392903163819    0.4414677992356602    0.5801343227335531 T T T As
