Sr16 Cd8 As16
1.0
   4.4916488020512109    0.0000000000000000    0.0000000000000003
  -0.0000000000000048   17.0745251321745748    7.7146663022991815
   0.0000000000000000    0.0000000000000000   38.5733315114959225
Sr Cd As Sr Cd As
8 4 8 8 4 8
Selective dynamics
direct
   0.5000000000000000    0.9651875207945152    0.4250412073051891 F F F Sr
   0.5000000000000000    0.7971151989837074    0.3277954684876299 T T T Sr
   0.0000000000000000    0.7028848010162925    0.4466415480811129 F F F Sr
   0.0000000000000000    0.5348124792054848    0.4111162156229952 F F F Sr
   0.0000000000000000    0.4651875207945153    0.3250412073051891 T T T Sr
   0.0000000000000000    0.2971151989837075    0.4277954684876298 F F F Sr
   0.5000000000000000    0.2028848010162925    0.3466415480811129 T T T Sr
   0.5000000000000000    0.0348124792054847    0.3111162156229952 T T T Sr
   0.0000000000000000    0.9041973064090171    0.3687844841850051 T T T Cd
   0.5000000000000000    0.5958026935909829    0.3304634067486119 T T T Cd
   0.5000000000000000    0.4041973064090171    0.4687844841850051 F F F Cd
   0.0000000000000000    0.0958026935909828    0.4304634067486119 F F F Cd
   0.0000000000000000    0.9367607096836180    0.4897286578161441 F F F As
   0.5000000000000000    0.8240488182875366    0.4031882713743528 F F F As
   0.0000000000000000    0.6759511817124634    0.3328077986893674 T T T As
   0.5000000000000000    0.5632392903163820    0.4644329416895914 F F F As
   0.4999999999999999    0.4367607096836181    0.3897286578161441 T T T As
   0.0000000000000000    0.3240488182875367    0.5031882713743527 F F F As
   0.5000000000000000    0.1759511817124633    0.4328077986893674 F F F As
   0.0000000000000000    0.0632392903163819    0.3644329416895914 T T T As
   0.5000000000000000    0.9651875207945152    0.6250412073051891 T T T Sr
   0.5000000000000000    0.7971151989837074    0.5277954684876299 F F F Sr
   0.0000000000000000    0.7028848010162925    0.6466415480811128 T T T Sr
   0.0000000000000000    0.5348124792054848    0.6111162156229952 F F F Sr
   0.0000000000000000    0.4651875207945153    0.5250412073051891 F F F Sr
   0.0000000000000000    0.2971151989837075    0.6277954684876299 T T T Sr
   0.5000000000000000    0.2028848010162925    0.5466415480811129 F F F Sr
   0.5000000000000000    0.0348124792054847    0.5111162156229951 F F F Sr
   0.0000000000000000    0.9041973064090171    0.5687844841850052 F F F Cd
   0.5000000000000000    0.5958026935909829    0.5304634067486119 F F F Cd
   0.5000000000000000    0.4041973064090171    0.6687844841850051 T T T Cd
   0.0000000000000000    0.0958026935909828    0.6304634067486119 T T T Cd
   0.0000000000000000    0.9367607096836180    0.6897286578161441 T T T As
   0.5000000000000000    0.8240488182875366    0.6031882713743528 F F F As
   0.0000000000000000    0.6759511817124634    0.5328077986893675 F F F As
   0.5000000000000000    0.5632392903163820    0.6644329416895913 T T T As
   0.4999999999999999    0.4367607096836181    0.5897286578161441 F F F As
   0.0000000000000000    0.3240488182875367    0.7031882713743528 T T T As
   0.5000000000000000    0.1759511817124633    0.6328077986893674 T T T As
   0.0000000000000000    0.0632392903163819    0.5644329416895915 F F F As
