Y24 Tl24 Pd24
1.0
  20.7874975748431190    0.0000000000000000    0.0000000000000013
   5.9392850213837480    5.1435717088347284    3.8124272912718662
   0.0000000000000000    0.0000000000000000   34.3118456214468068
Y Tl Pd Y Tl Pd Y Tl Pd Y Tl Pd
6 6 6 6 6 6 6 6 6 6 6 6
Selective dynamics
direct
   0.7986550289402031    0.2013449710597967    0.3140480896353313 T T T Y
   0.2986550289402032    0.7013449710597968    0.3696036451908868 T T T Y
   0.7013449710597968    0.8959650868206096    0.3479791878841298 T T T Y
   0.2013449710597968    0.3959650868206096    0.2924236323285742 T T T Y
   0.5000000000000000    0.9026899421195935    0.3472319817397982 T T T Y
   0.0000000000000001    0.4026899421195935    0.2916764261842427 T T T Y
   0.6337039650793378    0.3662960349206622    0.3512757492063462 T T T Tl
   0.1337039650793379    0.8662960349206621    0.2957201936507906 T T T Tl
   0.4999999999999999    0.2325920698413242    0.3661317453262726 T T T Tl
   0.0000000000000000    0.7325920698413242    0.3105761897707170 T T T Tl
   0.8662960349206621    0.4011118952380135    0.3474073202821960 T T T Tl
   0.3662960349206622    0.9011118952380135    0.2918517647266404 T T T Tl
   0.8333333333333333    0.8333333333333334    0.2993827160493827 T T T Pd
   0.3333333333333333    0.3333333333333334    0.3549382716049382 T T T Pd
   0.4999999999999999    0.5000000000000000    0.3919753086419753 T T T Pd
   0.0000000000000000    0.0000000000000000    0.3364197530864197 T T T Pd
   0.6666666666666666    0.6666666666666667    0.3179012345679012 T T T Pd
   0.1666666666666667    0.1666666666666666    0.3734567901234568 T T T Pd
   0.7986550289402031    0.2013449710597967    0.4251592007464423 F F F Y
   0.2986550289402032    0.7013449710597968    0.4807147563019979 F F F Y
   0.7013449710597968    0.8959650868206096    0.4590902989952409 F F F Y
   0.2013449710597968    0.3959650868206096    0.4035347434396853 F F F Y
   0.5000000000000000    0.9026899421195935    0.4583430928509094 F F F Y
   0.0000000000000001    0.4026899421195935    0.4027875372953538 F F F Y
   0.6337039650793378    0.3662960349206622    0.4623868603174573 F F F Tl
   0.1337039650793379    0.8662960349206621    0.4068313047619018 F F F Tl
   0.4999999999999999    0.2325920698413242    0.4772428564373837 F F F Tl
   0.0000000000000000    0.7325920698413242    0.4216873008818282 F F F Tl
   0.8662960349206621    0.4011118952380135    0.4585184313933071 F F F Tl
   0.3662960349206622    0.9011118952380135    0.4029628758377515 F F F Tl
   0.8333333333333333    0.8333333333333334    0.4104938271604938 F F F Pd
   0.3333333333333333    0.3333333333333334    0.4660493827160493 F F F Pd
   0.4999999999999999    0.5000000000000000    0.5030864197530864 F F F Pd
   0.0000000000000000    0.0000000000000000    0.4475308641975309 F F F Pd
   0.6666666666666666    0.6666666666666667    0.4290123456790123 F F F Pd
   0.1666666666666667    0.1666666666666666    0.4845679012345679 F F F Pd
   0.7986550289402031    0.2013449710597967    0.5362703118575535 F F F Y
   0.2986550289402032    0.7013449710597968    0.5918258674131089 F F F Y
   0.7013449710597968    0.8959650868206096    0.5702014101063519 F F F Y
   0.2013449710597968    0.3959650868206096    0.5146458545507964 F F F Y
   0.5000000000000000    0.9026899421195935    0.5694542039620205 F F F Y
   0.0000000000000001    0.4026899421195935    0.5138986484064649 F F F Y
   0.6337039650793378    0.3662960349206622    0.5734979714285684 F F F Tl
   0.1337039650793379    0.8662960349206621    0.5179424158730128 F F F Tl
   0.4999999999999999    0.2325920698413242    0.5883539675484948 F F F Tl
   0.0000000000000000    0.7325920698413242    0.5327984119929393 F F F Tl
   0.8662960349206621    0.4011118952380135    0.5696295425044182 F F F Tl
   0.3662960349206622    0.9011118952380135    0.5140739869488626 F F F Tl
   0.8333333333333333    0.8333333333333334    0.5216049382716049 F F F Pd
   0.3333333333333333    0.3333333333333334    0.5771604938271604 F F F Pd
   0.4999999999999999    0.5000000000000000    0.6141975308641976 F F F Pd
   0.0000000000000000    0.0000000000000000    0.5586419753086420 F F F Pd
   0.6666666666666666    0.6666666666666667    0.5401234567901234 F F F Pd
   0.1666666666666667    0.1666666666666666    0.5956790123456790 F F F Pd
   0.7986550289402031    0.2013449710597967    0.6473814229686645 T T T Y
   0.2986550289402032    0.7013449710597968    0.7029369785242201 T T T Y
   0.7013449710597968    0.8959650868206096    0.6813125212174631 T T T Y
   0.2013449710597968    0.3959650868206096    0.6257569656619075 T T T Y
   0.5000000000000000    0.9026899421195935    0.6805653150731316 T T T Y
   0.0000000000000001    0.4026899421195935    0.6250097595175760 T T T Y
   0.6337039650793378    0.3662960349206622    0.6846090825396796 T T T Tl
   0.1337039650793379    0.8662960349206621    0.6290535269841240 T T T Tl
   0.4999999999999999    0.2325920698413242    0.6994650786596059 T T T Tl
   0.0000000000000000    0.7325920698413242    0.6439095231040504 T T T Tl
   0.8662960349206621    0.4011118952380135    0.6807406536155294 T T T Tl
   0.3662960349206622    0.9011118952380135    0.6251850980599738 T T T Tl
   0.8333333333333333    0.8333333333333334    0.6327160493827160 T T T Pd
   0.3333333333333333    0.3333333333333334    0.6882716049382716 T T T Pd
   0.4999999999999999    0.5000000000000000    0.7253086419753086 T T T Pd
   0.0000000000000000    0.0000000000000000    0.6697530864197531 T T T Pd
   0.6666666666666666    0.6666666666666667    0.6512345679012346 T T T Pd
   0.1666666666666667    0.1666666666666666    0.7067901234567902 T T T Pd
