Mn2 Cd8 Te10
1.0
  10.3646384002543677    0.0000000000000000    0.0000000000000006
   0.0000000000000011    6.5635002876130946    0.0000000000000004
   0.0000000000000000    0.0000000000000000   31.0939152007631030
Mn Cd Te
2 8 10
Selective dynamics
direct
   0.5000000000000000    0.2500000000000000    0.5833333333333333 T T T Mn
   0.0000000000000000    0.7500000000000001    0.4166666666666666 T T T Mn
   0.2018105484606778    0.7515796246750774    0.5497427983057103 F F F Cd
   0.3992283949171309    0.7484203753249226    0.3493964838464407 T T T Cd
   0.6007716050828691    0.7484203753249227    0.4839368494868926 F F F Cd
   0.7981894515393222    0.7515796246750774    0.6169238683609564 T T T Cd
   0.7018105484606778    0.2515796246750774    0.3830761316390436 T T T Cd
   0.8992283949171309    0.2484203753249226    0.5160631505131075 F F F Cd
   0.1007716050828691    0.2484203753249226    0.6506035161535593 T T T Cd
   0.2981894515393222    0.2515796246750774    0.4502572016942897 F F F Cd
   0.4042000210657548    0.4903714744210321    0.5190186791747529 F F F Te
   0.5957999789342452    0.4903714744210320    0.6476479874919138 T T T Te
   0.3070560375242586    0.0096285255789680    0.6152666596447484 T T T Te
   0.0000000000000000    0.5000000000000000    0.5833333333333333 T T T Te
   0.6929439624757415    0.0096285255789680    0.5514000070219183 F F F Te
   0.9042000210657549    0.9903714744210320    0.3523520125080862 T T T Te
   0.0957999789342452    0.9903714744210320    0.4809813208252471 F F F Te
   0.8070560375242586    0.5096285255789680    0.4485999929780817 F F F Te
   0.5000000000000000    0.0000000000000000    0.4166666666666666 T T T Te
   0.1929439624757414    0.5096285255789680    0.3847333403552516 T T T Te
