Mn6 Cd24 Te30
1.0
  14.6578121947327045    0.0000000000000000    0.0000000000000009
   7.3289060973663549    7.3289060973663487    6.5635002876130946
   0.0000000000000000    0.0000000000000000   45.9445020132916611
Mn Cd Te Mn Cd Te Mn Cd Te
2 8 10 2 8 10 2 8 10
Selective dynamics
direct
   0.5000000000000000    0.5000000000000000    0.3250000000000001 T T T Mn
   0.0000000000000000    0.5000000000000000    0.3964285714285715 F F F Mn
   0.2018105484606778    0.8989610566221913    0.3396597954361266 T T T Cd
   0.3992283949171309    0.3025821535435469    0.4244054602544823 F F F Cd
   0.6007716050828691    0.6974178464564531    0.3680003612669243 T T T Cd
   0.7981894515393222    0.1010389433778087    0.3107915258996099 T T T Cd
   0.7018105484606778    0.8989610566221913    0.4110883668646981 F F F Cd
   0.8992283949171309    0.3025821535435467    0.3529768888259109 T T T Cd
   0.1007716050828691    0.6974178464564531    0.2965717898383529 T T T Cd
   0.2981894515393222    0.1010389433778086    0.3822200973281813 F F F Cd
   0.4042000210657548    0.7887439414099868    0.3180896475730066 T T T Te
   0.5957999789342452    0.2112560585900134    0.4005879165472884 F F F Te
   0.3070560375242586    0.5971439835414962    0.4196406488624961 F F F Te
   0.0000000000000000    0.0000000000000000    0.2892857142857144 T T T Te
   0.6929439624757415    0.4028560164585036    0.3045389298743521 T T T Te
   0.9042000210657549    0.7887439414099864    0.3895182190015780 F F F Te
   0.0957999789342452    0.2112560585900133    0.3291593451187170 T T T Te
   0.8070560375242586    0.5971439835414962    0.3482120774339246 T T T Te
   0.5000000000000000    0.0000000000000000    0.3607142857142858 T T T Te
   0.1929439624757414    0.4028560164585038    0.3759675013029235 T T T Te
   0.5000000000000000    0.5000000000000000    0.4678571428571429 F F F Mn
   0.0000000000000000    0.5000000000000000    0.5392857142857144 F F F Mn
   0.2018105484606778    0.8989610566221913    0.4825169382932695 F F F Cd
   0.3992283949171309    0.3025821535435469    0.5672626031116251 F F F Cd
   0.6007716050828691    0.6974178464564531    0.5108575041240671 F F F Cd
   0.7981894515393222    0.1010389433778087    0.4536486687567527 F F F Cd
   0.7018105484606778    0.8989610566221913    0.5539455097218410 F F F Cd
   0.8992283949171309    0.3025821535435467    0.4958340316830537 F F F Cd
   0.1007716050828691    0.6974178464564531    0.4394289326954957 F F F Cd
   0.2981894515393222    0.1010389433778086    0.5250772401853241 F F F Cd
   0.4042000210657548    0.7887439414099868    0.4609467904301494 F F F Te
   0.5957999789342452    0.2112560585900134    0.5434450594044313 F F F Te
   0.3070560375242586    0.5971439835414962    0.5624977917196389 F F F Te
   0.0000000000000000    0.0000000000000000    0.4321428571428572 F F F Te
   0.6929439624757415    0.4028560164585036    0.4473960727314950 F F F Te
   0.9042000210657549    0.7887439414099864    0.5323753618587208 F F F Te
   0.0957999789342452    0.2112560585900133    0.4720164879758599 F F F Te
   0.8070560375242586    0.5971439835414962    0.4910692202910674 F F F Te
   0.5000000000000000    0.0000000000000000    0.5035714285714286 F F F Te
   0.1929439624757414    0.4028560164585038    0.5188246441600664 F F F Te
   0.5000000000000000    0.5000000000000000    0.6107142857142858 F F F Mn
   0.0000000000000000    0.5000000000000000    0.6821428571428572 T T T Mn
   0.2018105484606778    0.8989610566221913    0.6253740811504123 T T T Cd
   0.3992283949171309    0.3025821535435469    0.7101197459687680 T T T Cd
   0.6007716050828691    0.6974178464564531    0.6537146469812100 T T T Cd
   0.7981894515393222    0.1010389433778087    0.5965058116138956 F F F Cd
   0.7018105484606778    0.8989610566221913    0.6968026525789838 T T T Cd
   0.8992283949171309    0.3025821535435467    0.6386911745401966 T T T Cd
   0.1007716050828691    0.6974178464564531    0.5822860755526386 F F F Cd
   0.2981894515393222    0.1010389433778086    0.6679343830424670 T T T Cd
   0.4042000210657548    0.7887439414099868    0.6038039332872922 F F F Te
   0.5957999789342452    0.2112560585900134    0.6863022022615741 T T T Te
   0.3070560375242586    0.5971439835414962    0.7053549345767818 T T T Te
   0.0000000000000000    0.0000000000000000    0.5750000000000001 F F F Te
   0.6929439624757415    0.4028560164585036    0.5902532155886377 F F F Te
   0.9042000210657549    0.7887439414099864    0.6752325047158637 T T T Te
   0.0957999789342452    0.2112560585900133    0.6148736308330027 F F F Te
   0.8070560375242586    0.5971439835414962    0.6339263631482103 T T T Te
   0.5000000000000000    0.0000000000000000    0.6464285714285715 T T T Te
   0.1929439624757414    0.4028560164585038    0.6616817870172091 T T T Te
