Sr32 Sb16 Au16
1.0
   7.9201086702690775    0.0000000000000000   -7.9201086702690757
   0.0000000000000025   15.8402173405381532   -7.9201086702690766
   0.0000000000000000    0.0000000000000000   39.6005433513453866
Sr Sb Au Sr Sb Au
16 8 8 16 8 8
Selective dynamics
direct
   0.7500000000000000    0.3749999999999999    0.3625000000000000 T T T Sr
   0.7500000000000000    0.8749999999999999    0.4625000000000000 F F F Sr
   0.2500000000000000    0.3749999999999999    0.4625000000000000 F F F Sr
   0.2500000000000000    0.8749999999999999    0.3625000000000000 T T T Sr
   0.2500000000000000    0.1250000000000000    0.4125000000000000 T T T Sr
   0.2500000000000000    0.6249999999999999    0.3125000000000000 T T T Sr
   0.7500000000000000    0.1250000000000000    0.3125000000000000 T T T Sr
   0.7500000000000000    0.6249999999999999    0.4125000000000000 T T T Sr
   0.7500000000000000    0.1250000000000000    0.4125000000000000 T T T Sr
   0.7500000000000000    0.6250000000000000    0.3125000000000000 T T T Sr
   0.2500000000000000    0.1250000000000000    0.3125000000000000 T T T Sr
   0.2500000000000000    0.6249999999999999    0.4125000000000000 T T T Sr
   0.2500000000000000    0.3749999999999999    0.3625000000000000 T T T Sr
   0.2500000000000000    0.8749999999999999    0.4625000000000000 F F F Sr
   0.7500000000000000    0.3749999999999999    0.4625000000000000 F F F Sr
   0.7500000000000000    0.8750000000000000    0.3625000000000000 T T T Sr
   0.0000000000000000    0.0000000000000000    0.4875000000000000 F F F Sb
   0.0000000000000000    0.5000000000000000    0.3875000000000000 T T T Sb
   0.5000000000000000    0.2500000000000000    0.4375000000000000 F F F Sb
   0.5000000000000000    0.7500000000000000    0.3375000000000000 T T T Sb
   0.0000000000000000    0.2500000000000000    0.4375000000000000 F F F Sb
   0.0000000000000000    0.7500000000000000    0.3375000000000000 T T T Sb
   0.5000000000000000    0.0000000000000000    0.4875000000000000 F F F Sb
   0.5000000000000000    0.5000000000000000    0.3875000000000000 T T T Sb
   0.0000000000000000    0.0000000000000000    0.3875000000000000 T T T Au
   0.0000000000000000    0.4999999999999999    0.4875000000000000 F F F Au
   0.5000000000000000    0.2500000000000000    0.3375000000000000 T T T Au
   0.5000000000000000    0.7499999999999999    0.4375000000000000 F F F Au
   0.0000000000000000    0.2500000000000000    0.3375000000000000 T T T Au
   0.0000000000000000    0.7500000000000000    0.4375000000000000 F F F Au
   0.5000000000000000    0.0000000000000000    0.3875000000000000 T T T Au
   0.5000000000000000    0.4999999999999999    0.4875000000000000 F F F Au
   0.7500000000000000    0.3749999999999999    0.5625000000000000 F F F Sr
   0.7500000000000000    0.8749999999999999    0.6625000000000001 T T T Sr
   0.2500000000000000    0.3749999999999999    0.6625000000000001 T T T Sr
   0.2500000000000000    0.8749999999999999    0.5625000000000000 F F F Sr
   0.2500000000000000    0.1250000000000000    0.6125000000000000 T T T Sr
   0.2500000000000000    0.6249999999999999    0.5125000000000000 F F F Sr
   0.7500000000000000    0.1250000000000000    0.5125000000000000 F F F Sr
   0.7500000000000000    0.6249999999999999    0.6125000000000000 T T T Sr
   0.7500000000000000    0.1250000000000000    0.6125000000000000 T T T Sr
   0.7500000000000000    0.6250000000000000    0.5125000000000000 F F F Sr
   0.2500000000000000    0.1250000000000000    0.5125000000000000 F F F Sr
   0.2500000000000000    0.6249999999999999    0.6125000000000000 T T T Sr
   0.2500000000000000    0.3749999999999999    0.5625000000000000 F F F Sr
   0.2500000000000000    0.8749999999999999    0.6625000000000001 T T T Sr
   0.7500000000000000    0.3749999999999999    0.6625000000000001 T T T Sr
   0.7500000000000000    0.8750000000000000    0.5625000000000000 F F F Sr
   0.0000000000000000    0.0000000000000000    0.6875000000000000 T T T Sb
   0.0000000000000000    0.5000000000000000    0.5874999999999999 T T T Sb
   0.5000000000000000    0.2500000000000000    0.6375000000000000 T T T Sb
   0.5000000000000000    0.7500000000000000    0.5375000000000000 F F F Sb
   0.0000000000000000    0.2500000000000000    0.6375000000000000 T T T Sb
   0.0000000000000000    0.7500000000000000    0.5375000000000000 F F F Sb
   0.5000000000000000    0.0000000000000000    0.6875000000000000 T T T Sb
   0.5000000000000000    0.5000000000000000    0.5874999999999999 T T T Sb
   0.0000000000000000    0.0000000000000000    0.5874999999999999 T T T Au
   0.0000000000000000    0.4999999999999999    0.6875000000000000 T T T Au
   0.5000000000000000    0.2500000000000000    0.5375000000000000 F F F Au
   0.5000000000000000    0.7499999999999999    0.6375000000000000 T T T Au
   0.0000000000000000    0.2500000000000000    0.5375000000000000 F F F Au
   0.0000000000000000    0.7500000000000000    0.6375000000000000 T T T Au
   0.5000000000000000    0.0000000000000000    0.5874999999999999 T T T Au
   0.5000000000000000    0.4999999999999999    0.6875000000000000 T T T Au
