Ca8 Ga28 Ag4
1.0
  11.0891437873575960    0.0000000000000000    0.0000000000000007
   0.0000000000000007    4.3120857025359758   -4.3120857025359749
   0.0000000000000000    0.0000000000000000   38.8087713228237803
Ca Ga Ag Ca Ga Ag Ca Ga Ag Ca Ga Ag
2 7 1 2 7 1 2 7 1 2 7 1
Selective dynamics
direct
   0.2497051810309443    0.0000000000000000    0.3111111111111111 T T T Ca
   0.7502948189690556    0.5000000000000000    0.3111111111111111 T T T Ca
   0.1381668494090973    0.5000000000000000    0.3111111111111111 T T T Ga
   0.6372795021239441    0.0000000000000000    0.3111111111111111 T T T Ga
   0.8618331505909026    0.0000000000000000    0.3111111111111111 T T T Ga
   0.3627204978760559    0.5000000000000000    0.3111111111111111 T T T Ga
   0.5000000000000000    0.0000000000000000    0.3666666666666666 T T T Ga
   0.0000000000000000    0.0000000000000000    0.3666666666666666 T T T Ga
   0.5000000000000000    0.5000000000000000    0.3666666666666666 T T T Ga
   0.0000000000000000    0.5000000000000000    0.3666666666666666 T T T Ag
   0.2497051810309443    0.0000000000000000    0.4222222222222222 F F F Ca
   0.7502948189690556    0.5000000000000000    0.4222222222222222 F F F Ca
   0.1381668494090973    0.5000000000000000    0.4222222222222222 F F F Ga
   0.6372795021239441    0.0000000000000000    0.4222222222222222 F F F Ga
   0.8618331505909026    0.0000000000000000    0.4222222222222222 F F F Ga
   0.3627204978760559    0.5000000000000000    0.4222222222222222 F F F Ga
   0.5000000000000000    0.0000000000000000    0.4777777777777777 F F F Ga
   0.0000000000000000    0.0000000000000000    0.4777777777777777 F F F Ga
   0.5000000000000000    0.5000000000000000    0.4777777777777777 F F F Ga
   0.0000000000000000    0.5000000000000000    0.4777777777777777 F F F Ag
   0.2497051810309443    0.0000000000000000    0.5333333333333333 F F F Ca
   0.7502948189690556    0.5000000000000000    0.5333333333333333 F F F Ca
   0.1381668494090973    0.5000000000000000    0.5333333333333333 F F F Ga
   0.6372795021239441    0.0000000000000000    0.5333333333333333 F F F Ga
   0.8618331505909026    0.0000000000000000    0.5333333333333333 F F F Ga
   0.3627204978760559    0.5000000000000000    0.5333333333333333 F F F Ga
   0.5000000000000000    0.0000000000000000    0.5888888888888888 F F F Ga
   0.0000000000000000    0.0000000000000000    0.5888888888888888 F F F Ga
   0.5000000000000000    0.5000000000000000    0.5888888888888888 F F F Ga
   0.0000000000000000    0.5000000000000000    0.5888888888888888 F F F Ag
   0.2497051810309443    0.0000000000000000    0.6444444444444444 T T T Ca
   0.7502948189690556    0.5000000000000000    0.6444444444444444 T T T Ca
   0.1381668494090973    0.5000000000000000    0.6444444444444444 T T T Ga
   0.6372795021239441    0.0000000000000000    0.6444444444444444 T T T Ga
   0.8618331505909026    0.0000000000000000    0.6444444444444444 T T T Ga
   0.3627204978760559    0.5000000000000000    0.6444444444444444 T T T Ga
   0.5000000000000000    0.0000000000000000    0.7000000000000000 T T T Ga
   0.0000000000000000    0.0000000000000000    0.7000000000000000 T T T Ga
   0.5000000000000000    0.5000000000000000    0.7000000000000000 T T T Ga
   0.0000000000000000    0.5000000000000000    0.7000000000000000 T T T Ag
