Ca12 Ga42 Ag6
1.0
   4.3120857025359758    0.0000000000000000    0.0000000000000003
   0.0000000000000036   22.1782875747151920   -4.3120857025359731
   0.0000000000000000    0.0000000000000000   30.1845999177518323
Ca Ga Ag Ca Ga Ag Ca Ga Ag
4 14 2 4 14 2 4 14 2
Selective dynamics
direct
   0.0000000000000000    0.3751474094845279    0.3607353442120754 T T T Ca
   0.0000000000000000    0.8751474094845280    0.2893067727835040 T T T Ca
   0.5000000000000000    0.1248525905154722    0.3964075129307817 F F F Ca
   0.5000000000000000    0.6248525905154723    0.3249789415022103 T T T Ca
   0.5000000000000000    0.4309165752954514    0.2972737964707787 T T T Ga
   0.5000000000000000    0.9309165752954514    0.3687023678993502 T T T Ga
   0.0000000000000000    0.1813602489380280    0.3330514641340040 T T T Ga
   0.0000000000000000    0.6813602489380279    0.4044800355625754 F F F Ga
   0.0000000000000000    0.0690834247045487    0.3170119178149355 T T T Ga
   0.0000000000000000    0.5690834247045488    0.3884404892435069 T T T Ga
   0.5000000000000000    0.3186397510619721    0.4240913930088531 F F F Ga
   0.5000000000000000    0.8186397510619722    0.3526628215802817 T T T Ga
   0.0000000000000000    0.2500000000000000    0.4142857142857143 F F F Ga
   0.0000000000000000    0.7500000000000000    0.3428571428571429 T T T Ga
   0.0000000000000000    0.0000000000000000    0.3785714285714286 T T T Ga
   0.0000000000000000    0.5000000000000000    0.3071428571428571 T T T Ga
   0.5000000000000000    0.2500000000000001    0.3428571428571429 T T T Ga
   0.5000000000000000    0.7500000000000000    0.4142857142857143 F F F Ga
   0.5000000000000000    0.0000000000000000    0.3071428571428571 T T T Ag
   0.5000000000000000    0.5000000000000000    0.3785714285714286 T T T Ag
   0.0000000000000000    0.3751474094845279    0.5035924870692182 F F F Ca
   0.0000000000000000    0.8751474094845280    0.4321639156406468 F F F Ca
   0.5000000000000000    0.1248525905154722    0.5392646557879246 F F F Ca
   0.5000000000000000    0.6248525905154723    0.4678360843593531 F F F Ca
   0.5000000000000000    0.4309165752954514    0.4401309393279216 F F F Ga
   0.5000000000000000    0.9309165752954514    0.5115595107564930 F F F Ga
   0.0000000000000000    0.1813602489380280    0.4759086069911468 F F F Ga
   0.0000000000000000    0.6813602489380279    0.5473371784197183 F F F Ga
   0.0000000000000000    0.0690834247045487    0.4598690606720783 F F F Ga
   0.0000000000000000    0.5690834247045488    0.5312976321006498 F F F Ga
   0.5000000000000000    0.3186397510619721    0.5669485358659960 F F F Ga
   0.5000000000000000    0.8186397510619722    0.4955199644374246 F F F Ga
   0.0000000000000000    0.2500000000000000    0.5571428571428572 F F F Ga
   0.0000000000000000    0.7500000000000000    0.4857142857142857 F F F Ga
   0.0000000000000000    0.0000000000000000    0.5214285714285714 F F F Ga
   0.0000000000000000    0.5000000000000000    0.4500000000000000 F F F Ga
   0.5000000000000000    0.2500000000000001    0.4857142857142857 F F F Ga
   0.5000000000000000    0.7500000000000000    0.5571428571428572 F F F Ga
   0.5000000000000000    0.0000000000000000    0.4500000000000000 F F F Ag
   0.5000000000000000    0.5000000000000000    0.5214285714285714 F F F Ag
   0.0000000000000000    0.3751474094845279    0.6464496299263611 T T T Ca
   0.0000000000000000    0.8751474094845280    0.5750210584977897 F F F Ca
   0.5000000000000000    0.1248525905154722    0.6821217986450674 T T T Ca
   0.5000000000000000    0.6248525905154723    0.6106932272164960 T T T Ca
   0.5000000000000000    0.4309165752954514    0.5829880821850644 F F F Ga
   0.5000000000000000    0.9309165752954514    0.6544166536136359 T T T Ga
   0.0000000000000000    0.1813602489380280    0.6187657498482897 T T T Ga
   0.0000000000000000    0.6813602489380279    0.6901943212768611 T T T Ga
   0.0000000000000000    0.0690834247045487    0.6027262035292212 F F F Ga
   0.0000000000000000    0.5690834247045488    0.6741547749577927 T T T Ga
   0.5000000000000000    0.3186397510619721    0.7098056787231388 T T T Ga
   0.5000000000000000    0.8186397510619722    0.6383771072945674 T T T Ga
   0.0000000000000000    0.2500000000000000    0.7000000000000000 T T T Ga
   0.0000000000000000    0.7500000000000000    0.6285714285714286 T T T Ga
   0.0000000000000000    0.0000000000000000    0.6642857142857143 T T T Ga
   0.0000000000000000    0.5000000000000000    0.5928571428571427 F F F Ga
   0.5000000000000000    0.2500000000000001    0.6285714285714286 T T T Ga
   0.5000000000000000    0.7500000000000000    0.7000000000000000 T T T Ga
   0.5000000000000000    0.0000000000000000    0.5928571428571427 F F F Ag
   0.5000000000000000    0.5000000000000000    0.6642857142857143 T T T Ag
