Y9 Al9 Cu9
1.0
   4.0274009071366219    0.0000000000000000    0.0000000000000002
   0.0000000000000010    6.1080155541675110  -10.5793932732391145
   0.0000000000000000    0.0000000000000000   56.4234307906085846
Y Al Cu Y Al Cu Y Al Cu
3 3 3 3 3 3 3 3 3
Selective dynamics
direct
   0.5000000000000000    0.5858690841528187    0.3371225244079912 T T T Y
   0.5000000000000000    0.4141309158471814    0.3674216178506842 T T T Y
   0.5000000000000000    0.0000000000000001    0.3371225244079912 T T T Y
   0.0000000000000000    0.2348864142567137    0.4182496906709781 T T T Al
   0.0000000000000000    0.7651135857432863    0.3301672853247104 T T T Al
   0.0000000000000000    0.0000000000000001    0.4182496906709781 T T T Al
   0.0000000000000000    0.3333333333333334    0.3888888888888888 T T T Cu
   0.0000000000000000    0.6666666666666667    0.3888888888888888 T T T Cu
   0.5000000000000000    0.0000000000000000    0.3888888888888888 T T T Cu
   0.5000000000000000    0.5858690841528187    0.4621225244079912 F F F Y
   0.5000000000000000    0.4141309158471814    0.4924216178506842 F F F Y
   0.5000000000000000    0.0000000000000001    0.4621225244079912 F F F Y
   0.0000000000000000    0.2348864142567137    0.5432496906709781 F F F Al
   0.0000000000000000    0.7651135857432863    0.4551672853247104 F F F Al
   0.0000000000000000    0.0000000000000001    0.5432496906709781 F F F Al
   0.0000000000000000    0.3333333333333334    0.5138888888888888 F F F Cu
   0.0000000000000000    0.6666666666666667    0.5138888888888888 F F F Cu
   0.5000000000000000    0.0000000000000000    0.5138888888888888 F F F Cu
   0.5000000000000000    0.5858690841528187    0.5871225244079912 T T T Y
   0.5000000000000000    0.4141309158471814    0.6174216178506842 T T T Y
   0.5000000000000000    0.0000000000000001    0.5871225244079912 T T T Y
   0.0000000000000000    0.2348864142567137    0.6682496906709781 T T T Al
   0.0000000000000000    0.7651135857432863    0.5801672853247104 T T T Al
   0.0000000000000000    0.0000000000000001    0.6682496906709781 T T T Al
   0.0000000000000000    0.3333333333333334    0.6388888888888888 T T T Cu
   0.0000000000000000    0.6666666666666667    0.6388888888888888 T T T Cu
   0.5000000000000000    0.0000000000000000    0.6388888888888888 T T T Cu
