K4 Si16 Pd16
1.0
   4.6215745458434645    0.0000000000000000    0.0000000000000003
   0.0000000000000014    8.4579929459168461   -8.4579929459168444
   0.0000000000000000    0.0000000000000000   42.2899647295842271
K Si Pd K Si Pd
2 8 8 2 8 8
Selective dynamics
direct
   0.3427487521300634    0.0000000000000000    0.4666666666666666 F F F K
   0.8427487521300634    0.5000000000000000    0.4666666666666666 F F F K
   0.0003135606057043    0.3883412974267416    0.3664936533876850 T T T Si
   0.0003135606057044    0.6116587025732584    0.3668396799456483 T T T Si
   0.5003135606057043    0.6107936361783501    0.4111571344169883 T T T Si
   0.5003135606057043    0.3892063638216497    0.3221761989163449 T T T Si
   0.5003135606057043    0.8883412974267415    0.3664936533876850 T T T Si
   0.5003135606057043    0.1116587025732583    0.3668396799456483 T T T Si
   0.0003135606057043    0.1107936361783501    0.4111571344169884 T T T Si
   0.0003135606057044    0.8892063638216499    0.3221761989163449 T T T Si
   0.5002485013617815    0.6742433744570917    0.3652781618687224 T T T Pd
   0.5002485013617815    0.3257566255429083    0.3680551714646109 T T T Pd
   0.0002485013617815    0.3188141015531869    0.4955808120858857 F F F Pd
   0.0002485013617815    0.6811858984468131    0.4377525212474476 F F F Pd
   0.0002485013617815    0.1742433744570917    0.3652781618687224 T T T Pd
   0.0002485013617816    0.8257566255429083    0.3680551714646109 T T T Pd
   0.5002485013617815    0.8188141015531869    0.4955808120858857 F F F Pd
   0.5002485013617815    0.1811858984468131    0.4377525212474476 F F F Pd
   0.3427487521300634    0.0000000000000000    0.6666666666666666 T T T K
   0.8427487521300634    0.5000000000000000    0.6666666666666666 T T T K
   0.0003135606057043    0.3883412974267416    0.5664936533876850 F F F Si
   0.0003135606057044    0.6116587025732584    0.5668396799456483 F F F Si
   0.5003135606057043    0.6107936361783501    0.6111571344169884 T T T Si
   0.5003135606057043    0.3892063638216497    0.5221761989163449 F F F Si
   0.5003135606057043    0.8883412974267415    0.5664936533876850 F F F Si
   0.5003135606057043    0.1116587025732583    0.5668396799456483 F F F Si
   0.0003135606057043    0.1107936361783501    0.6111571344169884 T T T Si
   0.0003135606057044    0.8892063638216499    0.5221761989163449 F F F Si
   0.5002485013617815    0.6742433744570917    0.5652781618687224 F F F Pd
   0.5002485013617815    0.3257566255429083    0.5680551714646109 F F F Pd
   0.0002485013617815    0.3188141015531869    0.6955808120858857 T T T Pd
   0.0002485013617815    0.6811858984468131    0.6377525212474476 T T T Pd
   0.0002485013617815    0.1742433744570917    0.5652781618687224 F F F Pd
   0.0002485013617816    0.8257566255429083    0.5680551714646109 F F F Pd
   0.5002485013617815    0.8188141015531869    0.6955808120858857 T T T Pd
   0.5002485013617815    0.1811858984468131    0.6377525212474476 T T T Pd
