Sc24 Ga24 Cu24
1.0
   8.4780353299560218    0.0000000000000000    6.4286688758830230
  12.8046973351677806    7.2908901341769896   19.4074597920696874
   0.0000000000000000    0.0000000000000000   52.4009763224291305
Sc Ga Cu Sc Ga Cu Sc Ga Cu
8 8 8 8 8 8 8 8 8
Selective dynamics
direct
   0.0000000000000000    0.2681134308654479    0.3570269699080326 T T T Sc
   0.0000000000000000    0.7681134308654478    0.4195269699080327 T T T Sc
   0.0000000000000000    0.2318865691345521    0.4346396967586340 F F F Sc
   0.0000000000000000    0.7318865691345522    0.3721396967586340 T T T Sc
   0.5000000000000000    0.7681134308654477    0.4195269699080327 T T T Sc
   0.5000000000000000    0.2681134308654476    0.3570269699080327 T T T Sc
   0.5000000000000000    0.2318865691345521    0.4346396967586340 F F F Sc
   0.5000000000000000    0.7318865691345522    0.3721396967586340 T T T Sc
   0.0000000000000000    0.4162987605523085    0.3899609771813923 T T T Ga
   0.0000000000000000    0.9162987605523085    0.3274609771813924 T T T Ga
   0.0000000000000000    0.0837012394476915    0.4017056894852742 T T T Ga
   0.0000000000000000    0.5837012394476914    0.3392056894852742 T T T Ga
   0.5000000000000000    0.9162987605523084    0.3274609771813924 T T T Ga
   0.5000000000000000    0.4162987605523084    0.3899609771813924 T T T Ga
   0.5000000000000000    0.0837012394476915    0.4017056894852742 T T T Ga
   0.5000000000000000    0.5837012394476915    0.3392056894852742 T T T Ga
   0.5000000000000000    0.0821509037069266    0.3285424192106552 T T T Cu
   0.5000000000000000    0.5821509037069265    0.3910424192106552 T T T Cu
   0.5000000000000000    0.9178490962930734    0.4006242474560113 T T T Cu
   0.5000000000000000    0.4178490962930733    0.3381242474560114 T T T Cu
   0.0000000000000000    0.0821509037069265    0.3285424192106552 T T T Cu
   0.0000000000000000    0.5821509037069265    0.3910424192106552 T T T Cu
   0.0000000000000000    0.4178490962930734    0.3381242474560113 T T T Cu
   0.0000000000000000    0.9178490962930734    0.4006242474560114 T T T Cu
   0.0000000000000000    0.2681134308654479    0.4820269699080326 F F F Sc
   0.0000000000000000    0.7681134308654478    0.5445269699080326 F F F Sc
   0.0000000000000000    0.2318865691345521    0.5596396967586339 F F F Sc
   0.0000000000000000    0.7318865691345522    0.4971396967586340 F F F Sc
   0.5000000000000000    0.7681134308654477    0.5445269699080326 F F F Sc
   0.5000000000000000    0.2681134308654476    0.4820269699080327 F F F Sc
   0.5000000000000000    0.2318865691345521    0.5596396967586339 F F F Sc
   0.5000000000000000    0.7318865691345522    0.4971396967586340 F F F Sc
   0.0000000000000000    0.4162987605523085    0.5149609771813923 F F F Ga
   0.0000000000000000    0.9162987605523085    0.4524609771813923 F F F Ga
   0.0000000000000000    0.0837012394476915    0.5267056894852742 F F F Ga
   0.0000000000000000    0.5837012394476914    0.4642056894852742 F F F Ga
   0.5000000000000000    0.9162987605523084    0.4524609771813924 F F F Ga
   0.5000000000000000    0.4162987605523084    0.5149609771813923 F F F Ga
   0.5000000000000000    0.0837012394476915    0.5267056894852742 F F F Ga
   0.5000000000000000    0.5837012394476915    0.4642056894852742 F F F Ga
   0.5000000000000000    0.0821509037069266    0.4535424192106552 F F F Cu
   0.5000000000000000    0.5821509037069265    0.5160424192106552 F F F Cu
   0.5000000000000000    0.9178490962930734    0.5256242474560113 F F F Cu
   0.5000000000000000    0.4178490962930733    0.4631242474560114 F F F Cu
   0.0000000000000000    0.0821509037069265    0.4535424192106552 F F F Cu
   0.0000000000000000    0.5821509037069265    0.5160424192106552 F F F Cu
   0.0000000000000000    0.4178490962930734    0.4631242474560113 F F F Cu
   0.0000000000000000    0.9178490962930734    0.5256242474560113 F F F Cu
   0.0000000000000000    0.2681134308654479    0.6070269699080326 T T T Sc
   0.0000000000000000    0.7681134308654478    0.6695269699080326 T T T Sc
   0.0000000000000000    0.2318865691345521    0.6846396967586339 T T T Sc
   0.0000000000000000    0.7318865691345522    0.6221396967586339 T T T Sc
   0.5000000000000000    0.7681134308654477    0.6695269699080326 T T T Sc
   0.5000000000000000    0.2681134308654476    0.6070269699080326 T T T Sc
   0.5000000000000000    0.2318865691345521    0.6846396967586339 T T T Sc
   0.5000000000000000    0.7318865691345522    0.6221396967586339 T T T Sc
   0.0000000000000000    0.4162987605523085    0.6399609771813923 T T T Ga
   0.0000000000000000    0.9162987605523085    0.5774609771813923 F F F Ga
   0.0000000000000000    0.0837012394476915    0.6517056894852742 T T T Ga
   0.0000000000000000    0.5837012394476914    0.5892056894852742 T T T Ga
   0.5000000000000000    0.9162987605523084    0.5774609771813923 F F F Ga
   0.5000000000000000    0.4162987605523084    0.6399609771813923 T T T Ga
   0.5000000000000000    0.0837012394476915    0.6517056894852742 T T T Ga
   0.5000000000000000    0.5837012394476915    0.5892056894852742 T T T Ga
   0.5000000000000000    0.0821509037069266    0.5785424192106552 F F F Cu
   0.5000000000000000    0.5821509037069265    0.6410424192106552 T T T Cu
   0.5000000000000000    0.9178490962930734    0.6506242474560113 T T T Cu
   0.5000000000000000    0.4178490962930733    0.5881242474560113 T T T Cu
   0.0000000000000000    0.0821509037069265    0.5785424192106552 F F F Cu
   0.0000000000000000    0.5821509037069265    0.6410424192106552 T T T Cu
   0.0000000000000000    0.4178490962930734    0.5881242474560113 T T T Cu
   0.0000000000000000    0.9178490962930734    0.6506242474560113 T T T Cu
