Sc8 Ga8 Cu8
1.0
   4.1949666098205602    0.0000000000000000    0.0000000000000003
   0.0000000000000008    4.9353907384619475   -4.3065086789156215
   0.0000000000000000    0.0000000000000000   48.8894471522792315
Sc Ga Cu Sc Ga Cu
4 4 4 4 4 4
Selective dynamics
direct
   0.0000000000000000    0.7076625234630427    0.3760879609871541 T T T Sc
   0.0000000000000000    0.2923374765369573    0.3905787056795124 T T T Sc
   0.5000000000000000    0.7076625234630427    0.4760879609871542 F F F Sc
   0.5000000000000000    0.2923374765369573    0.4905787056795124 F F F Sc
   0.0000000000000000    0.1193199113367811    0.3168138291124099 T T T Ga
   0.0000000000000000    0.8806800886632188    0.4498528375542567 F F F Ga
   0.5000000000000000    0.1193199113367811    0.4168138291124099 F F F Ga
   0.5000000000000000    0.8806800886632188    0.3498528375542567 T T T Ga
   0.5000000000000000    0.2938235907255020    0.3504729718505626 T T T Cu
   0.5000000000000000    0.7061764092744980    0.4161936948161039 F F F Cu
   0.0000000000000000    0.2938235907255020    0.4504729718505627 F F F Cu
   0.0000000000000000    0.7061764092744980    0.3161936948161039 T T T Cu
   0.0000000000000000    0.7076625234630427    0.5760879609871542 F F F Sc
   0.0000000000000000    0.2923374765369573    0.5905787056795124 F F F Sc
   0.5000000000000000    0.7076625234630427    0.6760879609871542 T T T Sc
   0.5000000000000000    0.2923374765369573    0.6905787056795124 T T T Sc
   0.0000000000000000    0.1193199113367811    0.5168138291124099 F F F Ga
   0.0000000000000000    0.8806800886632188    0.6498528375542567 T T T Ga
   0.5000000000000000    0.1193199113367811    0.6168138291124099 T T T Ga
   0.5000000000000000    0.8806800886632188    0.5498528375542566 F F F Ga
   0.5000000000000000    0.2938235907255020    0.5504729718505627 F F F Cu
   0.5000000000000000    0.7061764092744980    0.6161936948161040 T T T Cu
   0.0000000000000000    0.2938235907255020    0.6504729718505626 T T T Cu
   0.0000000000000000    0.7061764092744980    0.5161936948161039 F F F Cu
