Sc32 Ga32 Cu32
1.0
   9.7778894304558435    0.0000000000000000   -8.3899332196411240
   1.1648720726246067    9.8707814769238951    0.0000000000000006
   0.0000000000000000    0.0000000000000000   37.7546994883850431
Sc Ga Cu Sc Ga Cu Sc Ga Cu Sc Ga Cu
8 8 8 8 8 8 8 8 8 8 8 8
Selective dynamics
direct
   0.3900581234624170    0.1461687382684786    0.3366795829916482 T T T Sc
   0.8900581234624170    0.6461687382684786    0.3366795829916482 T T T Sc
   0.1099418765375829    0.3538312617315214    0.3855426392305740 T T T Sc
   0.6099418765375830    0.8538312617315214    0.3855426392305740 T T T Sc
   0.8900581234624169    0.1461687382684786    0.2811240274360927 T T T Sc
   0.3900581234624169    0.6461687382684786    0.2811240274360927 T T T Sc
   0.6099418765375830    0.3538312617315214    0.3299870836750185 T T T Sc
   0.1099418765375830    0.8538312617315214    0.3299870836750185 T T T Sc
   0.3922574767730075    0.4403400443316095    0.3371683281717795 T T T Ga
   0.8922574767730076    0.9403400443316094    0.3371683281717795 T T T Ga
   0.1077425232269923    0.0596599556683906    0.3850538940504428 T T T Ga
   0.6077425232269923    0.5596599556683906    0.3850538940504428 T T T Ga
   0.8922574767730075    0.4403400443316095    0.2816127726162240 T T T Ga
   0.3922574767730075    0.9403400443316094    0.2816127726162239 T T T Ga
   0.6077425232269925    0.0596599556683906    0.3294983384948872 T T T Ga
   0.1077425232269924    0.5596599556683906    0.3294983384948872 T T T Ga
   0.3112136027766041    0.3530882046372490    0.3747141339503565 T T T Cu
   0.8112136027766041    0.8530882046372490    0.3747141339503565 T T T Cu
   0.1887863972233959    0.1469117953627510    0.3475080882718658 T T T Cu
   0.6887863972233959    0.6469117953627510    0.3475080882718658 T T T Cu
   0.8112136027766041    0.3530882046372490    0.3191585783948009 T T T Cu
   0.3112136027766040    0.8530882046372490    0.3191585783948009 T T T Cu
   0.6887863972233959    0.1469117953627510    0.2919525327163102 T T T Cu
   0.1887863972233958    0.6469117953627510    0.2919525327163102 T T T Cu
   0.3900581234624170    0.1461687382684786    0.4477906941027593 F F F Sc
   0.8900581234624170    0.6461687382684786    0.4477906941027593 F F F Sc
   0.1099418765375829    0.3538312617315214    0.4966537503416851 F F F Sc
   0.6099418765375830    0.8538312617315214    0.4966537503416851 F F F Sc
   0.8900581234624169    0.1461687382684786    0.3922351385472038 F F F Sc
   0.3900581234624169    0.6461687382684786    0.3922351385472038 F F F Sc
   0.6099418765375830    0.3538312617315214    0.4410981947861296 F F F Sc
   0.1099418765375830    0.8538312617315214    0.4410981947861296 F F F Sc
   0.3922574767730075    0.4403400443316095    0.4482794392828906 F F F Ga
   0.8922574767730076    0.9403400443316094    0.4482794392828906 F F F Ga
   0.1077425232269923    0.0596599556683906    0.4961650051615539 F F F Ga
   0.6077425232269923    0.5596599556683906    0.4961650051615539 F F F Ga
   0.8922574767730075    0.4403400443316095    0.3927238837273350 F F F Ga
   0.3922574767730075    0.9403400443316094    0.3927238837273350 F F F Ga
   0.6077425232269925    0.0596599556683906    0.4406094496059983 F F F Ga
   0.1077425232269924    0.5596599556683906    0.4406094496059983 F F F Ga
   0.3112136027766041    0.3530882046372490    0.4858252450614676 F F F Cu
   0.8112136027766041    0.8530882046372490    0.4858252450614676 F F F Cu
   0.1887863972233959    0.1469117953627510    0.4586191993829769 F F F Cu
   0.6887863972233959    0.6469117953627510    0.4586191993829769 F F F Cu
   0.8112136027766041    0.3530882046372490    0.4302696895059120 F F F Cu
   0.3112136027766040    0.8530882046372490    0.4302696895059120 F F F Cu
   0.6887863972233959    0.1469117953627510    0.4030636438274213 F F F Cu
   0.1887863972233958    0.6469117953627510    0.4030636438274213 F F F Cu
   0.3900581234624170    0.1461687382684786    0.5589018052138705 F F F Sc
   0.8900581234624170    0.6461687382684786    0.5589018052138705 F F F Sc
   0.1099418765375829    0.3538312617315214    0.6077648614527962 F F F Sc
   0.6099418765375830    0.8538312617315214    0.6077648614527962 F F F Sc
   0.8900581234624169    0.1461687382684786    0.5033462496583149 F F F Sc
   0.3900581234624169    0.6461687382684786    0.5033462496583149 F F F Sc
   0.6099418765375830    0.3538312617315214    0.5522093058972407 F F F Sc
   0.1099418765375830    0.8538312617315214    0.5522093058972407 F F F Sc
   0.3922574767730075    0.4403400443316095    0.5593905503940018 F F F Ga
   0.8922574767730076    0.9403400443316094    0.5593905503940018 F F F Ga
   0.1077425232269923    0.0596599556683906    0.6072761162726650 F F F Ga
   0.6077425232269923    0.5596599556683906    0.6072761162726650 F F F Ga
   0.8922574767730075    0.4403400443316095    0.5038349948384462 F F F Ga
   0.3922574767730075    0.9403400443316094    0.5038349948384462 F F F Ga
   0.6077425232269925    0.0596599556683906    0.5517205607171094 F F F Ga
   0.1077425232269924    0.5596599556683906    0.5517205607171094 F F F Ga
   0.3112136027766041    0.3530882046372490    0.5969363561725787 F F F Cu
   0.8112136027766041    0.8530882046372490    0.5969363561725787 F F F Cu
   0.1887863972233959    0.1469117953627510    0.5697303104940881 F F F Cu
   0.6887863972233959    0.6469117953627510    0.5697303104940881 F F F Cu
   0.8112136027766041    0.3530882046372490    0.5413808006170231 F F F Cu
   0.3112136027766040    0.8530882046372490    0.5413808006170231 F F F Cu
   0.6887863972233959    0.1469117953627510    0.5141747549385325 F F F Cu
   0.1887863972233958    0.6469117953627510    0.5141747549385325 F F F Cu
   0.3900581234624170    0.1461687382684786    0.6700129163249815 T T T Sc
   0.8900581234624170    0.6461687382684786    0.6700129163249815 T T T Sc
   0.1099418765375829    0.3538312617315214    0.7188759725639073 T T T Sc
   0.6099418765375830    0.8538312617315214    0.7188759725639073 T T T Sc
   0.8900581234624169    0.1461687382684786    0.6144573607694259 T T T Sc
   0.3900581234624169    0.6461687382684786    0.6144573607694259 T T T Sc
   0.6099418765375830    0.3538312617315214    0.6633204170083518 T T T Sc
   0.1099418765375830    0.8538312617315214    0.6633204170083518 T T T Sc
   0.3922574767730075    0.4403400443316095    0.6705016615051128 T T T Ga
   0.8922574767730076    0.9403400443316094    0.6705016615051128 T T T Ga
   0.1077425232269923    0.0596599556683906    0.7183872273837761 T T T Ga
   0.6077425232269923    0.5596599556683906    0.7183872273837761 T T T Ga
   0.8922574767730075    0.4403400443316095    0.6149461059495573 T T T Ga
   0.3922574767730075    0.9403400443316094    0.6149461059495572 T T T Ga
   0.6077425232269925    0.0596599556683906    0.6628316718282206 T T T Ga
   0.1077425232269924    0.5596599556683906    0.6628316718282206 T T T Ga
   0.3112136027766041    0.3530882046372490    0.7080474672836898 T T T Cu
   0.8112136027766041    0.8530882046372490    0.7080474672836898 T T T Cu
   0.1887863972233959    0.1469117953627510    0.6808414216051991 T T T Cu
   0.6887863972233959    0.6469117953627510    0.6808414216051991 T T T Cu
   0.8112136027766041    0.3530882046372490    0.6524919117281343 T T T Cu
   0.3112136027766040    0.8530882046372490    0.6524919117281343 T T T Cu
   0.6887863972233959    0.1469117953627510    0.6252858660496435 T T T Cu
   0.1887863972233958    0.6469117953627510    0.6252858660496435 T T T Cu
