Zr16 V16 Mo16
1.0
   5.3614080091705976    0.0000000000000000    0.0000000000000003
  -0.0000000000000030   10.4970007462094799    7.4514010418542700
   0.0000000000000000    0.0000000000000000   37.2570052092713553
Zr V Mo Zr V Mo
8 8 8 8 8 8
Selective dynamics
direct
   0.2500000000000000    0.5000000000000000    0.4166936672141711 F F F Zr
   0.2500000000000000    0.0000000000000000    0.3166936672141712 T T T Zr
   0.7500000000000001    0.4999999999999999    0.3666396661191622 T T T Zr
   0.7500000000000001    0.0000000000000000    0.4666396661191622 F F F Zr
   0.7500000000000001    0.2500000000000000    0.3666936672141712 T T T Zr
   0.7500000000000001    0.7500000000000000    0.4666936672141712 F F F Zr
   0.2500000000000000    0.2500000000000000    0.3166396661191622 T T T Zr
   0.2500000000000000    0.7500000000000000    0.4166396661191622 F F F Zr
   0.5000000000000000    0.2500000000000000    0.4416666666666667 F F F V
   0.5000000000000000    0.7500000000000000    0.3416666666666667 T T T V
   0.0000000000000000    0.2500000000000000    0.4416666666666667 F F F V
   0.0000000000000000    0.7500000000000000    0.3416666666666667 T T T V
   0.0000000000000000    0.5000000000000000    0.4916666666666667 F F F V
   0.0000000000000000    0.0000000000000000    0.3916666666666667 T T T V
   0.5000000000000000    0.5000000000000000    0.4916666666666667 F F F V
   0.5000000000000000    0.0000000000000000    0.3916666666666667 T T T V
   0.7500000000000001    0.3750000000000000    0.4666666666666667 F F F Mo
   0.7500000000000001    0.8750000000000000    0.3666666666666667 T T T Mo
   0.7500000000000001    0.1250000000000000    0.3166666666666667 T T T Mo
   0.7500000000000001    0.6250000000000000    0.4166666666666667 F F F Mo
   0.2500000000000000    0.1250000000000001    0.4166666666666666 F F F Mo
   0.2500000000000000    0.6250000000000000    0.3166666666666667 T T T Mo
   0.2500000000000000    0.3749999999999999    0.3666666666666667 T T T Mo
   0.2500000000000000    0.8750000000000000    0.4666666666666667 F F F Mo
   0.2500000000000000    0.5000000000000000    0.6166936672141712 T T T Zr
   0.2500000000000000    0.0000000000000000    0.5166936672141712 F F F Zr
   0.7500000000000001    0.4999999999999999    0.5666396661191622 F F F Zr
   0.7500000000000001    0.0000000000000000    0.6666396661191623 T T T Zr
   0.7500000000000001    0.2500000000000000    0.5666936672141711 F F F Zr
   0.7500000000000001    0.7500000000000000    0.6666936672141712 T T T Zr
   0.2500000000000000    0.2500000000000000    0.5166396661191621 F F F Zr
   0.2500000000000000    0.7500000000000000    0.6166396661191622 T T T Zr
   0.5000000000000000    0.2500000000000000    0.6416666666666667 T T T V
   0.5000000000000000    0.7500000000000000    0.5416666666666667 F F F V
   0.0000000000000000    0.2500000000000000    0.6416666666666667 T T T V
   0.0000000000000000    0.7500000000000000    0.5416666666666667 F F F V
   0.0000000000000000    0.5000000000000000    0.6916666666666667 T T T V
   0.0000000000000000    0.0000000000000000    0.5916666666666667 F F F V
   0.5000000000000000    0.5000000000000000    0.6916666666666667 T T T V
   0.5000000000000000    0.0000000000000000    0.5916666666666667 F F F V
   0.7500000000000001    0.3750000000000000    0.6666666666666667 T T T Mo
   0.7500000000000001    0.8750000000000000    0.5666666666666667 F F F Mo
   0.7500000000000001    0.1250000000000000    0.5166666666666667 F F F Mo
   0.7500000000000001    0.6250000000000000    0.6166666666666667 T T T Mo
   0.2500000000000000    0.1250000000000001    0.6166666666666667 T T T Mo
   0.2500000000000000    0.6250000000000000    0.5166666666666667 F F F Mo
   0.2500000000000000    0.3749999999999999    0.5666666666666667 F F F Mo
   0.2500000000000000    0.8750000000000000    0.6666666666666667 T T T Mo
