Al48 Co8 Cu24
1.0
   9.9350246303841701    0.0000000000000000    0.0000000000000006
   0.0000000000000011    7.1341826506177144   -8.2378445475641850
   0.0000000000000000    0.0000000000000000   41.1892227378209341
Al Co Cu Al Co Cu Al Co Cu Al Co Cu
12 2 6 12 2 6 12 2 6 12 2 6
Selective dynamics
direct
   0.8111926689422049    0.5000000000000001    0.3383333333333334 T T T Al
   0.8111926689422049    0.0000000000000000    0.3883333333333334 T T T Al
   0.3271365369644172    0.5000000000000001    0.3383333333333334 T T T Al
   0.3271365369644172    0.0000000000000000    0.3883333333333334 T T T Al
   0.6710148424555129    0.1666666666666667    0.3716666666666667 T T T Al
   0.6710148424555129    0.6666666666666666    0.3216666666666667 T T T Al
   0.1773318461917981    0.1666666666666667    0.3716666666666667 T T T Al
   0.1773318461917981    0.6666666666666666    0.3216666666666667 T T T Al
   0.9951156376369639    0.3333333333333333    0.3550000000000000 T T T Al
   0.9951156376369639    0.8333333333333333    0.3050000000000000 T T T Al
   0.5275750384444180    0.3333333333333333    0.3550000000000000 T T T Al
   0.5275750384444180    0.8333333333333333    0.3050000000000000 T T T Al
   0.5694939503183747    0.5000000000000001    0.3383333333333334 T T T Co
   0.5694939503183747    0.0000000000000000    0.3883333333333334 T T T Co
   0.0743718431904766    0.5000000000000001    0.3383333333333334 T T T Cu
   0.0743718431904766    0.0000000000000000    0.3883333333333334 T T T Cu
   0.9232862276575844    0.1666666666666667    0.3716666666666667 T T T Cu
   0.9232862276575844    0.6666666666666666    0.3216666666666667 T T T Cu
   0.4234834081982440    0.1666666666666667    0.3716666666666667 T T T Cu
   0.4234834081982440    0.6666666666666666    0.3216666666666667 T T T Cu
   0.8111926689422049    0.5000000000000001    0.4383333333333334 F F F Al
   0.8111926689422049    0.0000000000000000    0.4883333333333334 F F F Al
   0.3271365369644172    0.5000000000000001    0.4383333333333334 F F F Al
   0.3271365369644172    0.0000000000000000    0.4883333333333334 F F F Al
   0.6710148424555129    0.1666666666666667    0.4716666666666667 F F F Al
   0.6710148424555129    0.6666666666666666    0.4216666666666667 F F F Al
   0.1773318461917981    0.1666666666666667    0.4716666666666667 F F F Al
   0.1773318461917981    0.6666666666666666    0.4216666666666667 F F F Al
   0.9951156376369639    0.3333333333333333    0.4550000000000001 F F F Al
   0.9951156376369639    0.8333333333333333    0.4050000000000000 T T T Al
   0.5275750384444180    0.3333333333333333    0.4550000000000001 F F F Al
   0.5275750384444180    0.8333333333333333    0.4050000000000000 T T T Al
   0.5694939503183747    0.5000000000000001    0.4383333333333334 F F F Co
   0.5694939503183747    0.0000000000000000    0.4883333333333334 F F F Co
   0.0743718431904766    0.5000000000000001    0.4383333333333334 F F F Cu
   0.0743718431904766    0.0000000000000000    0.4883333333333334 F F F Cu
   0.9232862276575844    0.1666666666666667    0.4716666666666667 F F F Cu
   0.9232862276575844    0.6666666666666666    0.4216666666666667 F F F Cu
   0.4234834081982440    0.1666666666666667    0.4716666666666667 F F F Cu
   0.4234834081982440    0.6666666666666666    0.4216666666666667 F F F Cu
   0.8111926689422049    0.5000000000000001    0.5383333333333333 F F F Al
   0.8111926689422049    0.0000000000000000    0.5883333333333334 T T T Al
   0.3271365369644172    0.5000000000000001    0.5383333333333333 F F F Al
   0.3271365369644172    0.0000000000000000    0.5883333333333334 T T T Al
   0.6710148424555129    0.1666666666666667    0.5716666666666668 F F F Al
   0.6710148424555129    0.6666666666666666    0.5216666666666667 F F F Al
   0.1773318461917981    0.1666666666666667    0.5716666666666668 F F F Al
   0.1773318461917981    0.6666666666666666    0.5216666666666667 F F F Al
   0.9951156376369639    0.3333333333333333    0.5550000000000000 F F F Al
   0.9951156376369639    0.8333333333333333    0.5050000000000000 F F F Al
   0.5275750384444180    0.3333333333333333    0.5550000000000000 F F F Al
   0.5275750384444180    0.8333333333333333    0.5050000000000000 F F F Al
   0.5694939503183747    0.5000000000000001    0.5383333333333333 F F F Co
   0.5694939503183747    0.0000000000000000    0.5883333333333334 T T T Co
   0.0743718431904766    0.5000000000000001    0.5383333333333333 F F F Cu
   0.0743718431904766    0.0000000000000000    0.5883333333333334 T T T Cu
   0.9232862276575844    0.1666666666666667    0.5716666666666668 F F F Cu
   0.9232862276575844    0.6666666666666666    0.5216666666666667 F F F Cu
   0.4234834081982440    0.1666666666666667    0.5716666666666668 F F F Cu
   0.4234834081982440    0.6666666666666666    0.5216666666666667 F F F Cu
   0.8111926689422049    0.5000000000000001    0.6383333333333334 T T T Al
   0.8111926689422049    0.0000000000000000    0.6883333333333334 T T T Al
   0.3271365369644172    0.5000000000000001    0.6383333333333334 T T T Al
   0.3271365369644172    0.0000000000000000    0.6883333333333334 T T T Al
   0.6710148424555129    0.1666666666666667    0.6716666666666666 T T T Al
   0.6710148424555129    0.6666666666666666    0.6216666666666666 T T T Al
   0.1773318461917981    0.1666666666666667    0.6716666666666666 T T T Al
   0.1773318461917981    0.6666666666666666    0.6216666666666666 T T T Al
   0.9951156376369639    0.3333333333333333    0.6550000000000000 T T T Al
   0.9951156376369639    0.8333333333333333    0.6050000000000000 T T T Al
   0.5275750384444180    0.3333333333333333    0.6550000000000000 T T T Al
   0.5275750384444180    0.8333333333333333    0.6050000000000000 T T T Al
   0.5694939503183747    0.5000000000000001    0.6383333333333334 T T T Co
   0.5694939503183747    0.0000000000000000    0.6883333333333334 T T T Co
   0.0743718431904766    0.5000000000000001    0.6383333333333334 T T T Cu
   0.0743718431904766    0.0000000000000000    0.6883333333333334 T T T Cu
   0.9232862276575844    0.1666666666666667    0.6716666666666666 T T T Cu
   0.9232862276575844    0.6666666666666666    0.6216666666666666 T T T Cu
   0.4234834081982440    0.1666666666666667    0.6716666666666666 T T T Cu
   0.4234834081982440    0.6666666666666666    0.6216666666666666 T T T Cu
