Al36 Co6 Cu18
1.0
   3.5670913253088559    0.0000000000000000   -2.0594611368910458
  -0.0000000000000012   19.8700492607683401   -4.1189222737820916
   0.0000000000000000    0.0000000000000000   32.9513781902567473
Al Co Cu Al Co Cu Al Co Cu
12 2 6 12 2 6 12 2 6
Selective dynamics
direct
   0.0000000000000000    0.0944036655288975    0.4190921373577788 T T T Al
   0.0000000000000000    0.5944036655288976    0.3565921373577788 T T T Al
   0.0000000000000000    0.3364317315177914    0.3243456456063906 T T T Al
   0.0000000000000000    0.8364317315177914    0.3868456456063906 T T T Al
   0.6666666666666666    0.1644925787722436    0.3445199181798637 T T T Al
   0.6666666666666666    0.6644925787722435    0.4070199181798637 T T T Al
   0.6666666666666666    0.4113340769041010    0.3753751054463459 T T T Al
   0.6666666666666666    0.9113340769041011    0.3128751054463459 T T T Al
   0.3333333333333334    0.0024421811815181    0.3659302851476897 T T T Al
   0.3333333333333334    0.5024421811815182    0.4284302851476897 F F F Al
   0.3333333333333334    0.2362124807777911    0.3951515725972238 T T T Al
   0.3333333333333334    0.7362124807777911    0.3326515725972238 T T T Al
   0.0000000000000000    0.2152530248408127    0.4341983072717682 F F F Co
   0.0000000000000000    0.7152530248408128    0.3716983072717682 T T T Co
   0.0000000000000000    0.4628140784047617    0.3401434389672618 T T T Cu
   0.0000000000000000    0.9628140784047617    0.4026434389672618 T T T Cu
   0.6666666666666666    0.0383568861712078    0.3287529566047342 T T T Cu
   0.6666666666666666    0.5383568861712079    0.3912529566047342 T T T Cu
   0.6666666666666666    0.2882582959008780    0.3599906328209430 T T T Cu
   0.6666666666666666    0.7882582959008780    0.4224906328209431 F F F Cu
   0.0000000000000000    0.0944036655288975    0.5440921373577788 F F F Al
   0.0000000000000000    0.5944036655288976    0.4815921373577788 F F F Al
   0.0000000000000000    0.3364317315177914    0.4493456456063906 F F F Al
   0.0000000000000000    0.8364317315177914    0.5118456456063906 F F F Al
   0.6666666666666666    0.1644925787722436    0.4695199181798637 F F F Al
   0.6666666666666666    0.6644925787722435    0.5320199181798637 F F F Al
   0.6666666666666666    0.4113340769041010    0.5003751054463459 F F F Al
   0.6666666666666666    0.9113340769041011    0.4378751054463459 F F F Al
   0.3333333333333334    0.0024421811815181    0.4909302851476897 F F F Al
   0.3333333333333334    0.5024421811815182    0.5534302851476898 F F F Al
   0.3333333333333334    0.2362124807777911    0.5201515725972239 F F F Al
   0.3333333333333334    0.7362124807777911    0.4576515725972238 F F F Al
   0.0000000000000000    0.2152530248408127    0.5591983072717682 F F F Co
   0.0000000000000000    0.7152530248408128    0.4966983072717682 F F F Co
   0.0000000000000000    0.4628140784047617    0.4651434389672618 F F F Cu
   0.0000000000000000    0.9628140784047617    0.5276434389672618 F F F Cu
   0.6666666666666666    0.0383568861712078    0.4537529566047342 F F F Cu
   0.6666666666666666    0.5383568861712079    0.5162529566047342 F F F Cu
   0.6666666666666666    0.2882582959008780    0.4849906328209430 F F F Cu
   0.6666666666666666    0.7882582959008780    0.5474906328209430 F F F Cu
   0.0000000000000000    0.0944036655288975    0.6690921373577788 T T T Al
   0.0000000000000000    0.5944036655288976    0.6065921373577788 T T T Al
   0.0000000000000000    0.3364317315177914    0.5743456456063906 F F F Al
   0.0000000000000000    0.8364317315177914    0.6368456456063906 T T T Al
   0.6666666666666666    0.1644925787722436    0.5945199181798637 T T T Al
   0.6666666666666666    0.6644925787722435    0.6570199181798637 T T T Al
   0.6666666666666666    0.4113340769041010    0.6253751054463459 T T T Al
   0.6666666666666666    0.9113340769041011    0.5628751054463459 F F F Al
   0.3333333333333334    0.0024421811815181    0.6159302851476898 T T T Al
   0.3333333333333334    0.5024421811815182    0.6784302851476898 T T T Al
   0.3333333333333334    0.2362124807777911    0.6451515725972239 T T T Al
   0.3333333333333334    0.7362124807777911    0.5826515725972239 T T T Al
   0.0000000000000000    0.2152530248408127    0.6841983072717682 T T T Co
   0.0000000000000000    0.7152530248408128    0.6216983072717682 T T T Co
   0.0000000000000000    0.4628140784047617    0.5901434389672618 T T T Cu
   0.0000000000000000    0.9628140784047617    0.6526434389672618 T T T Cu
   0.6666666666666666    0.0383568861712078    0.5787529566047342 T T T Cu
   0.6666666666666666    0.5383568861712079    0.6412529566047342 T T T Cu
   0.6666666666666666    0.2882582959008780    0.6099906328209430 T T T Cu
   0.6666666666666666    0.7882582959008780    0.6724906328209430 T T T Cu
