Ca24 Cd12 Pt24
1.0
  11.8402992715383739    0.0000000000000000   -4.4966803677616163
   0.0000000000000014    8.5981382352284932   -4.4966803677616181
   0.0000000000000000    0.0000000000000000   31.4767625743313388
Ca Cd Pt Ca Cd Pt Ca Cd Pt
8 4 8 8 4 8 8 4 8
Selective dynamics
direct
   0.2500000000000000    0.7982794500032995    0.2890399214290428 T T T Ca
   0.7500000000000001    0.7982794500032995    0.3604684928576142 T T T Ca
   0.2500000000000000    0.2017205499967006    0.3466743642852430 T T T Ca
   0.7500000000000001    0.2017205499967006    0.4181029357138144 F F F Ca
   0.0000000000000000    0.2982794500032995    0.3961827785718999 T T T Ca
   0.5000000000000000    0.2982794500032995    0.3247542071433285 T T T Ca
   0.0000000000000000    0.7017205499967005    0.3109600785709572 T T T Ca
   0.5000000000000000    0.7017205499967005    0.3823886499995287 T T T Ca
   0.0000000000000000    0.0000000000000000    0.4250000000000000 F F F Cd
   0.5000000000000000    0.0000000000000000    0.3535714285714285 T T T Cd
   0.2500000000000000    0.5000000000000000    0.3178571428571428 T T T Cd
   0.7500000000000001    0.4999999999999999    0.3892857142857143 T T T Cd
   0.3620255469270966    0.0000000000000000    0.4052893638467281 F F F Pt
   0.8620255469270965    0.0000000000000000    0.3338607924181566 T T T Pt
   0.1379744530729035    0.0000000000000000    0.3732820647247005 T T T Pt
   0.6379744530729035    0.0000000000000000    0.3018534932961290 T T T Pt
   0.1120255469270966    0.5000000000000000    0.3695750781324424 T T T Pt
   0.6120255469270967    0.4999999999999999    0.2981465067038709 T T T Pt
   0.3879744530729035    0.5000000000000000    0.4089963504389862 F F F Pt
   0.8879744530729035    0.4999999999999999    0.3375677790104148 T T T Pt
   0.2500000000000000    0.7982794500032995    0.4318970642861856 F F F Ca
   0.7500000000000001    0.7982794500032995    0.5033256357147571 F F F Ca
   0.2500000000000000    0.2017205499967006    0.4895315071423858 F F F Ca
   0.7500000000000001    0.2017205499967006    0.5609600785709572 F F F Ca
   0.0000000000000000    0.2982794500032995    0.5390399214290428 F F F Ca
   0.5000000000000000    0.2982794500032995    0.4676113500004713 F F F Ca
   0.0000000000000000    0.7017205499967005    0.4538172214281001 F F F Ca
   0.5000000000000000    0.7017205499967005    0.5252457928566715 F F F Ca
   0.0000000000000000    0.0000000000000000    0.5678571428571428 F F F Cd
   0.5000000000000000    0.0000000000000000    0.4964285714285714 F F F Cd
   0.2500000000000000    0.5000000000000000    0.4607142857142857 F F F Cd
   0.7500000000000001    0.4999999999999999    0.5321428571428571 F F F Cd
   0.3620255469270966    0.0000000000000000    0.5481465067038709 F F F Pt
   0.8620255469270965    0.0000000000000000    0.4767179352752995 F F F Pt
   0.1379744530729035    0.0000000000000000    0.5161392075818434 F F F Pt
   0.6379744530729035    0.0000000000000000    0.4447106361532719 F F F Pt
   0.1120255469270966    0.5000000000000000    0.5124322209895852 F F F Pt
   0.6120255469270967    0.4999999999999999    0.4410036495610138 F F F Pt
   0.3879744530729035    0.5000000000000000    0.5518534932961290 F F F Pt
   0.8879744530729035    0.4999999999999999    0.4804249218675576 F F F Pt
   0.2500000000000000    0.7982794500032995    0.5747542071433285 F F F Ca
   0.7500000000000001    0.7982794500032995    0.6461827785718999 T T T Ca
   0.2500000000000000    0.2017205499967006    0.6323886499995286 T T T Ca
   0.7500000000000001    0.2017205499967006    0.7038172214281001 T T T Ca
   0.0000000000000000    0.2982794500032995    0.6818970642861857 T T T Ca
   0.5000000000000000    0.2982794500032995    0.6104684928576142 T T T Ca
   0.0000000000000000    0.7017205499967005    0.5966743642852429 F F F Ca
   0.5000000000000000    0.7017205499967005    0.6681029357138144 T T T Ca
   0.0000000000000000    0.0000000000000000    0.7107142857142856 T T T Cd
   0.5000000000000000    0.0000000000000000    0.6392857142857142 T T T Cd
   0.2500000000000000    0.5000000000000000    0.6035714285714285 T T T Cd
   0.7500000000000001    0.4999999999999999    0.6750000000000000 T T T Cd
   0.3620255469270966    0.0000000000000000    0.6910036495610138 T T T Pt
   0.8620255469270965    0.0000000000000000    0.6195750781324423 T T T Pt
   0.1379744530729035    0.0000000000000000    0.6589963504389862 T T T Pt
   0.6379744530729035    0.0000000000000000    0.5875677790104148 F F F Pt
   0.1120255469270966    0.5000000000000000    0.6552893638467281 T T T Pt
   0.6120255469270967    0.4999999999999999    0.5838607924181567 F F F Pt
   0.3879744530729035    0.5000000000000000    0.6947106361532719 T T T Pt
   0.8879744530729035    0.4999999999999999    0.6232820647247005 T T T Pt
