Sr12 Cd24 Ge24
1.0
  11.8230717917814996    0.0000000000000000    0.0000000000000007
   0.0000000000000015    9.1590130771844507   -4.5795065385922253
   0.0000000000000000    0.0000000000000000   32.0565457701455756
Sr Cd Ge Sr Cd Ge Sr Cd Ge
4 8 8 4 8 8 4 8 8
Selective dynamics
direct
   0.0000000000000000    0.4999999999999999    0.3392857142857142 T T T Sr
   0.0000000000000000    0.0000000000000000    0.4107142857142857 F F F Sr
   0.5000000000000000    0.2500000000000000    0.3750000000000000 T T T Sr
   0.5000000000000000    0.7500000000000000    0.3035714285714285 T T T Sr
   0.7500000000000000    0.4999999999999999    0.4107142857142857 F F F Cd
   0.7500000000000000    0.0000000000000000    0.3392857142857142 T T T Cd
   0.7500000000000000    0.2500000000000000    0.3035714285714285 T T T Cd
   0.7500000000000000    0.7500000000000000    0.3750000000000000 T T T Cd
   0.2500000000000000    0.2500000000000000    0.3035714285714285 T T T Cd
   0.2500000000000000    0.7500000000000000    0.3750000000000000 T T T Cd
   0.2500000000000000    0.4999999999999999    0.4107142857142857 F F F Cd
   0.2500000000000000    0.0000000000000000    0.3392857142857142 T T T Cd
   0.8916812265313183    0.2500000000000000    0.3750000000000000 T T T Ge
   0.8916812265313183    0.7500000000000000    0.3035714285714285 T T T Ge
   0.6083187734686817    0.4999999999999999    0.3392857142857142 T T T Ge
   0.6083187734686817    0.0000000000000000    0.4107142857142857 F F F Ge
   0.3916812265313183    0.4999999999999999    0.3392857142857142 T T T Ge
   0.3916812265313183    0.0000000000000000    0.4107142857142857 F F F Ge
   0.1083187734686816    0.2500000000000000    0.3750000000000000 T T T Ge
   0.1083187734686816    0.7500000000000000    0.3035714285714285 T T T Ge
   0.0000000000000000    0.4999999999999999    0.4821428571428571 F F F Sr
   0.0000000000000000    0.0000000000000000    0.5535714285714286 F F F Sr
   0.5000000000000000    0.2500000000000000    0.5178571428571428 F F F Sr
   0.5000000000000000    0.7500000000000000    0.4464285714285714 F F F Sr
   0.7500000000000000    0.4999999999999999    0.5535714285714286 F F F Cd
   0.7500000000000000    0.0000000000000000    0.4821428571428571 F F F Cd
   0.7500000000000000    0.2500000000000000    0.4464285714285714 F F F Cd
   0.7500000000000000    0.7500000000000000    0.5178571428571428 F F F Cd
   0.2500000000000000    0.2500000000000000    0.4464285714285714 F F F Cd
   0.2500000000000000    0.7500000000000000    0.5178571428571428 F F F Cd
   0.2500000000000000    0.4999999999999999    0.5535714285714286 F F F Cd
   0.2500000000000000    0.0000000000000000    0.4821428571428571 F F F Cd
   0.8916812265313183    0.2500000000000000    0.5178571428571428 F F F Ge
   0.8916812265313183    0.7500000000000000    0.4464285714285714 F F F Ge
   0.6083187734686817    0.4999999999999999    0.4821428571428571 F F F Ge
   0.6083187734686817    0.0000000000000000    0.5535714285714286 F F F Ge
   0.3916812265313183    0.4999999999999999    0.4821428571428571 F F F Ge
   0.3916812265313183    0.0000000000000000    0.5535714285714286 F F F Ge
   0.1083187734686816    0.2500000000000000    0.5178571428571428 F F F Ge
   0.1083187734686816    0.7500000000000000    0.4464285714285714 F F F Ge
   0.0000000000000000    0.4999999999999999    0.6250000000000000 T T T Sr
   0.0000000000000000    0.0000000000000000    0.6964285714285714 T T T Sr
   0.5000000000000000    0.2500000000000000    0.6607142857142857 T T T Sr
   0.5000000000000000    0.7500000000000000    0.5892857142857142 F F F Sr
   0.7500000000000000    0.4999999999999999    0.6964285714285714 T T T Cd
   0.7500000000000000    0.0000000000000000    0.6250000000000000 T T T Cd
   0.7500000000000000    0.2500000000000000    0.5892857142857142 F F F Cd
   0.7500000000000000    0.7500000000000000    0.6607142857142857 T T T Cd
   0.2500000000000000    0.2500000000000000    0.5892857142857142 F F F Cd
   0.2500000000000000    0.7500000000000000    0.6607142857142857 T T T Cd
   0.2500000000000000    0.4999999999999999    0.6964285714285714 T T T Cd
   0.2500000000000000    0.0000000000000000    0.6250000000000000 T T T Cd
   0.8916812265313183    0.2500000000000000    0.6607142857142857 T T T Ge
   0.8916812265313183    0.7500000000000000    0.5892857142857142 F F F Ge
   0.6083187734686817    0.4999999999999999    0.6250000000000000 T T T Ge
   0.6083187734686817    0.0000000000000000    0.6964285714285714 T T T Ge
   0.3916812265313183    0.4999999999999999    0.6250000000000000 T T T Ge
   0.3916812265313183    0.0000000000000000    0.6964285714285714 T T T Ge
   0.1083187734686816    0.2500000000000000    0.6607142857142857 T T T Ge
   0.1083187734686816    0.7500000000000000    0.5892857142857142 F F F Ge
