Ca8 Mg8 Cd16
1.0
   7.3275471835953274    0.0000000000000000    0.0000000000000004
   0.0000000000000012    7.3275471835953274    0.0000000000000004
   0.0000000000000000    0.0000000000000000   36.6377359179766344
Ca Mg Cd Ca Mg Cd
4 4 8 4 4 8
Selective dynamics
direct
   0.0000000000000000    0.0000000000000000    0.3750000000000000 T T T Ca
   0.5000000000000000    0.5000000000000000    0.3750000000000000 T T T Ca
   0.0000000000000000    0.5000000000000000    0.4750000000000000 F F F Ca
   0.5000000000000000    0.0000000000000000    0.4750000000000000 F F F Ca
   0.0000000000000000    0.0000000000000000    0.4750000000000000 F F F Mg
   0.5000000000000000    0.5000000000000000    0.4750000000000000 F F F Mg
   0.0000000000000000    0.5000000000000000    0.3750000000000000 T T T Mg
   0.5000000000000000    0.0000000000000000    0.3750000000000000 T T T Mg
   0.2500000000000000    0.7500000000000001    0.3250000000000000 T T T Cd
   0.7500000000000000    0.7500000000000000    0.3250000000000000 T T T Cd
   0.7500000000000000    0.2500000000000000    0.3250000000000000 T T T Cd
   0.2500000000000000    0.2500000000000000    0.3250000000000000 T T T Cd
   0.2500000000000000    0.2500000000000000    0.4250000000000000 F F F Cd
   0.7500000000000000    0.2500000000000000    0.4250000000000000 F F F Cd
   0.7500000000000000    0.7500000000000000    0.4250000000000000 F F F Cd
   0.2500000000000000    0.7500000000000000    0.4250000000000000 F F F Cd
   0.0000000000000000    0.0000000000000000    0.5750000000000000 F F F Ca
   0.5000000000000000    0.5000000000000000    0.5750000000000000 F F F Ca
   0.0000000000000000    0.5000000000000000    0.6750000000000000 T T T Ca
   0.5000000000000000    0.0000000000000000    0.6750000000000000 T T T Ca
   0.0000000000000000    0.0000000000000000    0.6750000000000000 T T T Mg
   0.5000000000000000    0.5000000000000000    0.6750000000000000 T T T Mg
   0.0000000000000000    0.5000000000000000    0.5750000000000000 F F F Mg
   0.5000000000000000    0.0000000000000000    0.5750000000000000 F F F Mg
   0.2500000000000000    0.7500000000000001    0.5250000000000000 F F F Cd
   0.7500000000000000    0.7500000000000000    0.5250000000000000 F F F Cd
   0.7500000000000000    0.2500000000000000    0.5250000000000000 F F F Cd
   0.2500000000000000    0.2500000000000000    0.5250000000000000 F F F Cd
   0.2500000000000000    0.2500000000000000    0.6250000000000000 T T T Cd
   0.7500000000000000    0.2500000000000000    0.6250000000000000 T T T Cd
   0.7500000000000000    0.7500000000000000    0.6250000000000000 T T T Cd
   0.2500000000000000    0.7500000000000000    0.6250000000000000 T T T Cd
