Zr36 Cu6 Bi12
1.0
   7.8554702006694903    0.0000000000000000    0.0000000000000005
   7.8554702006694876   13.6060735049028434    3.8059777033430651
   0.0000000000000000    0.0000000000000000   30.4478216267445312
Zr Cu Bi Zr Cu Bi Zr Cu Bi
12 2 4 12 2 4 12 2 4
Selective dynamics
direct
   0.3945218992980485    0.3027390503509758    0.3267409520394614 T T T Zr
   0.3945218992980485    0.8027390503509757    0.3892409520394614 T T T Zr
   0.0000000000000000    0.1972609496490242    0.3399257146272053 T T T Zr
   0.0000000000000000    0.6972609496490243    0.4024257146272053 T T T Zr
   0.6054781007019515    0.5000000000000000    0.4270833333333334 F F F Zr
   0.6054781007019515    0.0000000000000000    0.3645833333333334 T T T Zr
   0.7620026191290775    0.1189986904354612    0.4122084970289007 T T T Zr
   0.7620026191290776    0.6189986904354612    0.3497084970289007 T T T Zr
   0.0000000000000000    0.3810013095645388    0.3794581696377660 T T T Zr
   0.0000000000000000    0.8810013095645387    0.3169581696377660 T T T Zr
   0.2379973808709224    0.4999999999999999    0.3645833333333334 T T T Zr
   0.2379973808709225    0.0000000000000000    0.4270833333333334 F F F Zr
   0.0000000000000000    0.5000000000000000    0.4270833333333334 F F F Cu
   0.0000000000000000    0.0000000000000000    0.3645833333333334 T T T Cu
   0.3333333333333333    0.1666666666666667    0.4062500000000000 T T T Bi
   0.3333333333333333    0.6666666666666667    0.3437500000000000 T T T Bi
   0.6666666666666665    0.3333333333333333    0.3854166666666667 T T T Bi
   0.6666666666666666    0.8333333333333334    0.3229166666666667 T T T Bi
   0.3945218992980485    0.3027390503509758    0.4517409520394614 F F F Zr
   0.3945218992980485    0.8027390503509757    0.5142409520394614 F F F Zr
   0.0000000000000000    0.1972609496490242    0.4649257146272053 F F F Zr
   0.0000000000000000    0.6972609496490243    0.5274257146272053 F F F Zr
   0.6054781007019515    0.5000000000000000    0.5520833333333334 F F F Zr
   0.6054781007019515    0.0000000000000000    0.4895833333333334 F F F Zr
   0.7620026191290775    0.1189986904354612    0.5372084970289007 F F F Zr
   0.7620026191290776    0.6189986904354612    0.4747084970289007 F F F Zr
   0.0000000000000000    0.3810013095645388    0.5044581696377660 F F F Zr
   0.0000000000000000    0.8810013095645387    0.4419581696377660 F F F Zr
   0.2379973808709224    0.4999999999999999    0.4895833333333334 F F F Zr
   0.2379973808709225    0.0000000000000000    0.5520833333333334 F F F Zr
   0.0000000000000000    0.5000000000000000    0.5520833333333334 F F F Cu
   0.0000000000000000    0.0000000000000000    0.4895833333333334 F F F Cu
   0.3333333333333333    0.1666666666666667    0.5312500000000000 F F F Bi
   0.3333333333333333    0.6666666666666667    0.4687500000000000 F F F Bi
   0.6666666666666665    0.3333333333333333    0.5104166666666667 F F F Bi
   0.6666666666666666    0.8333333333333334    0.4479166666666667 F F F Bi
   0.3945218992980485    0.3027390503509758    0.5767409520394614 T T T Zr
   0.3945218992980485    0.8027390503509757    0.6392409520394614 T T T Zr
   0.0000000000000000    0.1972609496490242    0.5899257146272053 T T T Zr
   0.0000000000000000    0.6972609496490243    0.6524257146272053 T T T Zr
   0.6054781007019515    0.5000000000000000    0.6770833333333334 T T T Zr
   0.6054781007019515    0.0000000000000000    0.6145833333333334 T T T Zr
   0.7620026191290775    0.1189986904354612    0.6622084970289007 T T T Zr
   0.7620026191290776    0.6189986904354612    0.5997084970289007 T T T Zr
   0.0000000000000000    0.3810013095645388    0.6294581696377660 T T T Zr
   0.0000000000000000    0.8810013095645387    0.5669581696377660 F F F Zr
   0.2379973808709224    0.4999999999999999    0.6145833333333334 T T T Zr
   0.2379973808709225    0.0000000000000000    0.6770833333333334 T T T Zr
   0.0000000000000000    0.5000000000000000    0.6770833333333334 T T T Cu
   0.0000000000000000    0.0000000000000000    0.6145833333333334 T T T Cu
   0.3333333333333333    0.1666666666666667    0.6562500000000000 T T T Bi
   0.3333333333333333    0.6666666666666667    0.5937500000000000 T T T Bi
   0.6666666666666665    0.3333333333333333    0.6354166666666667 T T T Bi
   0.6666666666666666    0.8333333333333334    0.5729166666666667 F F F Bi
