Zr10 Co20 Si20
1.0
   3.7441088549995731    0.0000000000000000   -3.7441088549995722
   0.0000000000000016    9.6638333595362145   -7.4882177099991454
   0.0000000000000000    0.0000000000000000   44.9293062599948740
Zr Co Si Zr Co Si Zr Co Si Zr Co Si Zr Co Si
2 4 4 2 4 4 2 4 4 2 4 4 2 4 4
Selective dynamics
direct
   0.0000000000000000    0.0000000000000000    0.3500000000000000 T T T Zr
   0.5000000000000000    0.4999999999999999    0.3500000000000000 T T T Zr
   0.5000000000000000    0.2500000000000000    0.3500000000000000 T T T Co
   0.0000000000000000    0.2500000000000000    0.3500000000000000 T T T Co
   0.0000000000000000    0.7500000000000000    0.3500000000000000 T T T Co
   0.5000000000000000    0.7500000000000000    0.3500000000000000 T T T Co
   0.0000000000000000    0.3778651233080126    0.3296441872180021 T T T Si
   0.5000000000000000    0.1221348766919874    0.2870224794486646 T T T Si
   0.5000000000000000    0.8778651233080126    0.3296441872180021 T T T Si
   0.0000000000000000    0.6221348766919874    0.2870224794486646 T T T Si
   0.0000000000000000    0.0000000000000000    0.4333333333333333 F F F Zr
   0.5000000000000000    0.4999999999999999    0.4333333333333333 F F F Zr
   0.5000000000000000    0.2500000000000000    0.4333333333333333 F F F Co
   0.0000000000000000    0.2500000000000000    0.4333333333333333 F F F Co
   0.0000000000000000    0.7500000000000000    0.4333333333333333 F F F Co
   0.5000000000000000    0.7500000000000000    0.4333333333333333 F F F Co
   0.0000000000000000    0.3778651233080126    0.4129775205513354 F F F Si
   0.5000000000000000    0.1221348766919874    0.3703558127819979 T T T Si
   0.5000000000000000    0.8778651233080126    0.4129775205513354 F F F Si
   0.0000000000000000    0.6221348766919874    0.3703558127819979 T T T Si
   0.0000000000000000    0.0000000000000000    0.5166666666666666 F F F Zr
   0.5000000000000000    0.4999999999999999    0.5166666666666666 F F F Zr
   0.5000000000000000    0.2500000000000000    0.5166666666666666 F F F Co
   0.0000000000000000    0.2500000000000000    0.5166666666666666 F F F Co
   0.0000000000000000    0.7500000000000000    0.5166666666666666 F F F Co
   0.5000000000000000    0.7500000000000000    0.5166666666666666 F F F Co
   0.0000000000000000    0.3778651233080126    0.4963108538846688 F F F Si
   0.5000000000000000    0.1221348766919874    0.4536891461153312 F F F Si
   0.5000000000000000    0.8778651233080126    0.4963108538846688 F F F Si
   0.0000000000000000    0.6221348766919874    0.4536891461153312 F F F Si
   0.0000000000000000    0.0000000000000000    0.6000000000000001 T T T Zr
   0.5000000000000000    0.4999999999999999    0.6000000000000001 T T T Zr
   0.5000000000000000    0.2500000000000000    0.6000000000000001 T T T Co
   0.0000000000000000    0.2500000000000000    0.6000000000000001 T T T Co
   0.0000000000000000    0.7500000000000000    0.6000000000000001 T T T Co
   0.5000000000000000    0.7500000000000000    0.6000000000000001 T T T Co
   0.0000000000000000    0.3778651233080126    0.5796441872180020 T T T Si
   0.5000000000000000    0.1221348766919874    0.5370224794486647 F F F Si
   0.5000000000000000    0.8778651233080126    0.5796441872180020 T T T Si
   0.0000000000000000    0.6221348766919874    0.5370224794486647 F F F Si
   0.0000000000000000    0.0000000000000000    0.6833333333333333 T T T Zr
   0.5000000000000000    0.4999999999999999    0.6833333333333333 T T T Zr
   0.5000000000000000    0.2500000000000000    0.6833333333333333 T T T Co
   0.0000000000000000    0.2500000000000000    0.6833333333333333 T T T Co
   0.0000000000000000    0.7500000000000000    0.6833333333333333 T T T Co
   0.5000000000000000    0.7500000000000000    0.6833333333333333 T T T Co
   0.0000000000000000    0.3778651233080126    0.6629775205513354 T T T Si
   0.5000000000000000    0.1221348766919874    0.6203558127819979 T T T Si
   0.5000000000000000    0.8778651233080126    0.6629775205513354 T T T Si
   0.0000000000000000    0.6221348766919874    0.6203558127819979 T T T Si
