Hf18 Mn18 Ge18
1.0
   6.6980187181931017    0.0000000000000000    0.0000000000000004
   6.6980187181930990   11.6013087299578181    3.7760746446835354
   0.0000000000000000    0.0000000000000000   30.2085971574682830
Hf Mn Ge Hf Mn Ge Hf Mn Ge
6 6 6 6 6 6 6 6 6
Selective dynamics
direct
   0.4130709213042608    0.5000000000000000    0.4131944444444445 T T T Hf
   0.4130709213042607    0.0000000000000000    0.3506944444444445 T T T Hf
   0.5869290786957393    0.2065354606521303    0.3248775118629282 T T T Hf
   0.5869290786957393    0.7065354606521304    0.3873775118629282 T T T Hf
   0.0000000000000000    0.2934645393478696    0.3140113770259608 T T T Hf
   0.0000000000000000    0.7934645393478696    0.3765113770259608 T T T Hf
   0.7557994170059955    0.4999999999999999    0.3506944444444445 T T T Mn
   0.7557994170059956    0.0000000000000000    0.4131944444444445 T T T Mn
   0.2442005829940044    0.3778997085029978    0.3659569808815698 T T T Mn
   0.2442005829940044    0.8778997085029978    0.4284569808815698 F F F Mn
   0.0000000000000000    0.1221002914970022    0.3979319080073193 T T T Mn
   0.0000000000000000    0.6221002914970022    0.3354319080073193 T T T Mn
   0.6666666666666665    0.3333333333333333    0.3715277777777778 T T T Ge
   0.6666666666666666    0.8333333333333333    0.4340277777777778 F F F Ge
   0.3333333333333333    0.1666666666666667    0.3923611111111112 T T T Ge
   0.3333333333333333    0.6666666666666667    0.3298611111111112 T T T Ge
   0.0000000000000000    0.5000000000000000    0.4131944444444445 T T T Ge
   0.0000000000000000    0.0000000000000000    0.3506944444444445 T T T Ge
   0.4130709213042608    0.5000000000000000    0.5381944444444444 F F F Hf
   0.4130709213042607    0.0000000000000000    0.4756944444444445 F F F Hf
   0.5869290786957393    0.2065354606521303    0.4498775118629282 F F F Hf
   0.5869290786957393    0.7065354606521304    0.5123775118629282 F F F Hf
   0.0000000000000000    0.2934645393478696    0.4390113770259608 F F F Hf
   0.0000000000000000    0.7934645393478696    0.5015113770259608 F F F Hf
   0.7557994170059955    0.4999999999999999    0.4756944444444445 F F F Mn
   0.7557994170059956    0.0000000000000000    0.5381944444444445 F F F Mn
   0.2442005829940044    0.3778997085029978    0.4909569808815698 F F F Mn
   0.2442005829940044    0.8778997085029978    0.5534569808815698 F F F Mn
   0.0000000000000000    0.1221002914970022    0.5229319080073193 F F F Mn
   0.0000000000000000    0.6221002914970022    0.4604319080073193 F F F Mn
   0.6666666666666665    0.3333333333333333    0.4965277777777778 F F F Ge
   0.6666666666666666    0.8333333333333333    0.5590277777777779 F F F Ge
   0.3333333333333333    0.1666666666666667    0.5173611111111112 F F F Ge
   0.3333333333333333    0.6666666666666667    0.4548611111111112 F F F Ge
   0.0000000000000000    0.5000000000000000    0.5381944444444444 F F F Ge
   0.0000000000000000    0.0000000000000000    0.4756944444444445 F F F Ge
   0.4130709213042608    0.5000000000000000    0.6631944444444444 T T T Hf
   0.4130709213042607    0.0000000000000000    0.6006944444444445 T T T Hf
   0.5869290786957393    0.2065354606521303    0.5748775118629281 F F F Hf
   0.5869290786957393    0.7065354606521304    0.6373775118629282 T T T Hf
   0.0000000000000000    0.2934645393478696    0.5640113770259607 F F F Hf
   0.0000000000000000    0.7934645393478696    0.6265113770259608 T T T Hf
   0.7557994170059955    0.4999999999999999    0.6006944444444445 T T T Mn
   0.7557994170059956    0.0000000000000000    0.6631944444444445 T T T Mn
   0.2442005829940044    0.3778997085029978    0.6159569808815698 T T T Mn
   0.2442005829940044    0.8778997085029978    0.6784569808815698 T T T Mn
   0.0000000000000000    0.1221002914970022    0.6479319080073193 T T T Mn
   0.0000000000000000    0.6221002914970022    0.5854319080073193 T T T Mn
   0.6666666666666665    0.3333333333333333    0.6215277777777779 T T T Ge
   0.6666666666666666    0.8333333333333333    0.6840277777777779 T T T Ge
   0.3333333333333333    0.1666666666666667    0.6423611111111112 T T T Ge
   0.3333333333333333    0.6666666666666667    0.5798611111111112 T T T Ge
   0.0000000000000000    0.5000000000000000    0.6631944444444444 T T T Ge
   0.0000000000000000    0.0000000000000000    0.6006944444444445 T T T Ge
