Hf12 Mn12 Ge12
1.0
   6.6980187181931017    0.0000000000000000    0.0000000000000004
   3.3490093590965500    5.8006543649789100    3.7760746446835349
   0.0000000000000000    0.0000000000000000   33.9846718021518157
Hf Mn Ge Hf Mn Ge Hf Mn Ge Hf Mn Ge
3 3 3 3 3 3 3 3 3 3 3 3
Selective dynamics
direct
   0.4130709213042608    0.0000000000000000    0.3271604938271605 T T T Hf
   0.5869290786957394    0.4130709213042607    0.2812637247933538 T T T Hf
   0.0000000000000000    0.5869290786957393    0.3730572628609673 T T T Hf
   0.7557994170059957    0.0000000000000000    0.3827160493827161 T T T Mn
   0.2442005829940044    0.7557994170059956    0.2987383363820499 T T T Mn
   0.0000000000000000    0.2442005829940044    0.3555826512722712 T T T Mn
   0.6666666666666666    0.6666666666666667    0.3086419753086420 T T T Ge
   0.3333333333333334    0.3333333333333334    0.3456790123456790 T T T Ge
   0.0000000000000000    0.0000000000000000    0.3271604938271605 T T T Ge
   0.4130709213042608    0.0000000000000000    0.4382716049382717 F F F Hf
   0.5869290786957394    0.4130709213042607    0.3923748359044649 F F F Hf
   0.0000000000000000    0.5869290786957393    0.4841683739720783 F F F Hf
   0.7557994170059957    0.0000000000000000    0.4938271604938272 F F F Mn
   0.2442005829940044    0.7557994170059956    0.4098494474931610 F F F Mn
   0.0000000000000000    0.2442005829940044    0.4666937623833822 F F F Mn
   0.6666666666666666    0.6666666666666667    0.4197530864197531 F F F Ge
   0.3333333333333334    0.3333333333333334    0.4567901234567902 F F F Ge
   0.0000000000000000    0.0000000000000000    0.4382716049382717 F F F Ge
   0.4130709213042608    0.0000000000000000    0.5493827160493827 F F F Hf
   0.5869290786957394    0.4130709213042607    0.5034859470155759 F F F Hf
   0.0000000000000000    0.5869290786957393    0.5952794850831895 F F F Hf
   0.7557994170059957    0.0000000000000000    0.6049382716049383 F F F Mn
   0.2442005829940044    0.7557994170059956    0.5209605586042720 F F F Mn
   0.0000000000000000    0.2442005829940044    0.5778048734944934 F F F Mn
   0.6666666666666666    0.6666666666666667    0.5308641975308642 F F F Ge
   0.3333333333333334    0.3333333333333334    0.5679012345679013 F F F Ge
   0.0000000000000000    0.0000000000000000    0.5493827160493827 F F F Ge
   0.4130709213042608    0.0000000000000000    0.6604938271604939 T T T Hf
   0.5869290786957394    0.4130709213042607    0.6145970581266871 T T T Hf
   0.0000000000000000    0.5869290786957393    0.7063905961943007 T T T Hf
   0.7557994170059957    0.0000000000000000    0.7160493827160495 T T T Mn
   0.2442005829940044    0.7557994170059956    0.6320716697153832 T T T Mn
   0.0000000000000000    0.2442005829940044    0.6889159846056045 T T T Mn
   0.6666666666666666    0.6666666666666667    0.6419753086419753 T T T Ge
   0.3333333333333334    0.3333333333333334    0.6790123456790124 T T T Ge
   0.0000000000000000    0.0000000000000000    0.6604938271604939 T T T Ge
