Ba12 Sn36 Pd12
1.0
   4.9740284764512772    0.0000000000000000    4.9740284764512763
   4.9740284764512737   22.6551525763133377    0.0000000000000014
   0.0000000000000000    0.0000000000000000   39.7922278116102177
Ba Sn Pd Ba Sn Pd Ba Sn Pd
4 12 4 4 12 4 4 12 4
Selective dynamics
direct
   0.4999883534309613    0.5000116465690388    0.3711014249461300 T T T Ba
   0.9999883534309612    0.0000116465690389    0.4336014249461300 F F F Ba
   0.7499883534309613    0.7500116465690387    0.4023514249461300 T T T Ba
   0.2499883534309610    0.2500116465690387    0.3398514249461300 T T T Ba
   0.8751892362714921    0.6248107637285080    0.3242013145910637 T T T Sn
   0.3751892362714919    0.1248107637285080    0.3867013145910637 T T T Sn
   0.2936609240841294    0.7063390759158708    0.3968923536144840 T T T Sn
   0.7936609240841292    0.2063390759158707    0.3343923536144840 T T T Sn
   0.3751892362714921    0.6248107637285080    0.3242013145910637 T T T Sn
   0.8751892362714919    0.1248107637285080    0.3867013145910637 T T T Sn
   0.1251892362714923    0.8748107637285079    0.3554513145910636 T T T Sn
   0.6251892362714919    0.3748107637285080    0.4179513145910637 T T T Sn
   0.5436609240841292    0.9563390759158706    0.4281423536144840 F F F Sn
   0.0436609240841292    0.4563390759158705    0.3656423536144840 T T T Sn
   0.6251892362714923    0.8748107637285079    0.3554513145910636 T T T Sn
   0.1251892362714919    0.3748107637285079    0.4179513145910637 T T T Sn
   0.9249710149419316    0.5750289850580684    0.3804785922572587 T T T Pd
   0.4249710149419315    0.0750289850580684    0.3179785922572587 T T T Pd
   0.1749710149419316    0.8250289850580685    0.4117285922572587 T T T Pd
   0.6749710149419315    0.3250289850580685    0.3492285922572587 T T T Pd
   0.4999883534309613    0.5000116465690388    0.4961014249461300 F F F Ba
   0.9999883534309612    0.0000116465690389    0.5586014249461300 F F F Ba
   0.7499883534309613    0.7500116465690387    0.5273514249461300 F F F Ba
   0.2499883534309610    0.2500116465690387    0.4648514249461300 F F F Ba
   0.8751892362714921    0.6248107637285080    0.4492013145910636 F F F Sn
   0.3751892362714919    0.1248107637285080    0.5117013145910636 F F F Sn
   0.2936609240841294    0.7063390759158708    0.5218923536144839 F F F Sn
   0.7936609240841292    0.2063390759158707    0.4593923536144840 F F F Sn
   0.3751892362714921    0.6248107637285080    0.4492013145910636 F F F Sn
   0.8751892362714919    0.1248107637285080    0.5117013145910636 F F F Sn
   0.1251892362714923    0.8748107637285079    0.4804513145910636 F F F Sn
   0.6251892362714919    0.3748107637285080    0.5429513145910636 F F F Sn
   0.5436609240841292    0.9563390759158706    0.5531423536144839 F F F Sn
   0.0436609240841292    0.4563390759158705    0.4906423536144840 F F F Sn
   0.6251892362714923    0.8748107637285079    0.4804513145910636 F F F Sn
   0.1251892362714919    0.3748107637285079    0.5429513145910636 F F F Sn
   0.9249710149419316    0.5750289850580684    0.5054785922572587 F F F Pd
   0.4249710149419315    0.0750289850580684    0.4429785922572587 F F F Pd
   0.1749710149419316    0.8250289850580685    0.5367285922572587 F F F Pd
   0.6749710149419315    0.3250289850580685    0.4742285922572587 F F F Pd
   0.4999883534309613    0.5000116465690388    0.6211014249461300 T T T Ba
   0.9999883534309612    0.0000116465690389    0.6836014249461300 T T T Ba
   0.7499883534309613    0.7500116465690387    0.6523514249461300 T T T Ba
   0.2499883534309610    0.2500116465690387    0.5898514249461300 T T T Ba
   0.8751892362714921    0.6248107637285080    0.5742013145910636 F F F Sn
   0.3751892362714919    0.1248107637285080    0.6367013145910636 T T T Sn
   0.2936609240841294    0.7063390759158708    0.6468923536144839 T T T Sn
   0.7936609240841292    0.2063390759158707    0.5843923536144839 T T T Sn
   0.3751892362714921    0.6248107637285080    0.5742013145910636 F F F Sn
   0.8751892362714919    0.1248107637285080    0.6367013145910636 T T T Sn
   0.1251892362714923    0.8748107637285079    0.6054513145910636 T T T Sn
   0.6251892362714919    0.3748107637285080    0.6679513145910636 T T T Sn
   0.5436609240841292    0.9563390759158706    0.6781423536144839 T T T Sn
   0.0436609240841292    0.4563390759158705    0.6156423536144839 T T T Sn
   0.6251892362714923    0.8748107637285079    0.6054513145910636 T T T Sn
   0.1251892362714919    0.3748107637285079    0.6679513145910636 T T T Sn
   0.9249710149419316    0.5750289850580684    0.6304785922572587 T T T Pd
   0.4249710149419315    0.0750289850580684    0.5679785922572587 F F F Pd
   0.1749710149419316    0.8250289850580685    0.6617285922572587 T T T Pd
   0.6749710149419315    0.3250289850580685    0.5992285922572587 T T T Pd
