Ba8 Sn24 Pd8
1.0
   4.9740284764512772    0.0000000000000000   -4.9740284764512763
   0.0000000000000018   11.3275762881566724   -9.9480569529025509
   0.0000000000000000    0.0000000000000000   49.7402847645127721
Ba Sn Pd Ba Sn Pd Ba Sn Pd Ba Sn Pd
2 6 2 2 6 2 2 6 2 2 6 2
Selective dynamics
direct
   0.0000000000000000    0.0000232931380778    0.3275245598276160 T T T Ba
   0.5000000000000000    0.5000232931380778    0.3275245598276160 T T T Ba
   0.0000000000000000    0.2496215274570162    0.3274442066914037 T T T Sn
   0.0000000000000000    0.4126781518317415    0.4100555315663488 T T T Sn
   0.5000000000000000    0.2496215274570162    0.3274442066914037 T T T Sn
   0.5000000000000000    0.7496215274570162    0.3274442066914037 T T T Sn
   0.5000000000000000    0.9126781518317415    0.4100555315663488 T T T Sn
   0.0000000000000000    0.7496215274570162    0.3274442066914037 T T T Sn
   0.5000000000000000    0.1500579701161371    0.3575314952232279 T T T Pd
   0.0000000000000000    0.6500579701161371    0.3575314952232279 T T T Pd
   0.0000000000000000    0.0000232931380778    0.4275245598276160 T T T Ba
   0.5000000000000000    0.5000232931380778    0.4275245598276161 T T T Ba
   0.0000000000000000    0.2496215274570162    0.4274442066914037 T T T Sn
   0.0000000000000000    0.4126781518317415    0.5100555315663488 F F F Sn
   0.5000000000000000    0.2496215274570162    0.4274442066914037 T T T Sn
   0.5000000000000000    0.7496215274570162    0.4274442066914037 T T T Sn
   0.5000000000000000    0.9126781518317415    0.5100555315663488 F F F Sn
   0.0000000000000000    0.7496215274570162    0.4274442066914037 T T T Sn
   0.5000000000000000    0.1500579701161371    0.4575314952232279 F F F Pd
   0.0000000000000000    0.6500579701161371    0.4575314952232279 F F F Pd
   0.0000000000000000    0.0000232931380778    0.5275245598276160 F F F Ba
   0.5000000000000000    0.5000232931380778    0.5275245598276160 F F F Ba
   0.0000000000000000    0.2496215274570162    0.5274442066914037 F F F Sn
   0.0000000000000000    0.4126781518317415    0.6100555315663487 T T T Sn
   0.5000000000000000    0.2496215274570162    0.5274442066914037 F F F Sn
   0.5000000000000000    0.7496215274570162    0.5274442066914037 F F F Sn
   0.5000000000000000    0.9126781518317415    0.6100555315663487 T T T Sn
   0.0000000000000000    0.7496215274570162    0.5274442066914037 F F F Sn
   0.5000000000000000    0.1500579701161371    0.5575314952232279 F F F Pd
   0.0000000000000000    0.6500579701161371    0.5575314952232279 F F F Pd
   0.0000000000000000    0.0000232931380778    0.6275245598276160 T T T Ba
   0.5000000000000000    0.5000232931380778    0.6275245598276160 T T T Ba
   0.0000000000000000    0.2496215274570162    0.6274442066914037 T T T Sn
   0.0000000000000000    0.4126781518317415    0.7100555315663488 T T T Sn
   0.5000000000000000    0.2496215274570162    0.6274442066914037 T T T Sn
   0.5000000000000000    0.7496215274570162    0.6274442066914037 T T T Sn
   0.5000000000000000    0.9126781518317415    0.7100555315663488 T T T Sn
   0.0000000000000000    0.7496215274570162    0.6274442066914037 T T T Sn
   0.5000000000000000    0.1500579701161371    0.6575314952232278 T T T Pd
   0.0000000000000000    0.6500579701161371    0.6575314952232278 T T T Pd
