Y4 Cu4 As8
1.0
   3.9092099792940189    0.0000000000000000    0.0000000000000002
   0.0000000000000006    3.9092099792940189    0.0000000000000002
   0.0000000000000000    0.0000000000000000   39.6185549395228236
Y Cu As Y Cu As
2 2 4 2 2 4
Selective dynamics
direct
   0.0000000000000000    0.5000000000000000    0.4095422999003864 F F F Y
   0.5000000000000000    0.0000000000000000    0.2779577000996136 T T T Y
   0.5000000000000000    0.5000000000000000    0.3437500000000000 T T T Cu
   0.0000000000000000    0.0000000000000000    0.3437500000000000 T T T Cu
   0.0000000000000000    0.0000000000000000    0.4687500000000000 F F F As
   0.5000000000000000    0.5000000000000000    0.4687500000000000 F F F As
   0.0000000000000000    0.5000000000000000    0.3036625726680544 T T T As
   0.5000000000000000    0.0000000000000000    0.3838374273319456 F F F As
   0.0000000000000000    0.5000000000000000    0.6595422999003864 T T T Y
   0.5000000000000000    0.0000000000000000    0.5279577000996136 F F F Y
   0.5000000000000000    0.5000000000000000    0.5937500000000000 F F F Cu
   0.0000000000000000    0.0000000000000000    0.5937500000000000 F F F Cu
   0.0000000000000000    0.0000000000000000    0.7187500000000000 T T T As
   0.5000000000000000    0.5000000000000000    0.7187500000000000 T T T As
   0.0000000000000000    0.5000000000000000    0.5536625726680544 F F F As
   0.5000000000000000    0.0000000000000000    0.6338374273319456 F F F As
