Y18 Mg18 In18
1.0
   4.6798136586158554    0.0000000000000000    0.0000000000000003
   0.0000000000000021   13.0691242852245857  -15.0909248482941827
   0.0000000000000000    0.0000000000000000   52.8182369690296341
Y Mg In Y Mg In Y Mg In
6 6 6 6 6 6 6 6 6
Selective dynamics
direct
   0.0000000000000000    0.4999999999999999    0.4072426816728241 F F F Y
   0.0000000000000000    0.0000000000000000    0.3358141102442526 T T T Y
   0.0000000000000000    0.2829839474784492    0.3950883584431449 F F F Y
   0.0000000000000000    0.7829839474784492    0.3236597870145735 T T T Y
   0.0000000000000000    0.2170160525215507    0.3048118170268882 T T T Y
   0.0000000000000000    0.7170160525215508    0.3762403884554597 T T T Y
   0.5000000000000000    0.1210250263503276    0.3256773922453786 T T T Mg
   0.5000000000000000    0.6210250263503276    0.3971059636739500 F F F Mg
   0.5000000000000000    0.3789749736496723    0.3279488057594770 T T T Mg
   0.5000000000000000    0.8789749736496723    0.3993773771880484 F F F Mg
   0.5000000000000000    0.5000000000000000    0.3106595162808587 T T T Mg
   0.5000000000000000    0.0000000000000000    0.3820880877094302 T T T Mg
   0.5000000000000000    0.1666666666666667    0.3928571428571429 F F F In
   0.5000000000000000    0.6666666666666667    0.3214285714285715 T T T In
   0.5000000000000000    0.3333333333333334    0.3690476190476191 T T T In
   0.5000000000000000    0.8333333333333334    0.2976190476190477 T T T In
   0.0000000000000000    0.5000000000000000    0.3452380952380952 T T T In
   0.0000000000000000    0.0000000000000000    0.4166666666666667 F F F In
   0.0000000000000000    0.4999999999999999    0.5500998245299669 F F F Y
   0.0000000000000000    0.0000000000000000    0.4786712531013955 F F F Y
   0.0000000000000000    0.2829839474784492    0.5379455013002878 F F F Y
   0.0000000000000000    0.7829839474784492    0.4665169298717164 F F F Y
   0.0000000000000000    0.2170160525215507    0.4476689598840311 F F F Y
   0.0000000000000000    0.7170160525215508    0.5190975313126025 F F F Y
   0.5000000000000000    0.1210250263503276    0.4685345351025214 F F F Mg
   0.5000000000000000    0.6210250263503276    0.5399631065310928 F F F Mg
   0.5000000000000000    0.3789749736496723    0.4708059486166198 F F F Mg
   0.5000000000000000    0.8789749736496723    0.5422345200451912 F F F Mg
   0.5000000000000000    0.5000000000000000    0.4535166591380017 F F F Mg
   0.5000000000000000    0.0000000000000000    0.5249452305665731 F F F Mg
   0.5000000000000000    0.1666666666666667    0.5357142857142858 F F F In
   0.5000000000000000    0.6666666666666667    0.4642857142857143 F F F In
   0.5000000000000000    0.3333333333333334    0.5119047619047619 F F F In
   0.5000000000000000    0.8333333333333334    0.4404761904761905 F F F In
   0.0000000000000000    0.5000000000000000    0.4880952380952381 F F F In
   0.0000000000000000    0.0000000000000000    0.5595238095238095 F F F In
   0.0000000000000000    0.4999999999999999    0.6929569673871097 T T T Y
   0.0000000000000000    0.0000000000000000    0.6215283959585383 T T T Y
   0.0000000000000000    0.2829839474784492    0.6808026441574306 T T T Y
   0.0000000000000000    0.7829839474784492    0.6093740727288592 F F F Y
   0.0000000000000000    0.2170160525215507    0.5905261027411739 F F F Y
   0.0000000000000000    0.7170160525215508    0.6619546741697453 T T T Y
   0.5000000000000000    0.1210250263503276    0.6113916779596642 F F F Mg
   0.5000000000000000    0.6210250263503276    0.6828202493882357 T T T Mg
   0.5000000000000000    0.3789749736496723    0.6136630914737626 F F F Mg
   0.5000000000000000    0.8789749736496723    0.6850916629023341 T T T Mg
   0.5000000000000000    0.5000000000000000    0.5963738019951444 F F F Mg
   0.5000000000000000    0.0000000000000000    0.6678023734237160 T T T Mg
   0.5000000000000000    0.1666666666666667    0.6785714285714286 T T T In
   0.5000000000000000    0.6666666666666667    0.6071428571428572 F F F In
   0.5000000000000000    0.3333333333333334    0.6547619047619048 T T T In
   0.5000000000000000    0.8333333333333334    0.5833333333333334 F F F In
   0.0000000000000000    0.5000000000000000    0.6309523809523809 T T T In
   0.0000000000000000    0.0000000000000000    0.7023809523809523 T T T In
