Y18 In18 Pt18
1.0
  13.2318002022105503    0.0000000000000000    0.0000000000000008
   0.0000000000000012    7.6393834086096062   -3.9282687856149336
   0.0000000000000000    0.0000000000000000   31.4261502849194727
Y In Pt Y In Pt Y In Pt
6 6 6 6 6 6 6 6 6
Selective dynamics
direct
   0.5000000000000000    0.0931629960349980    0.3484509300599303 T T T Y
   0.0000000000000000    0.5931629960349980    0.4109509300599303 T T T Y
   0.2965814980174990    0.7034185019825010    0.4247328683033681 T T T Y
   0.7965814980174990    0.2034185019825010    0.3622328683033681 T T T Y
   0.2034185019825010    0.2034185019825010    0.3622328683033681 T T T Y
   0.7034185019825010    0.7034185019825010    0.4247328683033681 T T T Y
   0.4999999999999999    0.7587244641937403    0.3691461135797731 T T T In
   0.0000000000000000    0.2587244641937403    0.4316461135797731 F F F In
   0.3706377679031299    0.3706377679031299    0.3206352765434468 T T T In
   0.8706377679031299    0.8706377679031299    0.3831352765434468 T T T In
   0.1293622320968702    0.8706377679031299    0.3831352765434468 T T T In
   0.6293622320968701    0.3706377679031298    0.3206352765434468 T T T In
   0.5000000000000000    0.5000000000000000    0.3993055555555555 T T T Pt
   0.0000000000000000    0.0000000000000000    0.3368055555555555 T T T Pt
   0.3333333333333333    0.0000000000000001    0.3993055555555555 T T T Pt
   0.8333333333333333    0.5000000000000000    0.3368055555555555 T T T Pt
   0.1666666666666667    0.5000000000000000    0.3368055555555555 T T T Pt
   0.6666666666666667    0.0000000000000000    0.3993055555555555 T T T Pt
   0.5000000000000000    0.0931629960349980    0.4734509300599303 F F F Y
   0.0000000000000000    0.5931629960349980    0.5359509300599303 F F F Y
   0.2965814980174990    0.7034185019825010    0.5497328683033682 F F F Y
   0.7965814980174990    0.2034185019825010    0.4872328683033681 F F F Y
   0.2034185019825010    0.2034185019825010    0.4872328683033681 F F F Y
   0.7034185019825010    0.7034185019825010    0.5497328683033682 F F F Y
   0.4999999999999999    0.7587244641937403    0.4941461135797731 F F F In
   0.0000000000000000    0.2587244641937403    0.5566461135797731 F F F In
   0.3706377679031299    0.3706377679031299    0.4456352765434468 F F F In
   0.8706377679031299    0.8706377679031299    0.5081352765434468 F F F In
   0.1293622320968702    0.8706377679031299    0.5081352765434468 F F F In
   0.6293622320968701    0.3706377679031298    0.4456352765434468 F F F In
   0.5000000000000000    0.5000000000000000    0.5243055555555556 F F F Pt
   0.0000000000000000    0.0000000000000000    0.4618055555555555 F F F Pt
   0.3333333333333333    0.0000000000000001    0.5243055555555556 F F F Pt
   0.8333333333333333    0.5000000000000000    0.4618055555555555 F F F Pt
   0.1666666666666667    0.5000000000000000    0.4618055555555555 F F F Pt
   0.6666666666666667    0.0000000000000000    0.5243055555555556 F F F Pt
   0.5000000000000000    0.0931629960349980    0.5984509300599303 T T T Y
   0.0000000000000000    0.5931629960349980    0.6609509300599303 T T T Y
   0.2965814980174990    0.7034185019825010    0.6747328683033682 T T T Y
   0.7965814980174990    0.2034185019825010    0.6122328683033682 T T T Y
   0.2034185019825010    0.2034185019825010    0.6122328683033682 T T T Y
   0.7034185019825010    0.7034185019825010    0.6747328683033682 T T T Y
   0.4999999999999999    0.7587244641937403    0.6191461135797731 T T T In
   0.0000000000000000    0.2587244641937403    0.6816461135797731 T T T In
   0.3706377679031299    0.3706377679031299    0.5706352765434468 F F F In
   0.8706377679031299    0.8706377679031299    0.6331352765434468 T T T In
   0.1293622320968702    0.8706377679031299    0.6331352765434468 T T T In
   0.6293622320968701    0.3706377679031298    0.5706352765434468 F F F In
   0.5000000000000000    0.5000000000000000    0.6493055555555556 T T T Pt
   0.0000000000000000    0.0000000000000000    0.5868055555555556 T T T Pt
   0.3333333333333333    0.0000000000000001    0.6493055555555556 T T T Pt
   0.8333333333333333    0.5000000000000000    0.5868055555555556 T T T Pt
   0.1666666666666667    0.5000000000000000    0.5868055555555556 T T T Pt
   0.6666666666666667    0.0000000000000000    0.6493055555555556 T T T Pt
