Zr24 Al8 Co4
1.0
  13.7399076631212083    0.0000000000000000    0.0000000000000008
   6.8699538315606041    3.9663696939718149    3.3339429467049073
   0.0000000000000000    0.0000000000000000   33.3394294670490652
Zr Al Co Zr Al Co Zr Al Co Zr Al Co
6 2 1 6 2 1 6 2 1 6 2 1
Selective dynamics
direct
   0.0000000000000000    0.4013580944521068    0.3598641905547894 T T T Zr
   0.4013580944521067    0.1972838110957866    0.3802716188904213 T T T Zr
   0.5986419055478932    0.4013580944521068    0.3598641905547894 T T T Zr
   0.0000000000000000    0.7499756895620635    0.3750024310437937 T T T Zr
   0.7499756895620635    0.5000486208758730    0.2999951379124127 T T T Zr
   0.2500243104379364    0.7499756895620635    0.3750024310437937 T T T Zr
   0.3333333333333333    0.0000000000000001    0.3500000000000000 T T T Al
   0.6666666666666666    0.0000000000000001    0.3500000000000000 T T T Al
   0.0000000000000000    0.0000000000000000    0.3000000000000000 T T T Co
   0.0000000000000000    0.4013580944521068    0.4598641905547893 F F F Zr
   0.4013580944521067    0.1972838110957866    0.4802716188904214 F F F Zr
   0.5986419055478932    0.4013580944521068    0.4598641905547893 F F F Zr
   0.0000000000000000    0.7499756895620635    0.4750024310437936 F F F Zr
   0.7499756895620635    0.5000486208758730    0.3999951379124127 T T T Zr
   0.2500243104379364    0.7499756895620635    0.4750024310437936 F F F Zr
   0.3333333333333333    0.0000000000000001    0.4500000000000000 F F F Al
   0.6666666666666666    0.0000000000000001    0.4500000000000000 F F F Al
   0.0000000000000000    0.0000000000000000    0.4000000000000000 T T T Co
   0.0000000000000000    0.4013580944521068    0.5598641905547893 F F F Zr
   0.4013580944521067    0.1972838110957866    0.5802716188904213 T T T Zr
   0.5986419055478932    0.4013580944521068    0.5598641905547893 F F F Zr
   0.0000000000000000    0.7499756895620635    0.5750024310437937 T T T Zr
   0.7499756895620635    0.5000486208758730    0.4999951379124127 F F F Zr
   0.2500243104379364    0.7499756895620635    0.5750024310437937 T T T Zr
   0.3333333333333333    0.0000000000000001    0.5500000000000000 F F F Al
   0.6666666666666666    0.0000000000000001    0.5500000000000000 F F F Al
   0.0000000000000000    0.0000000000000000    0.5000000000000000 F F F Co
   0.0000000000000000    0.4013580944521068    0.6598641905547893 T T T Zr
   0.4013580944521067    0.1972838110957866    0.6802716188904213 T T T Zr
   0.5986419055478932    0.4013580944521068    0.6598641905547893 T T T Zr
   0.0000000000000000    0.7499756895620635    0.6750024310437936 T T T Zr
   0.7499756895620635    0.5000486208758730    0.5999951379124127 T T T Zr
   0.2500243104379364    0.7499756895620635    0.6750024310437936 T T T Zr
   0.3333333333333333    0.0000000000000001    0.6499999999999999 T T T Al
   0.6666666666666666    0.0000000000000001    0.6499999999999999 T T T Al
   0.0000000000000000    0.0000000000000000    0.6000000000000000 T T T Co
