Ba12 In24 Ir12
1.0
  11.8648094071360344    0.0000000000000000    0.0000000000000007
   0.0000000000000013    8.2575664689991068    0.0000000000000005
   0.0000000000000000    0.0000000000000000   30.9882034654185112
Ba In Ir Ba In Ir Ba In Ir
4 8 4 4 8 4 4 8 4
Selective dynamics
direct
   0.4471377320796108    0.7500000000000000    0.3214285714285714 T T T Ba
   0.0528622679203892    0.2500000000000000    0.3928571428571428 T T T Ba
   0.9471377320796107    0.7500000000000000    0.3928571428571428 T T T Ba
   0.5528622679203892    0.2500000000000000    0.3214285714285714 T T T Ba
   0.3336803664110377    0.0556481012374732    0.3928571428571428 T T T In
   0.1663196335889623    0.9443518987625268    0.3214285714285714 T T T In
   0.3336803664110377    0.4443518987625268    0.3928571428571428 T T T In
   0.1663196335889623    0.5556481012374732    0.3214285714285714 T T T In
   0.8336803664110376    0.0556481012374732    0.3214285714285715 T T T In
   0.6663196335889623    0.9443518987625268    0.3928571428571428 T T T In
   0.8336803664110376    0.4443518987625268    0.3214285714285715 T T T In
   0.6663196335889623    0.5556481012374732    0.3928571428571428 T T T In
   0.2789473289641577    0.2500000000000000    0.3214285714285714 T T T Ir
   0.2210526710358422    0.7500000000000000    0.3928571428571428 T T T Ir
   0.7789473289641576    0.2500000000000000    0.3928571428571428 T T T Ir
   0.7210526710358423    0.7500000000000000    0.3214285714285714 T T T Ir
   0.4471377320796108    0.7500000000000000    0.4642857142857142 F F F Ba
   0.0528622679203892    0.2500000000000000    0.5357142857142857 F F F Ba
   0.9471377320796107    0.7500000000000000    0.5357142857142857 F F F Ba
   0.5528622679203892    0.2500000000000000    0.4642857142857142 F F F Ba
   0.3336803664110377    0.0556481012374732    0.5357142857142857 F F F In
   0.1663196335889623    0.9443518987625268    0.4642857142857142 F F F In
   0.3336803664110377    0.4443518987625268    0.5357142857142857 F F F In
   0.1663196335889623    0.5556481012374732    0.4642857142857142 F F F In
   0.8336803664110376    0.0556481012374732    0.4642857142857143 F F F In
   0.6663196335889623    0.9443518987625268    0.5357142857142857 F F F In
   0.8336803664110376    0.4443518987625268    0.4642857142857143 F F F In
   0.6663196335889623    0.5556481012374732    0.5357142857142857 F F F In
   0.2789473289641577    0.2500000000000000    0.4642857142857142 F F F Ir
   0.2210526710358422    0.7500000000000000    0.5357142857142857 F F F Ir
   0.7789473289641576    0.2500000000000000    0.5357142857142857 F F F Ir
   0.7210526710358423    0.7500000000000000    0.4642857142857142 F F F Ir
   0.4471377320796108    0.7500000000000000    0.6071428571428571 T T T Ba
   0.0528622679203892    0.2500000000000000    0.6785714285714286 T T T Ba
   0.9471377320796107    0.7500000000000000    0.6785714285714286 T T T Ba
   0.5528622679203892    0.2500000000000000    0.6071428571428571 T T T Ba
   0.3336803664110377    0.0556481012374732    0.6785714285714286 T T T In
   0.1663196335889623    0.9443518987625268    0.6071428571428571 T T T In
   0.3336803664110377    0.4443518987625268    0.6785714285714286 T T T In
   0.1663196335889623    0.5556481012374732    0.6071428571428571 T T T In
   0.8336803664110376    0.0556481012374732    0.6071428571428572 T T T In
   0.6663196335889623    0.9443518987625268    0.6785714285714286 T T T In
   0.8336803664110376    0.4443518987625268    0.6071428571428572 T T T In
   0.6663196335889623    0.5556481012374732    0.6785714285714286 T T T In
   0.2789473289641577    0.2500000000000000    0.6071428571428571 T T T Ir
   0.2210526710358422    0.7500000000000000    0.6785714285714286 T T T Ir
   0.7789473289641576    0.2500000000000000    0.6785714285714286 T T T Ir
   0.7210526710358423    0.7500000000000000    0.6071428571428571 T T T Ir
