Ba12 In24 Ir12
1.0
  11.8648094071360344    0.0000000000000000   -4.4268862093454997
   0.0000000000000013    8.2575664689991086   -4.4268862093454988
   0.0000000000000000    0.0000000000000000   35.4150896747640118
Ba In Ir Ba In Ir Ba In Ir
4 8 4 4 8 4 4 8 4
Selective dynamics
direct
   0.4471377320796108    0.7500000000000000    0.3683922165099514 T T T Ba
   0.0528622679203892    0.2500000000000000    0.3191077834900486 T T T Ba
   0.9471377320796107    0.7499999999999999    0.3683922165099514 T T T Ba
   0.5528622679203892    0.2500000000000000    0.3191077834900486 T T T Ba
   0.3336803664110377    0.0556481012374732    0.3299160584560639 T T T In
   0.1663196335889623    0.9443518987625268    0.3575839415439361 T T T In
   0.3336803664110377    0.4443518987625268    0.3785040331466956 T T T In
   0.1663196335889623    0.5556481012374732    0.4339959668533044 F F F In
   0.8336803664110376    0.0556481012374732    0.3299160584560639 T T T In
   0.6663196335889623    0.9443518987625267    0.3575839415439361 T T T In
   0.8336803664110376    0.4443518987625268    0.3785040331466956 T T T In
   0.6663196335889623    0.5556481012374732    0.4339959668533044 F F F In
   0.2789473289641577    0.2500000000000000    0.4098684161205197 T T T Ir
   0.2210526710358422    0.7500000000000000    0.4026315838794803 T T T Ir
   0.7789473289641576    0.2499999999999999    0.4098684161205197 T T T Ir
   0.7210526710358423    0.7500000000000000    0.4026315838794803 T T T Ir
   0.4471377320796108    0.7500000000000000    0.4933922165099514 F F F Ba
   0.0528622679203892    0.2500000000000000    0.4441077834900486 F F F Ba
   0.9471377320796107    0.7499999999999999    0.4933922165099514 F F F Ba
   0.5528622679203892    0.2500000000000000    0.4441077834900486 F F F Ba
   0.3336803664110377    0.0556481012374732    0.4549160584560639 F F F In
   0.1663196335889623    0.9443518987625268    0.4825839415439361 F F F In
   0.3336803664110377    0.4443518987625268    0.5035040331466956 F F F In
   0.1663196335889623    0.5556481012374732    0.5589959668533044 F F F In
   0.8336803664110376    0.0556481012374732    0.4549160584560639 F F F In
   0.6663196335889623    0.9443518987625267    0.4825839415439361 F F F In
   0.8336803664110376    0.4443518987625268    0.5035040331466956 F F F In
   0.6663196335889623    0.5556481012374732    0.5589959668533044 F F F In
   0.2789473289641577    0.2500000000000000    0.5348684161205197 F F F Ir
   0.2210526710358422    0.7500000000000000    0.5276315838794803 F F F Ir
   0.7789473289641576    0.2499999999999999    0.5348684161205197 F F F Ir
   0.7210526710358423    0.7500000000000000    0.5276315838794803 F F F Ir
   0.4471377320796108    0.7500000000000000    0.6183922165099514 T T T Ba
   0.0528622679203892    0.2500000000000000    0.5691077834900486 F F F Ba
   0.9471377320796107    0.7499999999999999    0.6183922165099514 T T T Ba
   0.5528622679203892    0.2500000000000000    0.5691077834900486 F F F Ba
   0.3336803664110377    0.0556481012374732    0.5799160584560639 F F F In
   0.1663196335889623    0.9443518987625268    0.6075839415439361 T T T In
   0.3336803664110377    0.4443518987625268    0.6285040331466956 T T T In
   0.1663196335889623    0.5556481012374732    0.6839959668533044 T T T In
   0.8336803664110376    0.0556481012374732    0.5799160584560639 F F F In
   0.6663196335889623    0.9443518987625267    0.6075839415439361 T T T In
   0.8336803664110376    0.4443518987625268    0.6285040331466956 T T T In
   0.6663196335889623    0.5556481012374732    0.6839959668533044 T T T In
   0.2789473289641577    0.2500000000000000    0.6598684161205197 T T T Ir
   0.2210526710358422    0.7500000000000000    0.6526315838794803 T T T Ir
   0.7789473289641576    0.2499999999999999    0.6598684161205197 T T T Ir
   0.7210526710358423    0.7500000000000000    0.6526315838794803 T T T Ir
