Ba12 In24 Ir12
1.0
   8.2575664689991068    0.0000000000000000    0.0000000000000005
   0.0000000000000019   11.8648094071360344   -8.8537724186910012
   0.0000000000000000    0.0000000000000000   35.4150896747640118
Ba In Ir Ba In Ir Ba In Ir
4 8 4 4 8 4 4 8 4
Selective dynamics
direct
   0.2500000000000000    0.5528622679203892    0.3569655669800973 T T T Ba
   0.7500000000000000    0.9471377320796108    0.3930344330199027 T T T Ba
   0.2500000000000000    0.0528622679203891    0.4194655669800973 T T T Ba
   0.7500000000000000    0.4471377320796107    0.3305344330199027 T T T Ba
   0.9443518987625268    0.6663196335889623    0.3228299083972406 T T T In
   0.0556481012374732    0.8336803664110377    0.4271700916027594 T T T In
   0.5556481012374732    0.6663196335889623    0.3228299083972406 T T T In
   0.4443518987625268    0.8336803664110377    0.4271700916027594 T T T In
   0.9443518987625268    0.1663196335889622    0.3853299083972406 T T T In
   0.0556481012374732    0.3336803664110376    0.3646700916027594 T T T In
   0.5556481012374732    0.1663196335889622    0.3853299083972406 T T T In
   0.4443518987625268    0.3336803664110376    0.3646700916027594 T T T In
   0.7500000000000000    0.7210526710358423    0.3990131677589606 T T T Ir
   0.2500000000000000    0.7789473289641577    0.3509868322410394 T T T Ir
   0.7500000000000000    0.2210526710358423    0.3365131677589606 T T T Ir
   0.2500000000000000    0.2789473289641576    0.4134868322410394 T T T Ir
   0.2500000000000000    0.5528622679203892    0.4819655669800973 F F F Ba
   0.7500000000000000    0.9471377320796108    0.5180344330199027 F F F Ba
   0.2500000000000000    0.0528622679203891    0.5444655669800973 F F F Ba
   0.7500000000000000    0.4471377320796107    0.4555344330199027 F F F Ba
   0.9443518987625268    0.6663196335889623    0.4478299083972406 F F F In
   0.0556481012374732    0.8336803664110377    0.5521700916027594 F F F In
   0.5556481012374732    0.6663196335889623    0.4478299083972406 F F F In
   0.4443518987625268    0.8336803664110377    0.5521700916027594 F F F In
   0.9443518987625268    0.1663196335889622    0.5103299083972406 F F F In
   0.0556481012374732    0.3336803664110376    0.4896700916027594 F F F In
   0.5556481012374732    0.1663196335889622    0.5103299083972406 F F F In
   0.4443518987625268    0.3336803664110376    0.4896700916027594 F F F In
   0.7500000000000000    0.7210526710358423    0.5240131677589606 F F F Ir
   0.2500000000000000    0.7789473289641577    0.4759868322410394 F F F Ir
   0.7500000000000000    0.2210526710358423    0.4615131677589606 F F F Ir
   0.2500000000000000    0.2789473289641576    0.5384868322410394 F F F Ir
   0.2500000000000000    0.5528622679203892    0.6069655669800973 T T T Ba
   0.7500000000000000    0.9471377320796108    0.6430344330199027 T T T Ba
   0.2500000000000000    0.0528622679203891    0.6694655669800973 T T T Ba
   0.7500000000000000    0.4471377320796107    0.5805344330199027 T T T Ba
   0.9443518987625268    0.6663196335889623    0.5728299083972406 T T T In
   0.0556481012374732    0.8336803664110377    0.6771700916027594 T T T In
   0.5556481012374732    0.6663196335889623    0.5728299083972406 T T T In
   0.4443518987625268    0.8336803664110377    0.6771700916027594 T T T In
   0.9443518987625268    0.1663196335889622    0.6353299083972406 T T T In
   0.0556481012374732    0.3336803664110376    0.6146700916027594 T T T In
   0.5556481012374732    0.1663196335889622    0.6353299083972406 T T T In
   0.4443518987625268    0.3336803664110376    0.6146700916027594 T T T In
   0.7500000000000000    0.7210526710358423    0.6490131677589606 T T T Ir
   0.2500000000000000    0.7789473289641577    0.6009868322410394 T T T Ir
   0.7500000000000000    0.2210526710358423    0.5865131677589606 T T T Ir
   0.2500000000000000    0.2789473289641576    0.6634868322410394 T T T Ir
