Mg8 Mn8 Pd16
1.0
   6.2942612576318480    0.0000000000000000    0.0000000000000004
   0.0000000000000010    6.2942612576318480    0.0000000000000004
   0.0000000000000000    0.0000000000000000   31.4713062881592407
Mg Mn Pd Mg Mn Pd
4 4 8 4 4 8
Selective dynamics
direct
   0.0000000000000000    0.0000000000000000    0.3750000000000000 T T T Mg
   0.5000000000000000    0.5000000000000000    0.3750000000000000 T T T Mg
   0.0000000000000000    0.5000000000000000    0.4750000000000000 F F F Mg
   0.5000000000000000    0.0000000000000000    0.4750000000000000 F F F Mg
   0.0000000000000000    0.0000000000000000    0.4750000000000000 F F F Mn
   0.5000000000000000    0.4999999999999999    0.4750000000000000 F F F Mn
   0.0000000000000000    0.4999999999999999    0.3750000000000000 T T T Mn
   0.5000000000000000    0.0000000000000000    0.3750000000000000 T T T Mn
   0.7499999999999999    0.7500000000000000    0.3250000000000000 T T T Pd
   0.2500000000000000    0.7499999999999999    0.3250000000000000 T T T Pd
   0.2500000000000000    0.2500000000000000    0.3250000000000000 T T T Pd
   0.7499999999999999    0.2500000000000000    0.3250000000000000 T T T Pd
   0.7499999999999999    0.2500000000000000    0.4250000000000000 F F F Pd
   0.2500000000000000    0.2500000000000000    0.4249999999999999 F F F Pd
   0.2500000000000000    0.7500000000000000    0.4249999999999999 F F F Pd
   0.7499999999999999    0.7500000000000000    0.4250000000000000 F F F Pd
   0.0000000000000000    0.0000000000000000    0.5750000000000000 F F F Mg
   0.5000000000000000    0.5000000000000000    0.5750000000000000 F F F Mg
   0.0000000000000000    0.5000000000000000    0.6750000000000000 T T T Mg
   0.5000000000000000    0.0000000000000000    0.6750000000000000 T T T Mg
   0.0000000000000000    0.0000000000000000    0.6750000000000000 T T T Mn
   0.5000000000000000    0.4999999999999999    0.6750000000000000 T T T Mn
   0.0000000000000000    0.4999999999999999    0.5750000000000000 F F F Mn
   0.5000000000000000    0.0000000000000000    0.5750000000000000 F F F Mn
   0.7499999999999999    0.7500000000000000    0.5250000000000000 F F F Pd
   0.2500000000000000    0.7499999999999999    0.5250000000000000 F F F Pd
   0.2500000000000000    0.2500000000000000    0.5250000000000000 F F F Pd
   0.7499999999999999    0.2500000000000000    0.5250000000000000 F F F Pd
   0.7499999999999999    0.2500000000000000    0.6250000000000000 T T T Pd
   0.2500000000000000    0.2500000000000000    0.6250000000000000 T T T Pd
   0.2500000000000000    0.7500000000000000    0.6250000000000000 T T T Pd
   0.7499999999999999    0.7500000000000000    0.6250000000000000 T T T Pd
