Y12 Ti12 Si12
1.0
   4.0391205786963065    0.0000000000000000    0.0000000000000002
   0.0000000000000024   15.1574678466380970   -4.0391205786963047
   0.0000000000000000    0.0000000000000000   28.2738440508741462
Y Ti Si Y Ti Si Y Ti Si
4 4 4 4 4 4 4 4 4
Selective dynamics
direct
   0.5000000000000000    0.1720476089993888    0.4174353727141984 F F F Y
   0.5000000000000000    0.6720476089993888    0.3460068012856270 T T T Y
   0.0000000000000000    0.3279523910006112    0.3682789130000874 T T T Y
   0.0000000000000000    0.8279523910006112    0.2968503415715159 T T T Y
   0.0000000000000000    0.0000000000000000    0.3928571428571429 T T T Ti
   0.0000000000000000    0.5000000000000000    0.3214285714285715 T T T Ti
   0.5000000000000000    0.0000000000000000    0.3214285714285715 T T T Ti
   0.5000000000000000    0.5000000000000000    0.3928571428571429 T T T Ti
   0.5000000000000000    0.3816798209294419    0.3045256887042060 T T T Si
   0.5000000000000000    0.8816798209294419    0.3759542601327774 T T T Si
   0.0000000000000000    0.1183201790705582    0.3383314541529369 T T T Si
   0.0000000000000000    0.6183201790705581    0.4097600255815084 F F F Si
   0.5000000000000000    0.1720476089993888    0.5602925155713412 F F F Y
   0.5000000000000000    0.6720476089993888    0.4888639441427698 F F F Y
   0.0000000000000000    0.3279523910006112    0.5111360558572302 F F F Y
   0.0000000000000000    0.8279523910006112    0.4397074844286588 F F F Y
   0.0000000000000000    0.0000000000000000    0.5357142857142858 F F F Ti
   0.0000000000000000    0.5000000000000000    0.4642857142857143 F F F Ti
   0.5000000000000000    0.0000000000000000    0.4642857142857143 F F F Ti
   0.5000000000000000    0.5000000000000000    0.5357142857142858 F F F Ti
   0.5000000000000000    0.3816798209294419    0.4473828315613488 F F F Si
   0.5000000000000000    0.8816798209294419    0.5188114029899202 F F F Si
   0.0000000000000000    0.1183201790705582    0.4811885970100798 F F F Si
   0.0000000000000000    0.6183201790705581    0.5526171684386512 F F F Si
   0.5000000000000000    0.1720476089993888    0.7031496584284842 T T T Y
   0.5000000000000000    0.6720476089993888    0.6317210869999127 T T T Y
   0.0000000000000000    0.3279523910006112    0.6539931987143730 T T T Y
   0.0000000000000000    0.8279523910006112    0.5825646272858016 F F F Y
   0.0000000000000000    0.0000000000000000    0.6785714285714286 T T T Ti
   0.0000000000000000    0.5000000000000000    0.6071428571428572 T T T Ti
   0.5000000000000000    0.0000000000000000    0.6071428571428572 T T T Ti
   0.5000000000000000    0.5000000000000000    0.6785714285714286 T T T Ti
   0.5000000000000000    0.3816798209294419    0.5902399744184917 F F F Si
   0.5000000000000000    0.8816798209294419    0.6616685458470631 T T T Si
   0.0000000000000000    0.1183201790705582    0.6240457398672226 T T T Si
   0.0000000000000000    0.6183201790705581    0.6954743112957940 T T T Si
