Ca48 Sn96 Ir48
1.0
  21.7502568043668596    0.0000000000000000   -4.3548124971729845
   0.0000000000000059   15.4068883063783559   -4.3548124971729880
   0.0000000000000000    0.0000000000000000   30.4836874802109392
Ca Sn Ir Ca Sn Ir Ca Sn Ir
16 32 16 16 32 16 16 32 16
Selective dynamics
direct
   0.5339439623333924    0.6250000000000000    0.3039562803333418 T T T Ca
   0.0339439623333923    0.1250000000000000    0.3039562803333418 T T T Ca
   0.0339439623333923    0.6249999999999999    0.3753848517619132 T T T Ca
   0.5339439623333924    0.1250000000000000    0.3753848517619132 T T T Ca
   0.7160560376666076    0.8750000000000000    0.2942580053809440 T T T Ca
   0.2160560376666077    0.3749999999999999    0.2942580053809440 T T T Ca
   0.2160560376666077    0.8749999999999999    0.3656865768095154 T T T Ca
   0.7160560376666076    0.3749999999999999    0.3656865768095154 T T T Ca
   0.7839439623333923    0.6250000000000000    0.4110991374761990 F F F Ca
   0.2839439623333923    0.1249999999999999    0.4110991374761990 F F F Ca
   0.2839439623333923    0.6249999999999999    0.3396705660476275 T T T Ca
   0.7839439623333923    0.1249999999999999    0.3396705660476275 T T T Ca
   0.9660560376666075    0.8750000000000000    0.4014008625238011 F F F Ca
   0.4660560376666076    0.3749999999999999    0.4014008625238011 F F F Ca
   0.4660560376666076    0.8749999999999999    0.3299722910952297 T T T Ca
   0.9660560376666075    0.3749999999999999    0.3299722910952297 T T T Ca
   0.6774866298675909    0.7266353350968479    0.3389817092806342 T T T Sn
   0.1774866298675910    0.2266353350968479    0.3389817092806341 T T T Sn
   0.1774866298675910    0.7266353350968479    0.4104102807092056 F F F Sn
   0.6774866298675909    0.2266353350968479    0.4104102807092056 F F F Sn
   0.6774866298675909    0.5233646649031521    0.3099430421101062 T T T Sn
   0.1774866298675910    0.0233646649031521    0.3099430421101062 T T T Sn
   0.1774866298675910    0.5233646649031520    0.3813716135386777 T T T Sn
   0.6774866298675909    0.0233646649031521    0.3813716135386777 T T T Sn
   0.5725133701324090    0.7733646649031520    0.4020897192907945 F F F Sn
   0.0725133701324090    0.2733646649031520    0.4020897192907945 F F F Sn
   0.0725133701324090    0.7733646649031519    0.3306611478622231 T T T Sn
   0.5725133701324090    0.2733646649031520    0.3306611478622231 T T T Sn
   0.5725133701324090    0.9766353350968480    0.2882712436041796 T T T Sn
   0.0725133701324090    0.4766353350968478    0.2882712436041796 T T T Sn
   0.0725133701324090    0.9766353350968477    0.3596998150327511 T T T Sn
   0.5725133701324090    0.4766353350968478    0.3596998150327511 T T T Sn
   0.9274866298675910    0.7266353350968480    0.3032674235663484 T T T Sn
   0.4274866298675910    0.2266353350968479    0.3032674235663484 T T T Sn
   0.4274866298675910    0.7266353350968479    0.3746959949949199 T T T Sn
   0.9274866298675910    0.2266353350968478    0.3746959949949199 T T T Sn
   0.9274866298675910    0.5233646649031521    0.4170858992529634 F F F Sn
   0.4274866298675910    0.0233646649031520    0.4170858992529634 F F F Sn
   0.4274866298675910    0.5233646649031519    0.3456573278243919 T T T Sn
   0.9274866298675910    0.0233646649031520    0.3456573278243919 T T T Sn
   0.8225133701324089    0.7733646649031520    0.3663754335765088 T T T Sn
   0.3225133701324090    0.2733646649031520    0.3663754335765088 T T T Sn
   0.3225133701324090    0.7733646649031519    0.2949468621479373 T T T Sn
   0.8225133701324089    0.2733646649031520    0.2949468621479374 T T T Sn
   0.8225133701324089    0.9766353350968480    0.3954141007470368 F F F Sn
   0.3225133701324090    0.4766353350968479    0.3954141007470368 F F F Sn
   0.3225133701324090    0.9766353350968479    0.3239855293184653 T T T Sn
   0.8225133701324089    0.4766353350968479    0.3239855293184653 T T T Sn
   0.6442190786440313    0.6250000000000000    0.3911384398062903 T T T Ir
   0.1442190786440313    0.1249999999999999    0.3911384398062903 T T T Ir
   0.1442190786440313    0.6249999999999999    0.3197098683777188 T T T Ir
   0.6442190786440313    0.1249999999999999    0.3197098683777188 T T T Ir
   0.6057809213559686    0.8750000000000001    0.3499329887651385 T T T Ir
   0.1057809213559686    0.3750000000000000    0.3499329887651385 T T T Ir
   0.1057809213559686    0.8749999999999999    0.4213615601937098 F F F Ir
   0.6057809213559686    0.3750000000000000    0.4213615601937098 F F F Ir
   0.8942190786440314    0.6250000000000000    0.3554241540920046 T T T Ir
   0.3942190786440314    0.1250000000000000    0.3554241540920046 T T T Ir
   0.3942190786440314    0.6249999999999999    0.4268527255205760 F F F Ir
   0.8942190786440314    0.1250000000000000    0.4268527255205760 F F F Ir
   0.8557809213559686    0.8750000000000000    0.3142187030508527 T T T Ir
   0.3557809213559686    0.3749999999999999    0.3142187030508527 T T T Ir
   0.3557809213559686    0.8749999999999999    0.3856472744794242 T T T Ir
   0.8557809213559686    0.3749999999999999    0.3856472744794241 T T T Ir
   0.5339439623333924    0.6250000000000000    0.4468134231904847 F F F Ca
   0.0339439623333923    0.1250000000000000    0.4468134231904847 F F F Ca
   0.0339439623333923    0.6249999999999999    0.5182419946190561 F F F Ca
   0.5339439623333924    0.1250000000000000    0.5182419946190561 F F F Ca
   0.7160560376666076    0.8750000000000000    0.4371151482380868 F F F Ca
   0.2160560376666077    0.3749999999999999    0.4371151482380868 F F F Ca
   0.2160560376666077    0.8749999999999999    0.5085437196666582 F F F Ca
   0.7160560376666076    0.3749999999999999    0.5085437196666582 F F F Ca
   0.7839439623333923    0.6250000000000000    0.5539562803333418 F F F Ca
   0.2839439623333923    0.1249999999999999    0.5539562803333418 F F F Ca
   0.2839439623333923    0.6249999999999999    0.4825277089047704 F F F Ca
   0.7839439623333923    0.1249999999999999    0.4825277089047704 F F F Ca
   0.9660560376666075    0.8750000000000000    0.5442580053809440 F F F Ca
   0.4660560376666076    0.3749999999999999    0.5442580053809440 F F F Ca
   0.4660560376666076    0.8749999999999999    0.4728294339523725 F F F Ca
   0.9660560376666075    0.3749999999999999    0.4728294339523725 F F F Ca
   0.6774866298675909    0.7266353350968479    0.4818388521377770 F F F Sn
   0.1774866298675910    0.2266353350968479    0.4818388521377770 F F F Sn
   0.1774866298675910    0.7266353350968479    0.5532674235663484 F F F Sn
   0.6774866298675909    0.2266353350968479    0.5532674235663484 F F F Sn
   0.6774866298675909    0.5233646649031521    0.4528001849672491 F F F Sn
   0.1774866298675910    0.0233646649031521    0.4528001849672491 F F F Sn
   0.1774866298675910    0.5233646649031520    0.5242287563958204 F F F Sn
   0.6774866298675909    0.0233646649031521    0.5242287563958204 F F F Sn
   0.5725133701324090    0.7733646649031520    0.5449468621479373 F F F Sn
   0.0725133701324090    0.2733646649031520    0.5449468621479374 F F F Sn
   0.0725133701324090    0.7733646649031519    0.4735182907193659 F F F Sn
   0.5725133701324090    0.2733646649031520    0.4735182907193659 F F F Sn
   0.5725133701324090    0.9766353350968480    0.4311283864613225 F F F Sn
   0.0725133701324090    0.4766353350968478    0.4311283864613225 F F F Sn
   0.0725133701324090    0.9766353350968477    0.5025569578898939 F F F Sn
   0.5725133701324090    0.4766353350968478    0.5025569578898939 F F F Sn
   0.9274866298675910    0.7266353350968480    0.4461245664234913 F F F Sn
   0.4274866298675910    0.2266353350968479    0.4461245664234913 F F F Sn
   0.4274866298675910    0.7266353350968479    0.5175531378520627 F F F Sn
   0.9274866298675910    0.2266353350968478    0.5175531378520627 F F F Sn
   0.9274866298675910    0.5233646649031521    0.5599430421101061 F F F Sn
   0.4274866298675910    0.0233646649031520    0.5599430421101061 F F F Sn
   0.4274866298675910    0.5233646649031519    0.4885144706815348 F F F Sn
   0.9274866298675910    0.0233646649031520    0.4885144706815348 F F F Sn
   0.8225133701324089    0.7733646649031520    0.5092325764336516 F F F Sn
   0.3225133701324090    0.2733646649031520    0.5092325764336516 F F F Sn
   0.3225133701324090    0.7733646649031519    0.4378040050050802 F F F Sn
   0.8225133701324089    0.2733646649031520    0.4378040050050802 F F F Sn
   0.8225133701324089    0.9766353350968480    0.5382712436041796 F F F Sn
   0.3225133701324090    0.4766353350968479    0.5382712436041797 F F F Sn
   0.3225133701324090    0.9766353350968479    0.4668426721756082 F F F Sn
   0.8225133701324089    0.4766353350968479    0.4668426721756082 F F F Sn
   0.6442190786440313    0.6250000000000000    0.5339955826634331 F F F Ir
   0.1442190786440313    0.1249999999999999    0.5339955826634331 F F F Ir
   0.1442190786440313    0.6249999999999999    0.4625670112348617 F F F Ir
   0.6442190786440313    0.1249999999999999    0.4625670112348617 F F F Ir
   0.6057809213559686    0.8750000000000001    0.4927901316222812 F F F Ir
   0.1057809213559686    0.3750000000000000    0.4927901316222812 F F F Ir
   0.1057809213559686    0.8749999999999999    0.5642187030508528 F F F Ir
   0.6057809213559686    0.3750000000000000    0.5642187030508528 F F F Ir
   0.8942190786440314    0.6250000000000000    0.4982812969491474 F F F Ir
   0.3942190786440314    0.1250000000000000    0.4982812969491474 F F F Ir
   0.3942190786440314    0.6249999999999999    0.5697098683777188 F F F Ir
   0.8942190786440314    0.1250000000000000    0.5697098683777189 F F F Ir
   0.8557809213559686    0.8750000000000000    0.4570758459079955 F F F Ir
   0.3557809213559686    0.3749999999999999    0.4570758459079955 F F F Ir
   0.3557809213559686    0.8749999999999999    0.5285044173365669 F F F Ir
   0.8557809213559686    0.3749999999999999    0.5285044173365669 F F F Ir
   0.5339439623333924    0.6250000000000000    0.5896705660476276 F F F Ca
   0.0339439623333923    0.1250000000000000    0.5896705660476276 F F F Ca
   0.0339439623333923    0.6249999999999999    0.6610991374761990 T T T Ca
   0.5339439623333924    0.1250000000000000    0.6610991374761990 T T T Ca
   0.7160560376666076    0.8750000000000000    0.5799722910952296 F F F Ca
   0.2160560376666077    0.3749999999999999    0.5799722910952296 F F F Ca
   0.2160560376666077    0.8749999999999999    0.6514008625238011 T T T Ca
   0.7160560376666076    0.3749999999999999    0.6514008625238011 T T T Ca
   0.7839439623333923    0.6250000000000000    0.6968134231904847 T T T Ca
   0.2839439623333923    0.1249999999999999    0.6968134231904847 T T T Ca
   0.2839439623333923    0.6249999999999999    0.6253848517619132 T T T Ca
   0.7839439623333923    0.1249999999999999    0.6253848517619132 T T T Ca
   0.9660560376666075    0.8750000000000000    0.6871151482380868 T T T Ca
   0.4660560376666076    0.3749999999999999    0.6871151482380868 T T T Ca
   0.4660560376666076    0.8749999999999999    0.6156865768095154 T T T Ca
   0.9660560376666075    0.3749999999999999    0.6156865768095154 T T T Ca
   0.6774866298675909    0.7266353350968479    0.6246959949949199 T T T Sn
   0.1774866298675910    0.2266353350968479    0.6246959949949198 T T T Sn
   0.1774866298675910    0.7266353350968479    0.6961245664234913 T T T Sn
   0.6774866298675909    0.2266353350968479    0.6961245664234913 T T T Sn
   0.6774866298675909    0.5233646649031521    0.5956573278243920 F F F Sn
   0.1774866298675910    0.0233646649031521    0.5956573278243920 F F F Sn
   0.1774866298675910    0.5233646649031520    0.6670858992529634 T T T Sn
   0.6774866298675909    0.0233646649031521    0.6670858992529634 T T T Sn
   0.5725133701324090    0.7733646649031520    0.6878040050050802 T T T Sn
   0.0725133701324090    0.2733646649031520    0.6878040050050802 T T T Sn
   0.0725133701324090    0.7733646649031519    0.6163754335765088 T T T Sn
   0.5725133701324090    0.2733646649031520    0.6163754335765088 T T T Sn
   0.5725133701324090    0.9766353350968480    0.5739855293184652 F F F Sn
   0.0725133701324090    0.4766353350968478    0.5739855293184652 F F F Sn
   0.0725133701324090    0.9766353350968477    0.6454141007470368 T T T Sn
   0.5725133701324090    0.4766353350968478    0.6454141007470368 T T T Sn
   0.9274866298675910    0.7266353350968480    0.5889817092806342 F F F Sn
   0.4274866298675910    0.2266353350968479    0.5889817092806342 F F F Sn
   0.4274866298675910    0.7266353350968479    0.6604102807092056 T T T Sn
   0.9274866298675910    0.2266353350968478    0.6604102807092056 T T T Sn
   0.9274866298675910    0.5233646649031521    0.7028001849672491 T T T Sn
   0.4274866298675910    0.0233646649031520    0.7028001849672491 T T T Sn
   0.4274866298675910    0.5233646649031519    0.6313716135386775 T T T Sn
   0.9274866298675910    0.0233646649031520    0.6313716135386775 T T T Sn
   0.8225133701324089    0.7733646649031520    0.6520897192907944 T T T Sn
   0.3225133701324090    0.2733646649031520    0.6520897192907944 T T T Sn
   0.3225133701324090    0.7733646649031519    0.5806611478622230 F F F Sn
   0.8225133701324089    0.2733646649031520    0.5806611478622230 F F F Sn
   0.8225133701324089    0.9766353350968480    0.6811283864613225 T T T Sn
   0.3225133701324090    0.4766353350968479    0.6811283864613225 T T T Sn
   0.3225133701324090    0.9766353350968479    0.6096998150327511 T T T Sn
   0.8225133701324089    0.4766353350968479    0.6096998150327511 T T T Sn
   0.6442190786440313    0.6250000000000000    0.6768527255205760 T T T Ir
   0.1442190786440313    0.1249999999999999    0.6768527255205760 T T T Ir
   0.1442190786440313    0.6249999999999999    0.6054241540920045 F F F Ir
   0.6442190786440313    0.1249999999999999    0.6054241540920045 F F F Ir
   0.6057809213559686    0.8750000000000001    0.6356472744794242 T T T Ir
   0.1057809213559686    0.3750000000000000    0.6356472744794242 T T T Ir
   0.1057809213559686    0.8749999999999999    0.7070758459079955 T T T Ir
   0.6057809213559686    0.3750000000000000    0.7070758459079955 T T T Ir
   0.8942190786440314    0.6250000000000000    0.6411384398062903 T T T Ir
   0.3942190786440314    0.1250000000000000    0.6411384398062903 T T T Ir
   0.3942190786440314    0.6249999999999999    0.7125670112348617 T T T Ir
   0.8942190786440314    0.1250000000000000    0.7125670112348617 T T T Ir
   0.8557809213559686    0.8750000000000000    0.5999329887651383 F F F Ir
   0.3557809213559686    0.3749999999999999    0.5999329887651383 F F F Ir
   0.3557809213559686    0.8749999999999999    0.6713615601937098 T T T Ir
   0.8557809213559686    0.3749999999999999    0.6713615601937097 T T T Ir
