Mn8 Be16 Rh8
1.0
   5.5217984282047796    0.0000000000000000    0.0000000000000003
   0.0000000000000009    5.5217984282047796    0.0000000000000003
   0.0000000000000000    0.0000000000000000   27.6089921410238972
Mn Be Rh Mn Be Rh
4 8 4 4 8 4
Selective dynamics
direct
   0.0000000000000000    0.0000000000000000    0.3750000000000000 T T T Mn
   0.5000000000000000    0.5000000000000000    0.3750000000000000 T T T Mn
   0.0000000000000000    0.5000000000000000    0.4750000000000000 F F F Mn
   0.5000000000000000    0.0000000000000000    0.4750000000000000 F F F Mn
   0.2500000000000000    0.7500000000000001    0.3250000000000000 T T T Be
   0.7500000000000001    0.7500000000000000    0.3250000000000000 T T T Be
   0.7500000000000001    0.2500000000000001    0.3250000000000000 T T T Be
   0.2500000000000000    0.2500000000000000    0.3250000000000000 T T T Be
   0.2500000000000000    0.2500000000000001    0.4250000000000000 T T T Be
   0.7500000000000001    0.2500000000000000    0.4250000000000000 T T T Be
   0.7500000000000001    0.7500000000000000    0.4250000000000000 T T T Be
   0.2500000000000000    0.7500000000000000    0.4250000000000000 T T T Be
   0.0000000000000000    0.0000000000000000    0.4750000000000000 F F F Rh
   0.5000000000000000    0.5000000000000000    0.4750000000000000 F F F Rh
   0.0000000000000000    0.5000000000000000    0.3750000000000000 T T T Rh
   0.5000000000000000    0.0000000000000000    0.3750000000000000 T T T Rh
   0.0000000000000000    0.0000000000000000    0.5750000000000000 T T T Mn
   0.5000000000000000    0.5000000000000000    0.5750000000000000 T T T Mn
   0.0000000000000000    0.5000000000000000    0.6750000000000000 T T T Mn
   0.5000000000000000    0.0000000000000000    0.6750000000000000 T T T Mn
   0.2500000000000000    0.7500000000000001    0.5250000000000000 F F F Be
   0.7500000000000001    0.7500000000000000    0.5250000000000000 F F F Be
   0.7500000000000001    0.2500000000000001    0.5250000000000000 F F F Be
   0.2500000000000000    0.2500000000000000    0.5250000000000000 F F F Be
   0.2500000000000000    0.2500000000000001    0.6250000000000000 T T T Be
   0.7500000000000001    0.2500000000000000    0.6250000000000000 T T T Be
   0.7500000000000001    0.7500000000000000    0.6250000000000000 T T T Be
   0.2500000000000000    0.7500000000000000    0.6250000000000000 T T T Be
   0.0000000000000000    0.0000000000000000    0.6750000000000000 T T T Rh
   0.5000000000000000    0.5000000000000000    0.6750000000000000 T T T Rh
   0.0000000000000000    0.5000000000000000    0.5750000000000000 T T T Rh
   0.5000000000000000    0.0000000000000000    0.5750000000000000 T T T Rh
