Ca8 Bi8 Au32
1.0
   8.0768542445218401    0.0000000000000000    0.0000000000000005
   0.0000000000000013    8.0768542445218401    0.0000000000000005
   0.0000000000000000    0.0000000000000000   32.3074169780873603
Ca Bi Au Ca Bi Au
4 4 16 4 4 16
Selective dynamics
direct
   0.2500000000000000    0.7499999999999999    0.3020833333333334 T T T Ca
   0.7500000000000000    0.2500000000000000    0.3020833333333334 T T T Ca
   0.2500000000000000    0.2500000000000000    0.4270833333333334 F F F Ca
   0.7500000000000000    0.7500000000000000    0.4270833333333334 F F F Ca
   0.0000000000000000    0.0000000000000000    0.4895833333333334 F F F Bi
   0.5000000000000000    0.4999999999999999    0.4895833333333334 F F F Bi
   0.0000000000000000    0.4999999999999999    0.3645833333333334 F F F Bi
   0.5000000000000000    0.0000000000000000    0.3645833333333334 F F F Bi
   0.8752107006737546    0.6247892993262454    0.2707806581648947 T T T Au
   0.8752107006737546    0.8752107006737546    0.3333860085017720 T T T Au
   0.1247892993262454    0.6247892993262454    0.4583860085017720 F F F Au
   0.1247892993262454    0.8752107006737545    0.3957806581648947 F F F Au
   0.3752107006737546    0.1247892993262454    0.2707806581648947 T T T Au
   0.3752107006737546    0.3752107006737546    0.3333860085017720 T T T Au
   0.6247892993262454    0.1247892993262454    0.4583860085017720 F F F Au
   0.6247892993262454    0.3752107006737546    0.3957806581648947 F F F Au
   0.8752107006737546    0.1247892993262454    0.3957806581648947 F F F Au
   0.8752107006737546    0.3752107006737546    0.4583860085017720 F F F Au
   0.1247892993262454    0.1247892993262454    0.3333860085017720 T T T Au
   0.1247892993262454    0.3752107006737546    0.2707806581648947 T T T Au
   0.3752107006737546    0.6247892993262454    0.3957806581648947 F F F Au
   0.3752107006737546    0.8752107006737546    0.4583860085017720 F F F Au
   0.6247892993262454    0.6247892993262454    0.3333860085017720 T T T Au
   0.6247892993262454    0.8752107006737545    0.2707806581648947 T T T Au
   0.2500000000000000    0.7499999999999999    0.5520833333333334 F F F Ca
   0.7500000000000000    0.2500000000000000    0.5520833333333334 F F F Ca
   0.2500000000000000    0.2500000000000000    0.6770833333333334 T T T Ca
   0.7500000000000000    0.7500000000000000    0.6770833333333334 T T T Ca
   0.0000000000000000    0.0000000000000000    0.7395833333333334 T T T Bi
   0.5000000000000000    0.4999999999999999    0.7395833333333334 T T T Bi
   0.0000000000000000    0.4999999999999999    0.6145833333333334 F F F Bi
   0.5000000000000000    0.0000000000000000    0.6145833333333334 F F F Bi
   0.8752107006737546    0.6247892993262454    0.5207806581648947 F F F Au
   0.8752107006737546    0.8752107006737546    0.5833860085017720 F F F Au
   0.1247892993262454    0.6247892993262454    0.7083860085017720 T T T Au
   0.1247892993262454    0.8752107006737545    0.6457806581648947 F F F Au
   0.3752107006737546    0.1247892993262454    0.5207806581648947 F F F Au
   0.3752107006737546    0.3752107006737546    0.5833860085017720 F F F Au
   0.6247892993262454    0.1247892993262454    0.7083860085017720 T T T Au
   0.6247892993262454    0.3752107006737546    0.6457806581648947 F F F Au
   0.8752107006737546    0.1247892993262454    0.6457806581648947 F F F Au
   0.8752107006737546    0.3752107006737546    0.7083860085017720 T T T Au
   0.1247892993262454    0.1247892993262454    0.5833860085017720 F F F Au
   0.1247892993262454    0.3752107006737546    0.5207806581648947 F F F Au
   0.3752107006737546    0.6247892993262454    0.6457806581648947 F F F Au
   0.3752107006737546    0.8752107006737546    0.7083860085017720 T T T Au
   0.6247892993262454    0.6247892993262454    0.5833860085017720 F F F Au
   0.6247892993262454    0.8752107006737545    0.5207806581648947 F F F Au
