Ba6 Si18 Pd6
1.0
   4.4406421208910452    0.0000000000000000    0.0000000000000003
  -0.0000000000000006   10.2498882049310929   -8.8812842417820903
   0.0000000000000000    0.0000000000000000   35.5251369671283612
Ba Si Pd Ba Si Pd Ba Si Pd
2 6 2 2 6 2 2 6 2
Selective dynamics
direct
   0.5000000000000000    0.1149678669299448    0.3916569669824861 T T T Ba
   0.0000000000000000    0.6149678669299448    0.3291569669824861 T T T Ba
   0.0000000000000000    0.0016339654897735    0.4258234916224433 T T T Si
   0.0000000000000000    0.3693776913148382    0.3302594230787095 T T T Si
   0.5000000000000000    0.3693776913148382    0.3927594230787095 T T T Si
   0.5000000000000000    0.5016339654897735    0.3633234916224433 T T T Si
   0.5000000000000000    0.8693776913148382    0.3927594230787095 T T T Si
   0.0000000000000000    0.8693776913148382    0.3302594230787095 T T T Si
   0.0000000000000000    0.2613427799506062    0.3657506952376515 T T T Pd
   0.5000000000000000    0.7613427799506062    0.4282506952376515 T T T Pd
   0.5000000000000000    0.1149678669299448    0.5166569669824861 F F F Ba
   0.0000000000000000    0.6149678669299448    0.4541569669824861 F F F Ba
   0.0000000000000000    0.0016339654897735    0.5508234916224433 F F F Si
   0.0000000000000000    0.3693776913148382    0.4552594230787095 F F F Si
   0.5000000000000000    0.3693776913148382    0.5177594230787095 F F F Si
   0.5000000000000000    0.5016339654897735    0.4883234916224433 F F F Si
   0.5000000000000000    0.8693776913148382    0.5177594230787095 F F F Si
   0.0000000000000000    0.8693776913148382    0.4552594230787095 F F F Si
   0.0000000000000000    0.2613427799506062    0.4907506952376515 F F F Pd
   0.5000000000000000    0.7613427799506062    0.5532506952376515 F F F Pd
   0.5000000000000000    0.1149678669299448    0.6416569669824861 T T T Ba
   0.0000000000000000    0.6149678669299448    0.5791569669824861 T T T Ba
   0.0000000000000000    0.0016339654897735    0.6758234916224433 T T T Si
   0.0000000000000000    0.3693776913148382    0.5802594230787095 T T T Si
   0.5000000000000000    0.3693776913148382    0.6427594230787095 T T T Si
   0.5000000000000000    0.5016339654897735    0.6133234916224433 T T T Si
   0.5000000000000000    0.8693776913148382    0.6427594230787095 T T T Si
   0.0000000000000000    0.8693776913148382    0.5802594230787095 T T T Si
   0.0000000000000000    0.2613427799506062    0.6157506952376515 T T T Pd
   0.5000000000000000    0.7613427799506062    0.6782506952376515 T T T Pd
