Li48 Ge48 Pd96
1.0
  12.1504398879005056    0.0000000000000000   -6.0752199439502528
  -0.0000000000000034   12.1504398879005056   -6.0752199439502528
   0.0000000000000000    0.0000000000000000   42.5265396076517703
Li Ge Pd Li Ge Pd Li Ge Pd
16 16 32 16 16 32 16 16 32
Selective dynamics
direct
   0.5000000000000000    0.5000000000000000    0.3392857142857144 T T T Li
   0.0000000000000000    0.0000000000000001    0.3392857142857144 T T T Li
   0.0000000000000000    0.5000000000000001    0.4107142857142858 F F F Li
   0.5000000000000000    0.0000000000000001    0.4107142857142858 F F F Li
   0.7500000000000001    0.7500000000000001    0.4107142857142858 F F F Li
   0.2500000000000000    0.2500000000000001    0.4107142857142858 F F F Li
   0.2500000000000000    0.7500000000000001    0.3392857142857144 T T T Li
   0.7500000000000001    0.2500000000000001    0.3392857142857144 T T T Li
   0.5000000000000000    0.7500000000000000    0.3035714285714287 T T T Li
   0.0000000000000000    0.2500000000000000    0.3035714285714286 T T T Li
   0.0000000000000000    0.7500000000000001    0.3750000000000001 T T T Li
   0.5000000000000000    0.2500000000000001    0.3750000000000001 T T T Li
   0.7500000000000001    0.4999999999999999    0.3035714285714287 T T T Li
   0.2500000000000000    0.0000000000000000    0.3035714285714286 T T T Li
   0.2500000000000000    0.5000000000000000    0.3750000000000001 T T T Li
   0.7500000000000001    0.0000000000000001    0.3750000000000001 T T T Li
   0.5000000000000000    0.4999999999999999    0.4107142857142858 F F F Ge
   0.0000000000000000    0.0000000000000000    0.4107142857142858 F F F Ge
   0.0000000000000000    0.5000000000000000    0.3392857142857144 T T T Ge
   0.5000000000000000    0.0000000000000000    0.3392857142857144 T T T Ge
   0.7500000000000001    0.7500000000000000    0.3392857142857144 T T T Ge
   0.2500000000000000    0.2500000000000000    0.3392857142857144 T T T Ge
   0.2500000000000000    0.7500000000000001    0.4107142857142858 F F F Ge
   0.7500000000000001    0.2500000000000001    0.4107142857142858 F F F Ge
   0.5000000000000000    0.7500000000000001    0.3750000000000001 T T T Ge
   0.0000000000000000    0.2500000000000001    0.3750000000000001 T T T Ge
   0.0000000000000000    0.7500000000000001    0.3035714285714286 T T T Ge
   0.5000000000000000    0.2500000000000001    0.3035714285714286 T T T Ge
   0.7500000000000001    0.5000000000000000    0.3750000000000001 T T T Ge
   0.2500000000000000    0.0000000000000001    0.3750000000000001 T T T Ge
   0.2500000000000000    0.5000000000000001    0.3035714285714286 T T T Ge
   0.7500000000000001    0.0000000000000001    0.3035714285714286 T T T Ge
   0.8750000000000001    0.8750000000000000    0.4107142857142858 F F F Pd
   0.3750000000000001    0.3750000000000001    0.4107142857142858 F F F Pd
   0.3750000000000001    0.8750000000000001    0.3392857142857144 T T T Pd
   0.8750000000000001    0.3750000000000001    0.3392857142857144 T T T Pd
   0.6250000000000000    0.8750000000000000    0.3750000000000000 T T T Pd
   0.1250000000000000    0.3750000000000001    0.3750000000000001 T T T Pd
   0.1250000000000000    0.8750000000000001    0.3035714285714286 T T T Pd
   0.6250000000000000    0.3750000000000001    0.3035714285714286 T T T Pd
   0.6250000000000000    0.6250000000000000    0.3392857142857143 T T T Pd
   0.1250000000000000    0.1250000000000001    0.3392857142857144 T T T Pd
   0.1250000000000000    0.6250000000000001    0.4107142857142858 F F F Pd
   0.6250000000000000    0.1250000000000001    0.4107142857142858 F F F Pd
   0.8750000000000001    0.6250000000000000    0.3750000000000001 T T T Pd
   0.3750000000000001    0.1250000000000001    0.3750000000000001 T T T Pd
   0.3750000000000001    0.6250000000000001    0.3035714285714286 T T T Pd
   0.8750000000000001    0.1250000000000001    0.3035714285714286 T T T Pd
   0.8750000000000001    0.6250000000000001    0.3035714285714287 T T T Pd
   0.3750000000000001    0.1250000000000001    0.3035714285714287 T T T Pd
   0.3750000000000001    0.6250000000000001    0.3750000000000001 T T T Pd
   0.8750000000000001    0.1250000000000002    0.3750000000000001 T T T Pd
   0.6250000000000000    0.6250000000000001    0.4107142857142858 F F F Pd
   0.1250000000000000    0.1250000000000001    0.4107142857142858 F F F Pd
   0.1250000000000000    0.6250000000000001    0.3392857142857144 T T T Pd
   0.6250000000000000    0.1250000000000001    0.3392857142857144 T T T Pd
   0.6250000000000000    0.8750000000000001    0.3035714285714286 T T T Pd
   0.1250000000000000    0.3750000000000001    0.3035714285714287 T T T Pd
   0.1250000000000000    0.8750000000000001    0.3750000000000001 T T T Pd
   0.6250000000000000    0.3750000000000001    0.3750000000000001 T T T Pd
   0.8750000000000001    0.8750000000000001    0.3392857142857144 T T T Pd
   0.3750000000000001    0.3750000000000001    0.3392857142857144 T T T Pd
   0.3750000000000001    0.8750000000000001    0.4107142857142858 F F F Pd
   0.8750000000000001    0.3750000000000001    0.4107142857142858 F F F Pd
   0.5000000000000000    0.5000000000000000    0.4821428571428572 F F F Li
   0.0000000000000000    0.0000000000000001    0.4821428571428572 F F F Li
   0.0000000000000000    0.5000000000000001    0.5535714285714286 F F F Li
   0.5000000000000000    0.0000000000000001    0.5535714285714286 F F F Li
   0.7500000000000001    0.7500000000000001    0.5535714285714286 F F F Li
   0.2500000000000000    0.2500000000000001    0.5535714285714286 F F F Li
   0.2500000000000000    0.7500000000000001    0.4821428571428572 F F F Li
   0.7500000000000001    0.2500000000000001    0.4821428571428572 F F F Li
   0.5000000000000000    0.7500000000000000    0.4464285714285715 F F F Li
   0.0000000000000000    0.2500000000000000    0.4464285714285715 F F F Li
   0.0000000000000000    0.7500000000000001    0.5178571428571429 F F F Li
   0.5000000000000000    0.2500000000000001    0.5178571428571429 F F F Li
   0.7500000000000001    0.4999999999999999    0.4464285714285715 F F F Li
   0.2500000000000000    0.0000000000000000    0.4464285714285715 F F F Li
   0.2500000000000000    0.5000000000000000    0.5178571428571429 F F F Li
   0.7500000000000001    0.0000000000000001    0.5178571428571429 F F F Li
   0.5000000000000000    0.4999999999999999    0.5535714285714286 F F F Ge
   0.0000000000000000    0.0000000000000000    0.5535714285714286 F F F Ge
   0.0000000000000000    0.5000000000000000    0.4821428571428572 F F F Ge
   0.5000000000000000    0.0000000000000000    0.4821428571428572 F F F Ge
   0.7500000000000001    0.7500000000000000    0.4821428571428572 F F F Ge
   0.2500000000000000    0.2500000000000000    0.4821428571428572 F F F Ge
   0.2500000000000000    0.7500000000000001    0.5535714285714286 F F F Ge
   0.7500000000000001    0.2500000000000001    0.5535714285714286 F F F Ge
   0.5000000000000000    0.7500000000000001    0.5178571428571429 F F F Ge
   0.0000000000000000    0.2500000000000001    0.5178571428571429 F F F Ge
   0.0000000000000000    0.7500000000000001    0.4464285714285715 F F F Ge
   0.5000000000000000    0.2500000000000001    0.4464285714285715 F F F Ge
   0.7500000000000001    0.5000000000000000    0.5178571428571429 F F F Ge
   0.2500000000000000    0.0000000000000001    0.5178571428571429 F F F Ge
   0.2500000000000000    0.5000000000000001    0.4464285714285715 F F F Ge
   0.7500000000000001    0.0000000000000001    0.4464285714285715 F F F Ge
   0.8750000000000001    0.8750000000000000    0.5535714285714286 F F F Pd
   0.3750000000000001    0.3750000000000001    0.5535714285714286 F F F Pd
   0.3750000000000001    0.8750000000000001    0.4821428571428572 F F F Pd
   0.8750000000000001    0.3750000000000001    0.4821428571428572 F F F Pd
   0.6250000000000000    0.8750000000000000    0.5178571428571429 F F F Pd
   0.1250000000000000    0.3750000000000001    0.5178571428571429 F F F Pd
   0.1250000000000000    0.8750000000000001    0.4464285714285715 F F F Pd
   0.6250000000000000    0.3750000000000001    0.4464285714285715 F F F Pd
   0.6250000000000000    0.6250000000000000    0.4821428571428572 F F F Pd
   0.1250000000000000    0.1250000000000001    0.4821428571428572 F F F Pd
   0.1250000000000000    0.6250000000000001    0.5535714285714286 F F F Pd
   0.6250000000000000    0.1250000000000001    0.5535714285714286 F F F Pd
   0.8750000000000001    0.6250000000000000    0.5178571428571429 F F F Pd
   0.3750000000000001    0.1250000000000001    0.5178571428571429 F F F Pd
   0.3750000000000001    0.6250000000000001    0.4464285714285715 F F F Pd
   0.8750000000000001    0.1250000000000001    0.4464285714285715 F F F Pd
   0.8750000000000001    0.6250000000000001    0.4464285714285715 F F F Pd
   0.3750000000000001    0.1250000000000001    0.4464285714285715 F F F Pd
   0.3750000000000001    0.6250000000000001    0.5178571428571429 F F F Pd
   0.8750000000000001    0.1250000000000002    0.5178571428571429 F F F Pd
   0.6250000000000000    0.6250000000000001    0.5535714285714286 F F F Pd
   0.1250000000000000    0.1250000000000001    0.5535714285714286 F F F Pd
   0.1250000000000000    0.6250000000000001    0.4821428571428572 F F F Pd
   0.6250000000000000    0.1250000000000001    0.4821428571428572 F F F Pd
   0.6250000000000000    0.8750000000000001    0.4464285714285715 F F F Pd
   0.1250000000000000    0.3750000000000001    0.4464285714285715 F F F Pd
   0.1250000000000000    0.8750000000000001    0.5178571428571429 F F F Pd
   0.6250000000000000    0.3750000000000001    0.5178571428571429 F F F Pd
   0.8750000000000001    0.8750000000000001    0.4821428571428572 F F F Pd
   0.3750000000000001    0.3750000000000001    0.4821428571428572 F F F Pd
   0.3750000000000001    0.8750000000000001    0.5535714285714287 F F F Pd
   0.8750000000000001    0.3750000000000001    0.5535714285714287 F F F Pd
   0.5000000000000000    0.5000000000000000    0.6250000000000000 T T T Li
   0.0000000000000000    0.0000000000000001    0.6250000000000000 T T T Li
   0.0000000000000000    0.5000000000000001    0.6964285714285714 T T T Li
   0.5000000000000000    0.0000000000000001    0.6964285714285714 T T T Li
   0.7500000000000001    0.7500000000000001    0.6964285714285714 T T T Li
   0.2500000000000000    0.2500000000000001    0.6964285714285714 T T T Li
   0.2500000000000000    0.7500000000000001    0.6250000000000000 T T T Li
   0.7500000000000001    0.2500000000000001    0.6250000000000000 T T T Li
   0.5000000000000000    0.7500000000000000    0.5892857142857144 F F F Li
   0.0000000000000000    0.2500000000000000    0.5892857142857143 F F F Li
   0.0000000000000000    0.7500000000000001    0.6607142857142858 T T T Li
   0.5000000000000000    0.2500000000000001    0.6607142857142858 T T T Li
   0.7500000000000001    0.4999999999999999    0.5892857142857144 F F F Li
   0.2500000000000000    0.0000000000000000    0.5892857142857143 F F F Li
   0.2500000000000000    0.5000000000000000    0.6607142857142858 T T T Li
   0.7500000000000001    0.0000000000000001    0.6607142857142858 T T T Li
   0.5000000000000000    0.4999999999999999    0.6964285714285714 T T T Ge
   0.0000000000000000    0.0000000000000000    0.6964285714285714 T T T Ge
   0.0000000000000000    0.5000000000000000    0.6250000000000000 T T T Ge
   0.5000000000000000    0.0000000000000000    0.6250000000000000 T T T Ge
   0.7500000000000001    0.7500000000000000    0.6250000000000000 T T T Ge
   0.2500000000000000    0.2500000000000000    0.6250000000000000 T T T Ge
   0.2500000000000000    0.7500000000000001    0.6964285714285714 T T T Ge
   0.7500000000000001    0.2500000000000001    0.6964285714285715 T T T Ge
   0.5000000000000000    0.7500000000000001    0.6607142857142858 T T T Ge
   0.0000000000000000    0.2500000000000001    0.6607142857142858 T T T Ge
   0.0000000000000000    0.7500000000000001    0.5892857142857143 F F F Ge
   0.5000000000000000    0.2500000000000001    0.5892857142857143 F F F Ge
   0.7500000000000001    0.5000000000000000    0.6607142857142858 T T T Ge
   0.2500000000000000    0.0000000000000001    0.6607142857142858 T T T Ge
   0.2500000000000000    0.5000000000000001    0.5892857142857143 F F F Ge
   0.7500000000000001    0.0000000000000001    0.5892857142857143 F F F Ge
   0.8750000000000001    0.8750000000000000    0.6964285714285714 T T T Pd
   0.3750000000000001    0.3750000000000001    0.6964285714285714 T T T Pd
   0.3750000000000001    0.8750000000000001    0.6250000000000000 T T T Pd
   0.8750000000000001    0.3750000000000001    0.6250000000000000 T T T Pd
   0.6250000000000000    0.8750000000000000    0.6607142857142857 T T T Pd
   0.1250000000000000    0.3750000000000001    0.6607142857142858 T T T Pd
   0.1250000000000000    0.8750000000000001    0.5892857142857143 F F F Pd
   0.6250000000000000    0.3750000000000001    0.5892857142857143 F F F Pd
   0.6250000000000000    0.6250000000000000    0.6250000000000000 T T T Pd
   0.1250000000000000    0.1250000000000001    0.6250000000000000 T T T Pd
   0.1250000000000000    0.6250000000000001    0.6964285714285714 T T T Pd
   0.6250000000000000    0.1250000000000001    0.6964285714285714 T T T Pd
   0.8750000000000001    0.6250000000000000    0.6607142857142858 T T T Pd
   0.3750000000000001    0.1250000000000001    0.6607142857142858 T T T Pd
   0.3750000000000001    0.6250000000000001    0.5892857142857143 F F F Pd
   0.8750000000000001    0.1250000000000001    0.5892857142857143 F F F Pd
   0.8750000000000001    0.6250000000000001    0.5892857142857144 F F F Pd
   0.3750000000000001    0.1250000000000001    0.5892857142857144 F F F Pd
   0.3750000000000001    0.6250000000000001    0.6607142857142858 T T T Pd
   0.8750000000000001    0.1250000000000002    0.6607142857142858 T T T Pd
   0.6250000000000000    0.6250000000000001    0.6964285714285714 T T T Pd
   0.1250000000000000    0.1250000000000001    0.6964285714285715 T T T Pd
   0.1250000000000000    0.6250000000000001    0.6250000000000000 T T T Pd
   0.6250000000000000    0.1250000000000001    0.6250000000000000 T T T Pd
   0.6250000000000000    0.8750000000000001    0.5892857142857143 F F F Pd
   0.1250000000000000    0.3750000000000001    0.5892857142857144 F F F Pd
   0.1250000000000000    0.8750000000000001    0.6607142857142858 T T T Pd
   0.6250000000000000    0.3750000000000001    0.6607142857142858 T T T Pd
   0.8750000000000001    0.8750000000000001    0.6250000000000000 T T T Pd
   0.3750000000000001    0.3750000000000001    0.6250000000000000 T T T Pd
   0.3750000000000001    0.8750000000000001    0.6964285714285715 T T T Pd
   0.8750000000000001    0.3750000000000001    0.6964285714285715 T T T Pd
