Rb32 As32 Pd16
1.0
  20.3051015638864705    0.0000000000000000    0.0000000000000012
   9.3209124663328886   10.1184319482785963    6.2597195742820695
   0.0000000000000000    0.0000000000000000   31.2985978714103474
Rb As Pd Rb As Pd
16 16 8 16 16 8
Selective dynamics
direct
   0.2072917172510600    0.2927082827489399    0.3664583434502120 T T T Rb
   0.2072917172510600    0.7927082827489400    0.4664583434502120 F F F Rb
   0.2927082827489400    0.9572917172510600    0.3335416565497880 T T T Rb
   0.2927082827489400    0.4572917172510600    0.4335416565497880 F F F Rb
   0.0827107116959418    0.1672892883040582    0.3915421423391883 T T T Rb
   0.0827107116959418    0.6672892883040582    0.4915421423391884 F F F Rb
   0.4172892883040583    0.0827107116959417    0.3084578576608116 T T T Rb
   0.4172892883040583    0.5827107116959418    0.4084578576608116 T T T Rb
   0.7072917172510600    0.5427082827489400    0.3164583434502120 T T T Rb
   0.7072917172510600    0.0427082827489400    0.4164583434502119 T T T Rb
   0.7927082827489400    0.7072917172510600    0.3835416565497880 T T T Rb
   0.7927082827489400    0.2072917172510600    0.4835416565497880 F F F Rb
   0.5827107116959419    0.9172892883040581    0.4415421423391884 F F F Rb
   0.5827107116959419    0.4172892883040582    0.3415421423391883 T T T Rb
   0.9172892883040582    0.3327107116959418    0.4584578576608116 F F F Rb
   0.9172892883040582    0.8327107116959418    0.3584578576608116 T T T Rb
   0.3943239520869427    0.9441427479764073    0.4361714504047186 F F F As
   0.3943239520869427    0.4441427479764073    0.3361714504047185 T T T As
   0.1056760479130574    0.3058572520235927    0.4638285495952814 F F F As
   0.1056760479130574    0.8058572520235927    0.3638285495952814 T T T As
   0.3943239520869427    0.7672093478497075    0.4715581304300585 F F F As
   0.3943239520869427    0.2672093478497075    0.3715581304300585 T T T As
   0.1056760479130574    0.9827906521502925    0.3284418695699415 T T T As
   0.1056760479130574    0.4827906521502925    0.4284418695699415 F F F As
   0.8943239520869426    0.1941427479764073    0.3861714504047185 T T T As
   0.8943239520869426    0.6941427479764073    0.4861714504047185 F F F As
   0.6056760479130574    0.5558572520235927    0.4138285495952815 T T T As
   0.6056760479130574    0.0558572520235927    0.3138285495952814 T T T As
   0.8943239520869426    0.5172093478497074    0.3215581304300585 T T T As
   0.8943239520869426    0.0172093478497075    0.4215581304300585 F F F As
   0.6056760479130574    0.7327906521502925    0.3784418695699415 T T T As
   0.6056760479130574    0.2327906521502925    0.4784418695699415 F F F As
   0.0000000000000000    0.4999999999999999    0.4750000000000000 F F F Pd
   0.0000000000000000    0.0000000000000000    0.3750000000000000 T T T Pd
   0.0000000000000000    0.4999999999999999    0.3750000000000000 T T T Pd
   0.0000000000000000    0.0000000000000000    0.4750000000000000 F F F Pd
   0.5000000000000000    0.7500000000000000    0.4250000000000000 F F F Pd
   0.5000000000000000    0.2500000000000000    0.3250000000000000 T T T Pd
   0.5000000000000000    0.7500000000000000    0.3250000000000000 T T T Pd
   0.5000000000000000    0.2500000000000000    0.4249999999999999 F F F Pd
   0.2072917172510600    0.2927082827489399    0.5664583434502120 F F F Rb
   0.2072917172510600    0.7927082827489400    0.6664583434502120 T T T Rb
   0.2927082827489400    0.9572917172510600    0.5335416565497880 F F F Rb
   0.2927082827489400    0.4572917172510600    0.6335416565497880 T T T Rb
   0.0827107116959418    0.1672892883040582    0.5915421423391883 T T T Rb
   0.0827107116959418    0.6672892883040582    0.6915421423391883 T T T Rb
   0.4172892883040583    0.0827107116959417    0.5084578576608116 F F F Rb
   0.4172892883040583    0.5827107116959418    0.6084578576608116 T T T Rb
   0.7072917172510600    0.5427082827489400    0.5164583434502119 F F F Rb
   0.7072917172510600    0.0427082827489400    0.6164583434502120 T T T Rb
   0.7927082827489400    0.7072917172510600    0.5835416565497880 T T T Rb
   0.7927082827489400    0.2072917172510600    0.6835416565497880 T T T Rb
   0.5827107116959419    0.9172892883040581    0.6415421423391884 T T T Rb
   0.5827107116959419    0.4172892883040582    0.5415421423391884 F F F Rb
   0.9172892883040582    0.3327107116959418    0.6584578576608116 T T T Rb
   0.9172892883040582    0.8327107116959418    0.5584578576608117 F F F Rb
   0.3943239520869427    0.9441427479764073    0.6361714504047186 T T T As
   0.3943239520869427    0.4441427479764073    0.5361714504047186 F F F As
   0.1056760479130574    0.3058572520235927    0.6638285495952814 T T T As
   0.1056760479130574    0.8058572520235927    0.5638285495952815 F F F As
   0.3943239520869427    0.7672093478497075    0.6715581304300585 T T T As
   0.3943239520869427    0.2672093478497075    0.5715581304300585 F F F As
   0.1056760479130574    0.9827906521502925    0.5284418695699415 F F F As
   0.1056760479130574    0.4827906521502925    0.6284418695699414 T T T As
   0.8943239520869426    0.1941427479764073    0.5861714504047185 T T T As
   0.8943239520869426    0.6941427479764073    0.6861714504047185 T T T As
   0.6056760479130574    0.5558572520235927    0.6138285495952815 T T T As
   0.6056760479130574    0.0558572520235927    0.5138285495952815 F F F As
   0.8943239520869426    0.5172093478497074    0.5215581304300585 F F F As
   0.8943239520869426    0.0172093478497075    0.6215581304300585 T T T As
   0.6056760479130574    0.7327906521502925    0.5784418695699415 F F F As
   0.6056760479130574    0.2327906521502925    0.6784418695699415 T T T As
   0.0000000000000000    0.4999999999999999    0.6750000000000000 T T T Pd
   0.0000000000000000    0.0000000000000000    0.5750000000000000 F F F Pd
   0.0000000000000000    0.4999999999999999    0.5750000000000000 F F F Pd
   0.0000000000000000    0.0000000000000000    0.6750000000000000 T T T Pd
   0.5000000000000000    0.7500000000000000    0.6250000000000000 T T T Pd
   0.5000000000000000    0.2500000000000000    0.5249999999999999 F F F Pd
   0.5000000000000000    0.7500000000000000    0.5249999999999999 F F F Pd
   0.5000000000000000    0.2500000000000000    0.6250000000000000 T T T Pd
