Rb24 As24 Pd12
1.0
  16.4423414937473602    0.0000000000000000    0.0000000000000010
   2.8776630501342639    6.2477655160975880    6.2597195742820695
   0.0000000000000000    0.0000000000000000   43.8180370199744829
Rb As Pd Rb As Pd Rb As Pd
8 8 4 8 8 4 8 8 4
Selective dynamics
direct
   0.2072917172510600    0.7927082827489400    0.3724702453215800 T T T Rb
   0.2927082827489400    0.2072917172510600    0.3846726118212772 T T T Rb
   0.0827107116959418    0.4172892883040583    0.4261015302422774 F F F Rb
   0.4172892883040583    0.5827107116959418    0.3310413269005798 T T T Rb
   0.7072917172510600    0.7927082827489400    0.3724702453215800 T T T Rb
   0.7927082827489400    0.2072917172510600    0.3846726118212772 T T T Rb
   0.5827107116959419    0.4172892883040582    0.4261015302422774 F F F Rb
   0.9172892883040582    0.5827107116959418    0.3310413269005798 T T T Rb
   0.3943239520869427    0.2826094480397572    0.3024843645657490 T T T As
   0.1056760479130574    0.7173905519602428    0.3118013497199654 T T T As
   0.3943239520869427    0.9287426477863576    0.3530367646019490 T T T As
   0.1056760479130574    0.0712573522136424    0.4041060925409082 F F F As
   0.8943239520869426    0.2826094480397572    0.3024843645657490 T T T As
   0.6056760479130574    0.7173905519602428    0.3118013497199654 T T T As
   0.8943239520869426    0.9287426477863576    0.3530367646019489 T T T As
   0.6056760479130574    0.0712573522136425    0.4041060925409082 F F F As
   0.0000000000000000    0.0000000000000000    0.3071428571428572 T T T Pd
   0.0000000000000000    0.0000000000000000    0.3785714285714286 T T T Pd
   0.5000000000000000    0.0000000000000001    0.3071428571428572 T T T Pd
   0.5000000000000000    0.0000000000000001    0.3785714285714286 T T T Pd
   0.2072917172510600    0.7927082827489400    0.5153273881787228 F F F Rb
   0.2927082827489400    0.2072917172510600    0.5275297546784200 F F F Rb
   0.0827107116959418    0.4172892883040583    0.5689586730994203 F F F Rb
   0.4172892883040583    0.5827107116959418    0.4738984697577227 F F F Rb
   0.7072917172510600    0.7927082827489400    0.5153273881787228 F F F Rb
   0.7927082827489400    0.2072917172510600    0.5275297546784200 F F F Rb
   0.5827107116959419    0.4172892883040582    0.5689586730994203 F F F Rb
   0.9172892883040582    0.5827107116959418    0.4738984697577227 F F F Rb
   0.3943239520869427    0.2826094480397572    0.4453415074228919 F F F As
   0.1056760479130574    0.7173905519602428    0.4546584925771082 F F F As
   0.3943239520869427    0.9287426477863576    0.4958939074590918 F F F As
   0.1056760479130574    0.0712573522136424    0.5469632353980511 F F F As
   0.8943239520869426    0.2826094480397572    0.4453415074228919 F F F As
   0.6056760479130574    0.7173905519602428    0.4546584925771082 F F F As
   0.8943239520869426    0.9287426477863576    0.4958939074590918 F F F As
   0.6056760479130574    0.0712573522136425    0.5469632353980511 F F F As
   0.0000000000000000    0.0000000000000000    0.4500000000000001 F F F Pd
   0.0000000000000000    0.0000000000000000    0.5214285714285715 F F F Pd
   0.5000000000000000    0.0000000000000001    0.4500000000000001 F F F Pd
   0.5000000000000000    0.0000000000000001    0.5214285714285715 F F F Pd
   0.2072917172510600    0.7927082827489400    0.6581845310358657 T T T Rb
   0.2927082827489400    0.2072917172510600    0.6703868975355629 T T T Rb
   0.0827107116959418    0.4172892883040583    0.7118158159565631 T T T Rb
   0.4172892883040583    0.5827107116959418    0.6167556126148654 T T T Rb
   0.7072917172510600    0.7927082827489400    0.6581845310358657 T T T Rb
   0.7927082827489400    0.2072917172510600    0.6703868975355629 T T T Rb
   0.5827107116959419    0.4172892883040582    0.7118158159565631 T T T Rb
   0.9172892883040582    0.5827107116959418    0.6167556126148654 T T T Rb
   0.3943239520869427    0.2826094480397572    0.5881986502800347 F F F As
   0.1056760479130574    0.7173905519602428    0.5975156354342510 F F F As
   0.3943239520869427    0.9287426477863576    0.6387510503162347 T T T As
   0.1056760479130574    0.0712573522136424    0.6898203782551939 T T T As
   0.8943239520869426    0.2826094480397572    0.5881986502800347 F F F As
   0.6056760479130574    0.7173905519602428    0.5975156354342510 F F F As
   0.8943239520869426    0.9287426477863576    0.6387510503162346 T T T As
   0.6056760479130574    0.0712573522136425    0.6898203782551939 T T T As
   0.0000000000000000    0.0000000000000000    0.5928571428571429 F F F Pd
   0.0000000000000000    0.0000000000000000    0.6642857142857144 T T T Pd
   0.5000000000000000    0.0000000000000001    0.5928571428571429 F F F Pd
   0.5000000000000000    0.0000000000000001    0.6642857142857143 T T T Pd
