Bi16 Pt32 Pb16
1.0
   7.6467425666810120    0.0000000000000000   -8.8296977585940990
  -0.0000000000000031   11.1188627899238366   -4.4148488792970495
   0.0000000000000000    0.0000000000000000   44.1484887929705039
Bi Pt Pb Bi Pt Pb Bi Pt Pb Bi Pt Pb
4 8 4 4 8 4 4 8 4 4 8 4
Selective dynamics
direct
   0.8333333333333334    0.4999999999999999    0.3479166666666667 T T T Bi
   0.3333333333333333    0.0000000000000000    0.3479166666666667 T T T Bi
   0.3333333333333333    0.4999999999999999    0.2979166666666667 T T T Bi
   0.8333333333333333    0.9999999999999999    0.2979166666666667 T T T Bi
   0.5000000000000000    0.6251571771943887    0.3937657177194389 T T T Pt
   0.0000000000000000    0.1251571771943887    0.3937657177194389 T T T Pt
   0.0000000000000000    0.6251571771943886    0.3437657177194389 T T T Pt
   0.4999999999999999    0.1251571771943886    0.3437657177194389 T T T Pt
   0.5000000000000000    0.8748428228056113    0.3187342822805612 T T T Pt
   0.0000000000000000    0.3748428228056113    0.3187342822805612 T T T Pt
   0.0000000000000000    0.8748428228056113    0.3687342822805612 T T T Pt
   0.4999999999999999    0.3748428228056113    0.3687342822805612 T T T Pt
   0.6666666666666666    0.7499999999999999    0.3895833333333333 T T T Pb
   0.1666666666666666    0.2499999999999999    0.3895833333333333 T T T Pb
   0.1666666666666666    0.7499999999999999    0.3395833333333333 T T T Pb
   0.6666666666666666    0.2499999999999999    0.3395833333333333 T T T Pb
   0.8333333333333334    0.4999999999999999    0.4479166666666667 F F F Bi
   0.3333333333333333    0.0000000000000000    0.4479166666666667 F F F Bi
   0.3333333333333333    0.4999999999999999    0.3979166666666667 T T T Bi
   0.8333333333333333    0.9999999999999999    0.3979166666666667 T T T Bi
   0.5000000000000000    0.6251571771943887    0.4937657177194389 F F F Pt
   0.0000000000000000    0.1251571771943887    0.4937657177194389 F F F Pt
   0.0000000000000000    0.6251571771943886    0.4437657177194388 F F F Pt
   0.4999999999999999    0.1251571771943886    0.4437657177194388 F F F Pt
   0.5000000000000000    0.8748428228056113    0.4187342822805611 F F F Pt
   0.0000000000000000    0.3748428228056113    0.4187342822805611 F F F Pt
   0.0000000000000000    0.8748428228056113    0.4687342822805611 F F F Pt
   0.4999999999999999    0.3748428228056113    0.4687342822805611 F F F Pt
   0.6666666666666666    0.7499999999999999    0.4895833333333334 F F F Pb
   0.1666666666666666    0.2499999999999999    0.4895833333333334 F F F Pb
   0.1666666666666666    0.7499999999999999    0.4395833333333333 F F F Pb
   0.6666666666666666    0.2499999999999999    0.4395833333333333 F F F Pb
   0.8333333333333334    0.4999999999999999    0.5479166666666666 F F F Bi
   0.3333333333333333    0.0000000000000000    0.5479166666666666 F F F Bi
   0.3333333333333333    0.4999999999999999    0.4979166666666667 F F F Bi
   0.8333333333333333    0.9999999999999999    0.4979166666666667 F F F Bi
   0.5000000000000000    0.6251571771943887    0.5937657177194389 T T T Pt
   0.0000000000000000    0.1251571771943887    0.5937657177194389 T T T Pt
   0.0000000000000000    0.6251571771943886    0.5437657177194388 F F F Pt
   0.4999999999999999    0.1251571771943886    0.5437657177194388 F F F Pt
   0.5000000000000000    0.8748428228056113    0.5187342822805612 F F F Pt
   0.0000000000000000    0.3748428228056113    0.5187342822805612 F F F Pt
   0.0000000000000000    0.8748428228056113    0.5687342822805612 F F F Pt
   0.4999999999999999    0.3748428228056113    0.5687342822805612 F F F Pt
   0.6666666666666666    0.7499999999999999    0.5895833333333333 T T T Pb
   0.1666666666666666    0.2499999999999999    0.5895833333333333 T T T Pb
   0.1666666666666666    0.7499999999999999    0.5395833333333333 F F F Pb
   0.6666666666666666    0.2499999999999999    0.5395833333333333 F F F Pb
   0.8333333333333334    0.4999999999999999    0.6479166666666667 T T T Bi
   0.3333333333333333    0.0000000000000000    0.6479166666666667 T T T Bi
   0.3333333333333333    0.4999999999999999    0.5979166666666667 T T T Bi
   0.8333333333333333    0.9999999999999999    0.5979166666666667 T T T Bi
   0.5000000000000000    0.6251571771943887    0.6937657177194390 T T T Pt
   0.0000000000000000    0.1251571771943887    0.6937657177194390 T T T Pt
   0.0000000000000000    0.6251571771943886    0.6437657177194389 T T T Pt
   0.4999999999999999    0.1251571771943886    0.6437657177194389 T T T Pt
   0.5000000000000000    0.8748428228056113    0.6187342822805612 T T T Pt
   0.0000000000000000    0.3748428228056113    0.6187342822805612 T T T Pt
   0.0000000000000000    0.8748428228056113    0.6687342822805611 T T T Pt
   0.4999999999999999    0.3748428228056113    0.6687342822805611 T T T Pt
   0.6666666666666666    0.7499999999999999    0.6895833333333333 T T T Pb
   0.1666666666666666    0.2499999999999999    0.6895833333333333 T T T Pb
   0.1666666666666666    0.7499999999999999    0.6395833333333334 T T T Pb
   0.6666666666666666    0.2499999999999999    0.6395833333333334 T T T Pb
