Ta4 As4
1.0
   3.4665140262821934    0.0000000000000000    0.0000000000000002
   0.0000000000000006    3.4665140262821934    0.0000000000000002
   0.0000000000000000    0.0000000000000000   35.2404674835034655
Ta As
4 4
Selective dynamics
direct
   0.0000000000000000    0.4999999999999999    0.6112750863904880 T T T Ta
   0.4999999999999999    0.4999999999999999    0.3612750863904880 T T T Ta
   0.4999999999999999    0.0000000000000000    0.4446084197238213 T T T Ta
   0.0000000000000000    0.0000000000000000    0.5279417530571546 F F F Ta
   0.4999999999999999    0.0000000000000000    0.6387249136095121 T T T As
   0.0000000000000000    0.0000000000000000    0.3887249136095121 T T T As
   0.0000000000000000    0.4999999999999999    0.4720582469428454 F F F As
   0.4999999999999999    0.4999999999999999    0.5553915802761787 T T T As
