Ba24 Zn48
1.0
   7.7469748000034926    0.0000000000000000    0.0000000000000005
   0.0000000000000026   16.3491106894710185   -5.0053734593821080
   0.0000000000000000    0.0000000000000000   35.6378657126654019
Ba Zn Ba Zn Ba Zn
8 16 8 16 8 16
Selective dynamics
direct
   0.6901500794275464    0.5000000000000000    0.3154761904761905 T T T Ba
   0.6901500794275464    0.0000000000000000    0.3869047619047619 F F F Ba
   0.3098499205724536    0.5000000000000000    0.3869047619047619 F F F Ba
   0.3098499205724536    0.0000000000000000    0.3154761904761905 T T T Ba
   0.1901500794275465    0.2500000000000000    0.3511904761904762 T T T Ba
   0.1901500794275465    0.7500000000000000    0.4226190476190477 F F F Ba
   0.8098499205724536    0.2500000000000000    0.4226190476190477 F F F Ba
   0.8098499205724536    0.7500000000000000    0.3511904761904762 T T T Ba
   0.5934124405636680    0.3347533348745753    0.3630993842322181 T T T Zn
   0.5934124405636680    0.8347533348745753    0.2916708128036467 T T T Zn
   0.4065875594363320    0.1652466651254247    0.4107101395773057 F F F Zn
   0.4065875594363320    0.6652466651254247    0.3392815681487343 T T T Zn
   0.4065875594363320    0.3347533348745753    0.2916708128036467 T T T Zn
   0.4065875594363320    0.8347533348745753    0.3630993842322181 T T T Zn
   0.5934124405636680    0.1652466651254247    0.3392815681487343 T T T Zn
   0.5934124405636680    0.6652466651254247    0.4107101395773057 F F F Zn
   0.0934124405636682    0.0847533348745752    0.3988136699465039 F F F Zn
   0.0934124405636682    0.5847533348745753    0.3273850985179324 T T T Zn
   0.9065875594363320    0.4152466651254247    0.3749958538630200 T T T Zn
   0.9065875594363320    0.9152466651254247    0.3035672824344486 T T T Zn
   0.9065875594363320    0.0847533348745753    0.3273850985179324 T T T Zn
   0.9065875594363320    0.5847533348745753    0.3988136699465039 F F F Zn
   0.0934124405636682    0.4152466651254247    0.3035672824344486 T T T Zn
   0.0934124405636682    0.9152466651254247    0.3749958538630200 T T T Zn
   0.6901500794275464    0.5000000000000000    0.4583333333333334 F F F Ba
   0.6901500794275464    0.0000000000000000    0.5297619047619048 F F F Ba
   0.3098499205724536    0.5000000000000000    0.5297619047619048 F F F Ba
   0.3098499205724536    0.0000000000000000    0.4583333333333333 F F F Ba
   0.1901500794275465    0.2500000000000000    0.4940476190476191 F F F Ba
   0.1901500794275465    0.7500000000000000    0.5654761904761905 F F F Ba
   0.8098499205724536    0.2500000000000000    0.5654761904761905 F F F Ba
   0.8098499205724536    0.7500000000000000    0.4940476190476191 F F F Ba
   0.5934124405636680    0.3347533348745753    0.5059565270893610 F F F Zn
   0.5934124405636680    0.8347533348745753    0.4345279556607896 F F F Zn
   0.4065875594363320    0.1652466651254247    0.5535672824344486 F F F Zn
   0.4065875594363320    0.6652466651254247    0.4821387110058771 F F F Zn
   0.4065875594363320    0.3347533348745753    0.4345279556607896 F F F Zn
   0.4065875594363320    0.8347533348745753    0.5059565270893610 F F F Zn
   0.5934124405636680    0.1652466651254247    0.4821387110058771 F F F Zn
   0.5934124405636680    0.6652466651254247    0.5535672824344486 F F F Zn
   0.0934124405636682    0.0847533348745752    0.5416708128036467 F F F Zn
   0.0934124405636682    0.5847533348745753    0.4702422413750753 F F F Zn
   0.9065875594363320    0.4152466651254247    0.5178529967201628 F F F Zn
   0.9065875594363320    0.9152466651254247    0.4464244252915914 F F F Zn
   0.9065875594363320    0.0847533348745753    0.4702422413750753 F F F Zn
   0.9065875594363320    0.5847533348745753    0.5416708128036467 F F F Zn
   0.0934124405636682    0.4152466651254247    0.4464244252915914 F F F Zn
   0.0934124405636682    0.9152466651254247    0.5178529967201628 F F F Zn
   0.6901500794275464    0.5000000000000000    0.6011904761904762 F F F Ba
   0.6901500794275464    0.0000000000000000    0.6726190476190477 T T T Ba
   0.3098499205724536    0.5000000000000000    0.6726190476190477 T T T Ba
   0.3098499205724536    0.0000000000000000    0.6011904761904762 F F F Ba
   0.1901500794275465    0.2500000000000000    0.6369047619047619 T T T Ba
   0.1901500794275465    0.7500000000000000    0.7083333333333333 T T T Ba
   0.8098499205724536    0.2500000000000000    0.7083333333333333 T T T Ba
   0.8098499205724536    0.7500000000000000    0.6369047619047619 T T T Ba
   0.5934124405636680    0.3347533348745753    0.6488136699465039 T T T Zn
   0.5934124405636680    0.8347533348745753    0.5773850985179324 F F F Zn
   0.4065875594363320    0.1652466651254247    0.6964244252915914 T T T Zn
   0.4065875594363320    0.6652466651254247    0.6249958538630200 T T T Zn
   0.4065875594363320    0.3347533348745753    0.5773850985179324 F F F Zn
   0.4065875594363320    0.8347533348745753    0.6488136699465039 T T T Zn
   0.5934124405636680    0.1652466651254247    0.6249958538630200 T T T Zn
   0.5934124405636680    0.6652466651254247    0.6964244252915914 T T T Zn
   0.0934124405636682    0.0847533348745752    0.6845279556607895 T T T Zn
   0.0934124405636682    0.5847533348745753    0.6130993842322181 F F F Zn
   0.9065875594363320    0.4152466651254247    0.6607101395773056 T T T Zn
   0.9065875594363320    0.9152466651254247    0.5892815681487342 F F F Zn
   0.9065875594363320    0.0847533348745753    0.6130993842322181 F F F Zn
   0.9065875594363320    0.5847533348745753    0.6845279556607895 T T T Zn
   0.0934124405636682    0.4152466651254247    0.5892815681487342 F F F Zn
   0.0934124405636682    0.9152466651254247    0.6607101395773056 T T T Zn
