Rh16 Pb32
1.0
   5.9158592952324591    0.0000000000000000    0.0000000000000004
   0.0000000000000022   13.6224767434821761   -6.8112383717410880
   0.0000000000000000    0.0000000000000000   34.0561918587054464
Rh Pb Rh Pb
8 16 8 16
Selective dynamics
direct
   0.7500000000000000    0.4999999999999999    0.3750000000000001 T T T Rh
   0.7500000000000000    0.0000000000000000    0.4750000000000000 F F F Rh
   0.2499999999999999    0.4999999999999999    0.3750000000000001 T T T Rh
   0.2500000000000000    0.0000000000000000    0.4750000000000000 F F F Rh
   0.2500000000000000    0.2500000000000000    0.4250000000000000 F F F Rh
   0.2500000000000000    0.7500000000000000    0.3250000000000001 T T T Rh
   0.7500000000000000    0.2500000000000000    0.4250000000000000 F F F Rh
   0.7500000000000000    0.7500000000000000    0.3250000000000001 T T T Rh
   0.5000000000000000    0.4173745661262380    0.4915250867747524 F F F Pb
   0.5000000000000000    0.9173745661262380    0.3915250867747525 T T T Pb
   0.5000000000000000    0.3326254338737619    0.3745752603242573 T T T Pb
   0.5000000000000000    0.8326254338737620    0.4745752603242572 F F F Pb
   0.0000000000000000    0.3326254338737619    0.3084749132252477 T T T Pb
   0.0000000000000000    0.8326254338737620    0.4084749132252476 F F F Pb
   0.0000000000000000    0.4173745661262380    0.4254247396757429 F F F Pb
   0.0000000000000000    0.9173745661262380    0.3254247396757429 T T T Pb
   0.0000000000000000    0.1673745661262381    0.3415250867747525 T T T Pb
   0.0000000000000000    0.6673745661262380    0.4415250867747524 F F F Pb
   0.0000000000000000    0.0826254338737619    0.4245752603242572 F F F Pb
   0.0000000000000000    0.5826254338737620    0.3245752603242573 T T T Pb
   0.5000000000000000    0.0826254338737619    0.3584749132252477 T T T Pb
   0.5000000000000000    0.5826254338737620    0.4584749132252476 F F F Pb
   0.5000000000000000    0.1673745661262381    0.4754247396757429 F F F Pb
   0.5000000000000000    0.6673745661262380    0.3754247396757429 T T T Pb
   0.7500000000000000    0.4999999999999999    0.5750000000000001 F F F Rh
   0.7500000000000000    0.0000000000000000    0.6750000000000000 T T T Rh
   0.2499999999999999    0.4999999999999999    0.5750000000000001 F F F Rh
   0.2500000000000000    0.0000000000000000    0.6750000000000000 T T T Rh
   0.2500000000000000    0.2500000000000000    0.6250000000000000 T T T Rh
   0.2500000000000000    0.7500000000000000    0.5250000000000001 F F F Rh
   0.7500000000000000    0.2500000000000000    0.6250000000000000 T T T Rh
   0.7500000000000000    0.7500000000000000    0.5250000000000001 F F F Rh
   0.5000000000000000    0.4173745661262380    0.6915250867747524 T T T Pb
   0.5000000000000000    0.9173745661262380    0.5915250867747525 F F F Pb
   0.5000000000000000    0.3326254338737619    0.5745752603242572 F F F Pb
   0.5000000000000000    0.8326254338737620    0.6745752603242572 T T T Pb
   0.0000000000000000    0.3326254338737619    0.5084749132252476 F F F Pb
   0.0000000000000000    0.8326254338737620    0.6084749132252476 T T T Pb
   0.0000000000000000    0.4173745661262380    0.6254247396757429 T T T Pb
   0.0000000000000000    0.9173745661262380    0.5254247396757430 F F F Pb
   0.0000000000000000    0.1673745661262381    0.5415250867747525 F F F Pb
   0.0000000000000000    0.6673745661262380    0.6415250867747524 T T T Pb
   0.0000000000000000    0.0826254338737619    0.6245752603242573 T T T Pb
   0.0000000000000000    0.5826254338737620    0.5245752603242573 F F F Pb
   0.5000000000000000    0.0826254338737619    0.5584749132252477 F F F Pb
   0.5000000000000000    0.5826254338737620    0.6584749132252476 T T T Pb
   0.5000000000000000    0.1673745661262381    0.6754247396757429 T T T Pb
   0.5000000000000000    0.6673745661262380    0.5754247396757428 F F F Pb
