Nb24 Au16
1.0
   3.4118071872720090    0.0000000000000000    0.0000000000000002
   0.0000000000000025   15.3174344253771011   -6.8236143745440208
   0.0000000000000000    0.0000000000000000   30.7062646854480832
Nb Au Nb Au Nb Au Nb Au
6 4 6 4 6 4 6 4
Selective dynamics
direct
   0.0000000000000000    0.0000000000000000    0.3611111111111111 T T T Nb
   0.0000000000000000    0.4003685893669698    0.3389707976371044 T T T Nb
   0.5000000000000000    0.0996314106330303    0.3276958690295623 T T T Nb
   0.5000000000000000    0.5000000000000000    0.3055555555555556 T T T Nb
   0.5000000000000000    0.9003685893669698    0.2834152420815488 T T T Nb
   0.0000000000000000    0.5996314106330303    0.3832514245851179 T T T Nb
   0.0000000000000000    0.1995414219742884    0.2943425382165085 T T T Au
   0.5000000000000000    0.3004585780257117    0.3723241284501582 T T T Au
   0.5000000000000000    0.6995414219742884    0.3498980937720641 T T T Au
   0.0000000000000000    0.8004585780257116    0.3167685728946026 T T T Au
   0.0000000000000000    0.0000000000000000    0.4722222222222222 F F F Nb
   0.0000000000000000    0.4003685893669698    0.4500819087482155 F F F Nb
   0.5000000000000000    0.0996314106330303    0.4388069801406734 F F F Nb
   0.5000000000000000    0.5000000000000000    0.4166666666666667 F F F Nb
   0.5000000000000000    0.9003685893669698    0.3945263531926599 F F F Nb
   0.0000000000000000    0.5996314106330303    0.4943625356962290 F F F Nb
   0.0000000000000000    0.1995414219742884    0.4054536493276196 F F F Au
   0.5000000000000000    0.3004585780257117    0.4834352395612693 F F F Au
   0.5000000000000000    0.6995414219742884    0.4610092048831752 F F F Au
   0.0000000000000000    0.8004585780257116    0.4278796840057137 F F F Au
   0.0000000000000000    0.0000000000000000    0.5833333333333333 F F F Nb
   0.0000000000000000    0.4003685893669698    0.5611930198593267 F F F Nb
   0.5000000000000000    0.0996314106330303    0.5499180912517845 F F F Nb
   0.5000000000000000    0.5000000000000000    0.5277777777777778 F F F Nb
   0.5000000000000000    0.9003685893669698    0.5056374643037711 F F F Nb
   0.0000000000000000    0.5996314106330303    0.6054736468073401 F F F Nb
   0.0000000000000000    0.1995414219742884    0.5165647604387308 F F F Au
   0.5000000000000000    0.3004585780257117    0.5945463506723804 F F F Au
   0.5000000000000000    0.6995414219742884    0.5721203159942863 F F F Au
   0.0000000000000000    0.8004585780257116    0.5389907951168248 F F F Au
   0.0000000000000000    0.0000000000000000    0.6944444444444444 T T T Nb
   0.0000000000000000    0.4003685893669698    0.6723041309704377 T T T Nb
   0.5000000000000000    0.0996314106330303    0.6610292023628956 T T T Nb
   0.5000000000000000    0.5000000000000000    0.6388888888888888 T T T Nb
   0.5000000000000000    0.9003685893669698    0.6167485754148821 T T T Nb
   0.0000000000000000    0.5996314106330303    0.7165847579184512 T T T Nb
   0.0000000000000000    0.1995414219742884    0.6276758715498418 T T T Au
   0.5000000000000000    0.3004585780257117    0.7056574617834914 T T T Au
   0.5000000000000000    0.6995414219742884    0.6832314271053974 T T T Au
   0.0000000000000000    0.8004585780257116    0.6501019062279358 T T T Au
