Ti32 Re16
1.0
   7.5999411764804865    0.0000000000000000   -8.7756561681326613
   0.0000000000000009    5.6663915421470499   -4.3878280840663297
   0.0000000000000000    0.0000000000000000   43.8782808406633080
Ti Re Ti Re Ti Re Ti Re
8 4 8 4 8 4 8 4
Selective dynamics
direct
   0.6666666666666667    0.8512801039592369    0.3101280103959237 T T T Ti
   0.1666666666666668    0.3512801039592368    0.3101280103959237 T T T Ti
   0.1666666666666668    0.8512801039592368    0.3601280103959237 T T T Ti
   0.6666666666666669    0.3512801039592368    0.3601280103959237 T T T Ti
   0.8333333333333334    0.6487198960407632    0.3732053229374097 T T T Ti
   0.3333333333333334    0.1487198960407632    0.3732053229374097 T T T Ti
   0.3333333333333334    0.6487198960407632    0.3232053229374097 T T T Ti
   0.8333333333333335    0.1487198960407632    0.3232053229374097 T T T Ti
   0.4999999999999999    0.5000000000000000    0.3916666666666667 T T T Re
   0.0000000000000000    0.0000000000000000    0.3916666666666667 T T T Re
   0.0000000000000000    0.5000000000000000    0.3416666666666667 T T T Re
   0.5000000000000001    0.0000000000000000    0.3416666666666667 T T T Re
   0.6666666666666667    0.8512801039592369    0.4101280103959237 T T T Ti
   0.1666666666666668    0.3512801039592368    0.4101280103959237 T T T Ti
   0.1666666666666668    0.8512801039592368    0.4601280103959237 F F F Ti
   0.6666666666666669    0.3512801039592368    0.4601280103959237 F F F Ti
   0.8333333333333334    0.6487198960407632    0.4732053229374097 F F F Ti
   0.3333333333333334    0.1487198960407632    0.4732053229374097 F F F Ti
   0.3333333333333334    0.6487198960407632    0.4232053229374096 T T T Ti
   0.8333333333333335    0.1487198960407632    0.4232053229374096 T T T Ti
   0.4999999999999999    0.5000000000000000    0.4916666666666667 F F F Re
   0.0000000000000000    0.0000000000000000    0.4916666666666667 F F F Re
   0.0000000000000000    0.5000000000000000    0.4416666666666667 F F F Re
   0.5000000000000001    0.0000000000000000    0.4416666666666667 F F F Re
   0.6666666666666667    0.8512801039592369    0.5101280103959237 F F F Ti
   0.1666666666666668    0.3512801039592368    0.5101280103959237 F F F Ti
   0.1666666666666668    0.8512801039592368    0.5601280103959236 F F F Ti
   0.6666666666666669    0.3512801039592368    0.5601280103959236 F F F Ti
   0.8333333333333334    0.6487198960407632    0.5732053229374097 F F F Ti
   0.3333333333333334    0.1487198960407632    0.5732053229374097 F F F Ti
   0.3333333333333334    0.6487198960407632    0.5232053229374096 F F F Ti
   0.8333333333333335    0.1487198960407632    0.5232053229374096 F F F Ti
   0.4999999999999999    0.5000000000000000    0.5916666666666667 T T T Re
   0.0000000000000000    0.0000000000000000    0.5916666666666667 T T T Re
   0.0000000000000000    0.5000000000000000    0.5416666666666667 F F F Re
   0.5000000000000001    0.0000000000000000    0.5416666666666667 F F F Re
   0.6666666666666667    0.8512801039592369    0.6101280103959237 T T T Ti
   0.1666666666666668    0.3512801039592368    0.6101280103959237 T T T Ti
   0.1666666666666668    0.8512801039592368    0.6601280103959237 T T T Ti
   0.6666666666666669    0.3512801039592368    0.6601280103959237 T T T Ti
   0.8333333333333334    0.6487198960407632    0.6732053229374096 T T T Ti
   0.3333333333333334    0.1487198960407632    0.6732053229374096 T T T Ti
   0.3333333333333334    0.6487198960407632    0.6232053229374097 T T T Ti
   0.8333333333333335    0.1487198960407632    0.6232053229374097 T T T Ti
   0.4999999999999999    0.5000000000000000    0.6916666666666667 T T T Re
   0.0000000000000000    0.0000000000000000    0.6916666666666667 T T T Re
   0.0000000000000000    0.5000000000000000    0.6416666666666666 T T T Re
   0.5000000000000001    0.0000000000000000    0.6416666666666666 T T T Re
