Mg48 Cd8 In8
1.0
  16.8353930457898073    0.0000000000000000    0.0000000000000010
   4.8101122987970886    4.1656794458142423    5.0938879536224722
   0.0000000000000000    0.0000000000000000   45.8449915826022405
Mg Cd In Mg Cd In Mg Cd In Mg Cd In
12 2 2 12 2 2 12 2 2 12 2 2
Selective dynamics
direct
   0.9170233633101618    0.4148831834491922    0.3844574240612009 T T T Mg
   0.4170233633101618    0.9148831834491922    0.3289018685056453 T T T Mg
   0.9170233633101617    0.9170233633101617    0.3286640707433154 T T T Mg
   0.4170233633101617    0.4170233633101615    0.3842196262988710 T T T Mg
   0.6659532733796769    0.1680934532406462    0.3007673940843726 T T T Mg
   0.1659532733796770    0.6680934532406462    0.3563229496399282 T T T Mg
   0.5839219787103971    0.0803901064480149    0.3660677659502206 T T T Mg
   0.0839219787103971    0.5803901064480148    0.3105122103946650 T T T Mg
   0.5839219787103971    0.5839219787103971    0.3101197801432892 T T T Mg
   0.0839219787103971    0.0839219787103970    0.3656753356988448 T T T Mg
   0.8321560425792061    0.3356879148415881    0.3377013427953791 T T T Mg
   0.3321560425792061    0.8356879148415881    0.2821457872398236 T T T Mg
   0.6666666666666667    0.6666666666666667    0.3564814814814815 T T T Cd
   0.1666666666666668    0.1666666666666666    0.3009259259259259 T T T Cd
   0.8333333333333335    0.8333333333333334    0.2824074074074074 T T T In
   0.3333333333333334    0.3333333333333334    0.3379629629629630 T T T In
   0.9170233633101618    0.4148831834491922    0.4955685351723120 F F F Mg
   0.4170233633101618    0.9148831834491922    0.4400129796167564 F F F Mg
   0.9170233633101617    0.9170233633101617    0.4397751818544265 F F F Mg
   0.4170233633101617    0.4170233633101615    0.4953307374099821 F F F Mg
   0.6659532733796769    0.1680934532406462    0.4118785051954837 F F F Mg
   0.1659532733796770    0.6680934532406462    0.4674340607510393 F F F Mg
   0.5839219787103971    0.0803901064480149    0.4771788770613317 F F F Mg
   0.0839219787103971    0.5803901064480148    0.4216233215057761 F F F Mg
   0.5839219787103971    0.5839219787103971    0.4212308912544003 F F F Mg
   0.0839219787103971    0.0839219787103970    0.4767864468099559 F F F Mg
   0.8321560425792061    0.3356879148415881    0.4488124539064902 F F F Mg
   0.3321560425792061    0.8356879148415881    0.3932568983509347 F F F Mg
   0.6666666666666667    0.6666666666666667    0.4675925925925926 F F F Cd
   0.1666666666666668    0.1666666666666666    0.4120370370370370 F F F Cd
   0.8333333333333335    0.8333333333333334    0.3935185185185185 F F F In
   0.3333333333333334    0.3333333333333334    0.4490740740740741 F F F In
   0.9170233633101618    0.4148831834491922    0.6066796462834232 F F F Mg
   0.4170233633101618    0.9148831834491922    0.5511240907278676 F F F Mg
   0.9170233633101617    0.9170233633101617    0.5508862929655376 F F F Mg
   0.4170233633101617    0.4170233633101615    0.6064418485210932 F F F Mg
   0.6659532733796769    0.1680934532406462    0.5229896163065949 F F F Mg
   0.1659532733796770    0.6680934532406462    0.5785451718621504 F F F Mg
   0.5839219787103971    0.0803901064480149    0.5882899881724428 F F F Mg
   0.0839219787103971    0.5803901064480148    0.5327344326168872 F F F Mg
   0.5839219787103971    0.5839219787103971    0.5323420023655114 F F F Mg
   0.0839219787103971    0.0839219787103970    0.5878975579210670 F F F Mg
   0.8321560425792061    0.3356879148415881    0.5599235650176013 F F F Mg
   0.3321560425792061    0.8356879148415881    0.5043680094620457 F F F Mg
   0.6666666666666667    0.6666666666666667    0.5787037037037037 F F F Cd
   0.1666666666666668    0.1666666666666666    0.5231481481481481 F F F Cd
   0.8333333333333335    0.8333333333333334    0.5046296296296297 F F F In
   0.3333333333333334    0.3333333333333334    0.5601851851851851 F F F In
   0.9170233633101618    0.4148831834491922    0.7177907573945342 T T T Mg
   0.4170233633101618    0.9148831834491922    0.6622352018389787 T T T Mg
   0.9170233633101617    0.9170233633101617    0.6619974040766488 T T T Mg
   0.4170233633101617    0.4170233633101615    0.7175529596322043 T T T Mg
   0.6659532733796769    0.1680934532406462    0.6341007274177060 T T T Mg
   0.1659532733796770    0.6680934532406462    0.6896562829732615 T T T Mg
   0.5839219787103971    0.0803901064480149    0.6994010992835540 T T T Mg
   0.0839219787103971    0.5803901064480148    0.6438455437279984 T T T Mg
   0.5839219787103971    0.5839219787103971    0.6434531134766226 T T T Mg
   0.0839219787103971    0.0839219787103970    0.6990086690321782 T T T Mg
   0.8321560425792061    0.3356879148415881    0.6710346761287125 T T T Mg
   0.3321560425792061    0.8356879148415881    0.6154791205731569 T T T Mg
   0.6666666666666667    0.6666666666666667    0.6898148148148149 T T T Cd
   0.1666666666666668    0.1666666666666666    0.6342592592592593 T T T Cd
   0.8333333333333335    0.8333333333333334    0.6157407407407407 T T T In
   0.3333333333333334    0.3333333333333334    0.6712962962962963 T T T In
