Y12 Si24 Ir24
1.0
   8.1551284734660889    0.0000000000000000   -4.0775642367330445
   0.0000000000000016    9.9863191304199184   -4.0775642367330427
   0.0000000000000000    0.0000000000000000   32.6205138938643557
Y Si Ir Y Si Ir Y Si Ir
4 8 8 4 8 8 4 8 8
Selective dynamics
direct
   0.0000000000000000    0.0000000000000000    0.4281250000000000 F F F Y
   0.5000000000000000    0.0000000000000000    0.3656250000000000 T T T Y
   0.2500000000000000    0.4999999999999999    0.3343750000000000 T T T Y
   0.7500000000000000    0.4999999999999999    0.3968750000000000 T T T Y
   0.2500000000000000    0.1213613242805636    0.4120451655350704 T T T Si
   0.7500000000000000    0.1213613242805636    0.3495451655350704 T T T Si
   0.0000000000000000    0.3786386757194363    0.3504548344649295 T T T Si
   0.5000000000000000    0.3786386757194364    0.4129548344649295 T T T Si
   0.0000000000000000    0.6213613242805635    0.3807951655350704 T T T Si
   0.5000000000000000    0.6213613242805635    0.3182951655350704 T T T Si
   0.2500000000000000    0.8786386757194363    0.3817048344649295 T T T Si
   0.7500000000000000    0.8786386757194362    0.3192048344649295 T T T Si
   0.2500000000000000    0.2500000000000000    0.3656250000000000 T T T Ir
   0.7500000000000000    0.2500000000000000    0.4281250000000000 F F F Ir
   0.0000000000000000    0.2499999999999999    0.3968750000000000 T T T Ir
   0.5000000000000000    0.2500000000000000    0.3343750000000000 T T T Ir
   0.0000000000000000    0.7499999999999999    0.3343750000000000 T T T Ir
   0.5000000000000000    0.7499999999999999    0.3968750000000000 T T T Ir
   0.2500000000000000    0.7500000000000000    0.4281250000000000 F F F Ir
   0.7500000000000000    0.7499999999999999    0.3656250000000000 T T T Ir
   0.0000000000000000    0.0000000000000000    0.5531250000000000 F F F Y
   0.5000000000000000    0.0000000000000000    0.4906250000000000 F F F Y
   0.2500000000000000    0.4999999999999999    0.4593750000000000 F F F Y
   0.7500000000000000    0.4999999999999999    0.5218750000000000 F F F Y
   0.2500000000000000    0.1213613242805636    0.5370451655350704 F F F Si
   0.7500000000000000    0.1213613242805636    0.4745451655350704 F F F Si
   0.0000000000000000    0.3786386757194363    0.4754548344649295 F F F Si
   0.5000000000000000    0.3786386757194364    0.5379548344649295 F F F Si
   0.0000000000000000    0.6213613242805635    0.5057951655350704 F F F Si
   0.5000000000000000    0.6213613242805635    0.4432951655350704 F F F Si
   0.2500000000000000    0.8786386757194363    0.5067048344649295 F F F Si
   0.7500000000000000    0.8786386757194362    0.4442048344649295 F F F Si
   0.2500000000000000    0.2500000000000000    0.4906250000000000 F F F Ir
   0.7500000000000000    0.2500000000000000    0.5531250000000000 F F F Ir
   0.0000000000000000    0.2499999999999999    0.5218750000000000 F F F Ir
   0.5000000000000000    0.2500000000000000    0.4593750000000000 F F F Ir
   0.0000000000000000    0.7499999999999999    0.4593750000000000 F F F Ir
   0.5000000000000000    0.7499999999999999    0.5218750000000000 F F F Ir
   0.2500000000000000    0.7500000000000000    0.5531250000000000 F F F Ir
   0.7500000000000000    0.7499999999999999    0.4906250000000000 F F F Ir
   0.0000000000000000    0.0000000000000000    0.6781250000000000 T T T Y
   0.5000000000000000    0.0000000000000000    0.6156250000000000 T T T Y
   0.2500000000000000    0.4999999999999999    0.5843750000000000 T T T Y
   0.7500000000000000    0.4999999999999999    0.6468750000000000 T T T Y
   0.2500000000000000    0.1213613242805636    0.6620451655350704 T T T Si
   0.7500000000000000    0.1213613242805636    0.5995451655350704 T T T Si
   0.0000000000000000    0.3786386757194363    0.6004548344649295 T T T Si
   0.5000000000000000    0.3786386757194364    0.6629548344649295 T T T Si
   0.0000000000000000    0.6213613242805635    0.6307951655350704 T T T Si
   0.5000000000000000    0.6213613242805635    0.5682951655350704 F F F Si
   0.2500000000000000    0.8786386757194363    0.6317048344649295 T T T Si
   0.7500000000000000    0.8786386757194362    0.5692048344649295 T T T Si
   0.2500000000000000    0.2500000000000000    0.6156250000000000 T T T Ir
   0.7500000000000000    0.2500000000000000    0.6781250000000000 T T T Ir
   0.0000000000000000    0.2499999999999999    0.6468750000000000 T T T Ir
   0.5000000000000000    0.2500000000000000    0.5843750000000000 T T T Ir
   0.0000000000000000    0.7499999999999999    0.5843750000000000 T T T Ir
   0.5000000000000000    0.7499999999999999    0.6468750000000000 T T T Ir
   0.2500000000000000    0.7500000000000000    0.6781250000000000 T T T Ir
   0.7500000000000000    0.7499999999999999    0.6156250000000000 T T T Ir
