Ca2 Cu4 Ge4
1.0
   4.1782880913390397    0.0000000000000000    0.0000000000000003
   0.0000000000000007    4.1782880913390397    0.0000000000000003
   0.0000000000000000    0.0000000000000000   30.6611254874806605
Ca Cu Ge
2 4 4
Selective dynamics
direct
   0.0000000000000000    0.0000000000000000    0.6500000000000000 T T T Ca
   0.5000000000000000    0.5000000000000000    0.4833333333333333 F F F Ca
   0.5000000000000000    0.0000000000000000    0.4000000000000000 T T T Cu
   0.0000000000000000    0.5000000000000000    0.4000000000000000 T T T Cu
   0.0000000000000000    0.5000000000000000    0.5666666666666667 T T T Cu
   0.5000000000000000    0.0000000000000000    0.5666666666666667 T T T Cu
   0.0000000000000000    0.0000000000000000    0.4423898329268582 T T T Ge
   0.5000000000000000    0.5000000000000000    0.3576101670731419 T T T Ge
   0.5000000000000000    0.5000000000000000    0.6090564995935248 T T T Ge
   0.0000000000000000    0.0000000000000000    0.5242768337398085 F F F Ge
