Ca12 Cd12 Pb12
1.0
  13.6237094076805150    0.0000000000000000    0.0000000000000008
   6.8118547038402584    3.9328261469427908    4.8084935481770188
   0.0000000000000000    0.0000000000000000   43.2764419335931692
Ca Cd Pb Ca Cd Pb Ca Cd Pb Ca Cd Pb
3 3 3 3 3 3 3 3 3 3 3 3
Selective dynamics
direct
   0.5741189761534742    0.4258810238465258    0.3786058121652008 T T T Ca
   0.0000000000000000    0.4258810238465258    0.3786058121652008 T T T Ca
   0.4258810238465258    0.1482379523069484    0.2983439312251538 T T T Ca
   0.0000000000000000    0.7503344346395101    0.2869998776326470 T T T Cd
   0.7503344346395101    0.4993311307209798    0.3148891336235948 T T T Cd
   0.2496655653604899    0.7503344346395101    0.2869998776326470 T T T Cd
   0.0000000000000000    0.0000000000000000    0.3148148148148148 T T T Pb
   0.3333333333333333    0.0000000000000000    0.3703703703703703 T T T Pb
   0.6666666666666666    0.0000000000000000    0.3703703703703703 T T T Pb
   0.5741189761534742    0.4258810238465258    0.4897169232763119 F F F Ca
   0.0000000000000000    0.4258810238465258    0.4897169232763119 F F F Ca
   0.4258810238465258    0.1482379523069484    0.4094550423362650 F F F Ca
   0.0000000000000000    0.7503344346395101    0.3981109887437581 F F F Cd
   0.7503344346395101    0.4993311307209798    0.4260002447347059 F F F Cd
   0.2496655653604899    0.7503344346395101    0.3981109887437581 F F F Cd
   0.0000000000000000    0.0000000000000000    0.4259259259259259 F F F Pb
   0.3333333333333333    0.0000000000000000    0.4814814814814815 F F F Pb
   0.6666666666666666    0.0000000000000000    0.4814814814814815 F F F Pb
   0.5741189761534742    0.4258810238465258    0.6008280343874230 F F F Ca
   0.0000000000000000    0.4258810238465258    0.6008280343874230 F F F Ca
   0.4258810238465258    0.1482379523069484    0.5205661534473760 F F F Ca
   0.0000000000000000    0.7503344346395101    0.5092220998548692 F F F Cd
   0.7503344346395101    0.4993311307209798    0.5371113558458169 F F F Cd
   0.2496655653604899    0.7503344346395101    0.5092220998548692 F F F Cd
   0.0000000000000000    0.0000000000000000    0.5370370370370370 F F F Pb
   0.3333333333333333    0.0000000000000000    0.5925925925925926 F F F Pb
   0.6666666666666666    0.0000000000000000    0.5925925925925926 F F F Pb
   0.5741189761534742    0.4258810238465258    0.7119391454985341 T T T Ca
   0.0000000000000000    0.4258810238465258    0.7119391454985341 T T T Ca
   0.4258810238465258    0.1482379523069484    0.6316772645584872 T T T Ca
   0.0000000000000000    0.7503344346395101    0.6203332109659803 T T T Cd
   0.7503344346395101    0.4993311307209798    0.6482224669569281 T T T Cd
   0.2496655653604899    0.7503344346395101    0.6203332109659803 T T T Cd
   0.0000000000000000    0.0000000000000000    0.6481481481481481 T T T Pb
   0.3333333333333333    0.0000000000000000    0.7037037037037037 T T T Pb
   0.6666666666666666    0.0000000000000000    0.7037037037037037 T T T Pb
