Y6 Ag6 Ge6
1.0
   6.2119916030735771    0.0000000000000000   -3.5864950242382267
   0.0000000000000007    4.2238558805978528    0.0000000000000003
   0.0000000000000000    0.0000000000000000   35.8649502423822497
Y Ag Ge Y Ag Ge
3 3 3 3 3 3
Selective dynamics
direct
   0.0000000000000001    0.0000000000000000    0.3391599455286461 T T T Y
   0.5846886165321195    0.0000000000000000    0.4222222222222222 F F F Y
   0.4153113834678807    0.0000000000000000    0.3052844989157983 T T T Y
   0.0000000000000000    0.5000000000000000    0.4723913026781184 F F F Ag
   0.2508454022794807    0.5000000000000000    0.4222222222222222 F F F Ag
   0.7491545977205195    0.5000000000000000    0.3720531417663261 T T T Ag
   0.6666666666666667    0.5000000000000000    0.4888888888888889 F F F Ge
   0.3333333333333335    0.5000000000000000    0.3555555555555556 T T T Ge
   0.0000000000000000    0.0000000000000000    0.4222222222222222 F F F Ge
   0.0000000000000001    0.0000000000000000    0.5391599455286461 F F F Y
   0.5846886165321195    0.0000000000000000    0.6222222222222222 T T T Y
   0.4153113834678807    0.0000000000000000    0.5052844989157983 F F F Y
   0.0000000000000000    0.5000000000000000    0.6723913026781183 T T T Ag
   0.2508454022794807    0.5000000000000000    0.6222222222222222 T T T Ag
   0.7491545977205195    0.5000000000000000    0.5720531417663262 F F F Ag
   0.6666666666666667    0.5000000000000000    0.6888888888888889 T T T Ge
   0.3333333333333335    0.5000000000000000    0.5555555555555556 F F F Ge
   0.0000000000000000    0.0000000000000000    0.6222222222222222 T T T Ge
