Zr96 Fe48 Co144
1.0
   8.6096896748138185    0.0000000000000000   -9.9416133027857931
  -0.0000000000000014   23.4540951712695680   -4.9708066513929028
   0.0000000000000000    0.0000000000000000   44.7372598625360780
Zr Fe Co Zr Fe Co Zr Fe Co Zr Fe Co
24 12 36 24 12 36 24 12 36 24 12 36
Selective dynamics
direct
   0.8333333333333334    0.8966650251961720    0.3820368546514266 T T T Zr
   0.3333333333333333    0.3966650251961720    0.3820368546514266 T T T Zr
   0.3333333333333333    0.8966650251961720    0.3264812990958710 T T T Zr
   0.8333333333333333    0.3966650251961720    0.3264812990958710 T T T Zr
   0.8333333333333334    0.7700016414704944    0.3679631453485735 T T T Zr
   0.3333333333333333    0.2700016414704945    0.3679631453485735 T T T Zr
   0.3333333333333333    0.7700016414704944    0.3124075897930180 T T T Zr
   0.8333333333333333    0.2700016414704945    0.3124075897930180 T T T Zr
   0.5000000000000000    0.5633316918628387    0.3820368546514266 T T T Zr
   0.0000000000000000    0.0633316918628387    0.3820368546514266 T T T Zr
   0.0000000000000000    0.5633316918628387    0.3264812990958710 T T T Zr
   0.5000000000000000    0.0633316918628387    0.3264812990958710 T T T Zr
   0.5000000000000000    0.9366683081371611    0.3124075897930180 T T T Zr
   0.0000000000000000    0.4366683081371611    0.3124075897930180 T T T Zr
   0.0000000000000000    0.9366683081371611    0.3679631453485735 T T T Zr
   0.5000000000000000    0.4366683081371611    0.3679631453485735 T T T Zr
   0.6666666666666666    0.7299983585295053    0.3820368546514266 T T T Zr
   0.1666666666666666    0.2299983585295053    0.3820368546514266 T T T Zr
   0.1666666666666666    0.7299983585295053    0.3264812990958710 T T T Zr
   0.6666666666666666    0.2299983585295053    0.3264812990958710 T T T Zr
   0.6666666666666667    0.6033349748038279    0.3679631453485735 T T T Zr
   0.1666666666666667    0.1033349748038279    0.3679631453485735 T T T Zr
   0.1666666666666667    0.6033349748038279    0.3124075897930180 T T T Zr
   0.6666666666666666    0.1033349748038279    0.3124075897930180 T T T Zr
   0.8333333333333333    0.5833333333333334    0.3472222222222223 T T T Fe
   0.3333333333333332    0.0833333333333333    0.3472222222222223 T T T Fe
   0.3333333333333332    0.5833333333333334    0.2916666666666667 T T T Fe
   0.8333333333333333    0.0833333333333333    0.2916666666666667 T T T Fe
   0.9999999999999999    0.7500000000000000    0.3472222222222223 T T T Fe
   0.4999999999999998    0.2499999999999999    0.3472222222222223 T T T Fe
   0.4999999999999998    0.7499999999999999    0.2916666666666667 T T T Fe
   0.9999999999999998    0.2499999999999999    0.2916666666666667 T T T Fe
   0.6666666666666665    0.9166666666666666    0.2916666666666667 T T T Fe
   0.1666666666666665    0.4166666666666666    0.2916666666666667 T T T Fe
   0.1666666666666665    0.9166666666666666    0.3472222222222223 T T T Fe
   0.6666666666666664    0.4166666666666666    0.3472222222222223 T T T Fe
   0.9166666666666665    0.6666666666666666    0.2916666666666667 T T T Co
   0.4166666666666665    0.1666666666666666    0.2916666666666667 T T T Co
   0.4166666666666665    0.6666666666666666    0.3472222222222223 T T T Co
   0.9166666666666665    0.1666666666666666    0.3472222222222223 T T T Co
   0.7500000000000000    0.5000000000000000    0.3472222222222223 T T T Co
   0.2500000000000000    0.0000000000000000    0.3472222222222223 T T T Co
   0.2500000000000000    0.4999999999999999    0.2916666666666667 T T T Co
   0.7500000000000000    0.0000000000000000    0.2916666666666667 T T T Co
   0.5000000000000000    0.5000000000000000    0.3194444444444445 T T T Co
   0.0000000000000000    0.0000000000000000    0.3194444444444445 T T T Co
   0.0000000000000000    0.4999999999999999    0.3750000000000001 T T T Co
   0.4999999999999999    0.0000000000000000    0.3750000000000001 T T T Co
   0.5833333333333333    0.8333333333333333    0.3472222222222223 T T T Co
   0.0833333333333332    0.3333333333333333    0.3472222222222223 T T T Co
   0.0833333333333332    0.8333333333333333    0.2916666666666667 T T T Co
   0.5833333333333331    0.3333333333333333    0.2916666666666667 T T T Co
   0.9166666666666666    0.6666666666666666    0.3472222222222223 T T T Co
   0.4166666666666666    0.1666666666666666    0.3472222222222223 T T T Co
   0.4166666666666666    0.6666666666666666    0.2916666666666667 T T T Co
   0.9166666666666666    0.1666666666666666    0.2916666666666667 T T T Co
   0.6666666666666666    0.6666666666666666    0.3194444444444445 T T T Co
   0.1666666666666667    0.1666666666666667    0.3194444444444445 T T T Co
   0.1666666666666667    0.6666666666666666    0.3750000000000000 T T T Co
   0.6666666666666666    0.1666666666666666    0.3750000000000001 T T T Co
   0.7500000000000000    0.5000000000000000    0.2916666666666667 T T T Co
   0.2500000000000000    0.0000000000000000    0.2916666666666667 T T T Co
   0.2500000000000000    0.5000000000000000    0.3472222222222223 T T T Co
   0.7500000000000000    0.0000000000000000    0.3472222222222223 T T T Co
   0.5833333333333333    0.8333333333333333    0.2916666666666667 T T T Co
   0.0833333333333332    0.3333333333333333    0.2916666666666667 T T T Co
   0.0833333333333332    0.8333333333333333    0.3472222222222223 T T T Co
   0.5833333333333333    0.3333333333333333    0.3472222222222223 T T T Co
   0.8333333333333333    0.8333333333333333    0.3194444444444445 T T T Co
   0.3333333333333333    0.3333333333333333    0.3194444444444445 T T T Co
   0.3333333333333333    0.8333333333333333    0.3750000000000001 T T T Co
   0.8333333333333333    0.3333333333333333    0.3750000000000001 T T T Co
   0.8333333333333334    0.8966650251961720    0.4931479657625377 F F F Zr
   0.3333333333333333    0.3966650251961720    0.4931479657625377 F F F Zr
   0.3333333333333333    0.8966650251961720    0.4375924102069821 F F F Zr
   0.8333333333333333    0.3966650251961720    0.4375924102069821 F F F Zr
   0.8333333333333334    0.7700016414704944    0.4790742564596846 F F F Zr
   0.3333333333333333    0.2700016414704945    0.4790742564596846 F F F Zr
   0.3333333333333333    0.7700016414704944    0.4235187009041291 F F F Zr
   0.8333333333333333    0.2700016414704945    0.4235187009041291 F F F Zr
   0.5000000000000000    0.5633316918628387    0.4931479657625377 F F F Zr
   0.0000000000000000    0.0633316918628387    0.4931479657625377 F F F Zr
   0.0000000000000000    0.5633316918628387    0.4375924102069821 F F F Zr
   0.5000000000000000    0.0633316918628387    0.4375924102069821 F F F Zr
   0.5000000000000000    0.9366683081371611    0.4235187009041290 F F F Zr
   0.0000000000000000    0.4366683081371611    0.4235187009041290 F F F Zr
   0.0000000000000000    0.9366683081371611    0.4790742564596846 F F F Zr
   0.5000000000000000    0.4366683081371611    0.4790742564596846 F F F Zr
   0.6666666666666666    0.7299983585295053    0.4931479657625377 F F F Zr
   0.1666666666666666    0.2299983585295053    0.4931479657625377 F F F Zr
   0.1666666666666666    0.7299983585295053    0.4375924102069821 F F F Zr
   0.6666666666666666    0.2299983585295053    0.4375924102069821 F F F Zr
   0.6666666666666667    0.6033349748038279    0.4790742564596846 F F F Zr
   0.1666666666666667    0.1033349748038279    0.4790742564596846 F F F Zr
   0.1666666666666667    0.6033349748038279    0.4235187009041291 F F F Zr
   0.6666666666666666    0.1033349748038279    0.4235187009041291 F F F Zr
   0.8333333333333333    0.5833333333333334    0.4583333333333334 F F F Fe
   0.3333333333333332    0.0833333333333333    0.4583333333333334 F F F Fe
   0.3333333333333332    0.5833333333333334    0.4027777777777778 F F F Fe
   0.8333333333333333    0.0833333333333333    0.4027777777777778 F F F Fe
   0.9999999999999999    0.7500000000000000    0.4583333333333334 F F F Fe
   0.4999999999999998    0.2499999999999999    0.4583333333333334 F F F Fe
   0.4999999999999998    0.7499999999999999    0.4027777777777778 F F F Fe
   0.9999999999999998    0.2499999999999999    0.4027777777777778 F F F Fe
   0.6666666666666665    0.9166666666666666    0.4027777777777778 F F F Fe
   0.1666666666666665    0.4166666666666666    0.4027777777777778 F F F Fe
   0.1666666666666665    0.9166666666666666    0.4583333333333334 F F F Fe
   0.6666666666666664    0.4166666666666666    0.4583333333333334 F F F Fe
   0.9166666666666665    0.6666666666666666    0.4027777777777778 F F F Co
   0.4166666666666665    0.1666666666666666    0.4027777777777778 F F F Co
   0.4166666666666665    0.6666666666666666    0.4583333333333334 F F F Co
   0.9166666666666665    0.1666666666666666    0.4583333333333334 F F F Co
   0.7500000000000000    0.5000000000000000    0.4583333333333334 F F F Co
   0.2500000000000000    0.0000000000000000    0.4583333333333334 F F F Co
   0.2500000000000000    0.4999999999999999    0.4027777777777778 F F F Co
   0.7500000000000000    0.0000000000000000    0.4027777777777778 F F F Co
   0.5000000000000000    0.5000000000000000    0.4305555555555556 F F F Co
   0.0000000000000000    0.0000000000000000    0.4305555555555556 F F F Co
   0.0000000000000000    0.4999999999999999    0.4861111111111112 F F F Co
   0.4999999999999999    0.0000000000000000    0.4861111111111112 F F F Co
   0.5833333333333333    0.8333333333333333    0.4583333333333334 F F F Co
   0.0833333333333332    0.3333333333333333    0.4583333333333334 F F F Co
   0.0833333333333332    0.8333333333333333    0.4027777777777778 F F F Co
   0.5833333333333331    0.3333333333333333    0.4027777777777778 F F F Co
   0.9166666666666666    0.6666666666666666    0.4583333333333334 F F F Co
   0.4166666666666666    0.1666666666666666    0.4583333333333334 F F F Co
   0.4166666666666666    0.6666666666666666    0.4027777777777778 F F F Co
   0.9166666666666666    0.1666666666666666    0.4027777777777778 F F F Co
   0.6666666666666666    0.6666666666666666    0.4305555555555556 F F F Co
   0.1666666666666667    0.1666666666666667    0.4305555555555556 F F F Co
   0.1666666666666667    0.6666666666666666    0.4861111111111112 F F F Co
   0.6666666666666666    0.1666666666666666    0.4861111111111112 F F F Co
   0.7500000000000000    0.5000000000000000    0.4027777777777778 F F F Co
   0.2500000000000000    0.0000000000000000    0.4027777777777778 F F F Co
   0.2500000000000000    0.5000000000000000    0.4583333333333334 F F F Co
   0.7500000000000000    0.0000000000000000    0.4583333333333334 F F F Co
   0.5833333333333333    0.8333333333333333    0.4027777777777778 F F F Co
   0.0833333333333332    0.3333333333333333    0.4027777777777778 F F F Co
   0.0833333333333332    0.8333333333333333    0.4583333333333334 F F F Co
   0.5833333333333333    0.3333333333333333    0.4583333333333334 F F F Co
   0.8333333333333333    0.8333333333333333    0.4305555555555556 F F F Co
   0.3333333333333333    0.3333333333333333    0.4305555555555556 F F F Co
   0.3333333333333333    0.8333333333333333    0.4861111111111112 F F F Co
   0.8333333333333333    0.3333333333333333    0.4861111111111112 F F F Co
   0.8333333333333334    0.8966650251961720    0.6042590768736488 F F F Zr
   0.3333333333333333    0.3966650251961720    0.6042590768736488 F F F Zr
   0.3333333333333333    0.8966650251961720    0.5487035213180932 F F F Zr
   0.8333333333333333    0.3966650251961720    0.5487035213180933 F F F Zr
   0.8333333333333334    0.7700016414704944    0.5901853675707958 F F F Zr
   0.3333333333333333    0.2700016414704945    0.5901853675707958 F F F Zr
   0.3333333333333333    0.7700016414704944    0.5346298120152402 F F F Zr
   0.8333333333333333    0.2700016414704945    0.5346298120152402 F F F Zr
   0.5000000000000000    0.5633316918628387    0.6042590768736488 F F F Zr
   0.0000000000000000    0.0633316918628387    0.6042590768736488 F F F Zr
   0.0000000000000000    0.5633316918628387    0.5487035213180933 F F F Zr
   0.5000000000000000    0.0633316918628387    0.5487035213180933 F F F Zr
   0.5000000000000000    0.9366683081371611    0.5346298120152402 F F F Zr
   0.0000000000000000    0.4366683081371611    0.5346298120152402 F F F Zr
   0.0000000000000000    0.9366683081371611    0.5901853675707958 F F F Zr
   0.5000000000000000    0.4366683081371611    0.5901853675707958 F F F Zr
   0.6666666666666666    0.7299983585295053    0.6042590768736488 F F F Zr
   0.1666666666666666    0.2299983585295053    0.6042590768736488 F F F Zr
   0.1666666666666666    0.7299983585295053    0.5487035213180932 F F F Zr
   0.6666666666666666    0.2299983585295053    0.5487035213180932 F F F Zr
   0.6666666666666667    0.6033349748038279    0.5901853675707958 F F F Zr
   0.1666666666666667    0.1033349748038279    0.5901853675707958 F F F Zr
   0.1666666666666667    0.6033349748038279    0.5346298120152402 F F F Zr
   0.6666666666666666    0.1033349748038279    0.5346298120152402 F F F Zr
   0.8333333333333333    0.5833333333333334    0.5694444444444444 F F F Fe
   0.3333333333333332    0.0833333333333333    0.5694444444444444 F F F Fe
   0.3333333333333332    0.5833333333333334    0.5138888888888890 F F F Fe
   0.8333333333333333    0.0833333333333333    0.5138888888888890 F F F Fe
   0.9999999999999999    0.7500000000000000    0.5694444444444444 F F F Fe
   0.4999999999999998    0.2499999999999999    0.5694444444444444 F F F Fe
   0.4999999999999998    0.7499999999999999    0.5138888888888888 F F F Fe
   0.9999999999999998    0.2499999999999999    0.5138888888888890 F F F Fe
   0.6666666666666665    0.9166666666666666    0.5138888888888888 F F F Fe
   0.1666666666666665    0.4166666666666666    0.5138888888888888 F F F Fe
   0.1666666666666665    0.9166666666666666    0.5694444444444444 F F F Fe
   0.6666666666666664    0.4166666666666666    0.5694444444444444 F F F Fe
   0.9166666666666665    0.6666666666666666    0.5138888888888890 F F F Co
   0.4166666666666665    0.1666666666666666    0.5138888888888890 F F F Co
   0.4166666666666665    0.6666666666666666    0.5694444444444444 F F F Co
   0.9166666666666665    0.1666666666666666    0.5694444444444445 F F F Co
   0.7500000000000000    0.5000000000000000    0.5694444444444444 F F F Co
   0.2500000000000000    0.0000000000000000    0.5694444444444444 F F F Co
   0.2500000000000000    0.4999999999999999    0.5138888888888890 F F F Co
   0.7500000000000000    0.0000000000000000    0.5138888888888890 F F F Co
   0.5000000000000000    0.5000000000000000    0.5416666666666667 F F F Co
   0.0000000000000000    0.0000000000000000    0.5416666666666667 F F F Co
   0.0000000000000000    0.4999999999999999    0.5972222222222223 F F F Co
   0.4999999999999999    0.0000000000000000    0.5972222222222223 F F F Co
   0.5833333333333333    0.8333333333333333    0.5694444444444444 F F F Co
   0.0833333333333332    0.3333333333333333    0.5694444444444444 F F F Co
   0.0833333333333332    0.8333333333333333    0.5138888888888888 F F F Co
   0.5833333333333331    0.3333333333333333    0.5138888888888890 F F F Co
   0.9166666666666666    0.6666666666666666    0.5694444444444444 F F F Co
   0.4166666666666666    0.1666666666666666    0.5694444444444444 F F F Co
   0.4166666666666666    0.6666666666666666    0.5138888888888888 F F F Co
   0.9166666666666666    0.1666666666666666    0.5138888888888890 F F F Co
   0.6666666666666666    0.6666666666666666    0.5416666666666667 F F F Co
   0.1666666666666667    0.1666666666666667    0.5416666666666667 F F F Co
   0.1666666666666667    0.6666666666666666    0.5972222222222222 F F F Co
   0.6666666666666666    0.1666666666666666    0.5972222222222223 F F F Co
   0.7500000000000000    0.5000000000000000    0.5138888888888890 F F F Co
   0.2500000000000000    0.0000000000000000    0.5138888888888890 F F F Co
   0.2500000000000000    0.5000000000000000    0.5694444444444444 F F F Co
   0.7500000000000000    0.0000000000000000    0.5694444444444444 F F F Co
   0.5833333333333333    0.8333333333333333    0.5138888888888888 F F F Co
   0.0833333333333332    0.3333333333333333    0.5138888888888888 F F F Co
   0.0833333333333332    0.8333333333333333    0.5694444444444444 F F F Co
   0.5833333333333333    0.3333333333333333    0.5694444444444444 F F F Co
   0.8333333333333333    0.8333333333333333    0.5416666666666667 F F F Co
   0.3333333333333333    0.3333333333333333    0.5416666666666667 F F F Co
   0.3333333333333333    0.8333333333333333    0.5972222222222223 F F F Co
   0.8333333333333333    0.3333333333333333    0.5972222222222223 F F F Co
   0.8333333333333334    0.8966650251961720    0.7153701879847598 T T T Zr
   0.3333333333333333    0.3966650251961720    0.7153701879847598 T T T Zr
   0.3333333333333333    0.8966650251961720    0.6598146324292044 T T T Zr
   0.8333333333333333    0.3966650251961720    0.6598146324292044 T T T Zr
   0.8333333333333334    0.7700016414704944    0.7012964786819068 T T T Zr
   0.3333333333333333    0.2700016414704945    0.7012964786819068 T T T Zr
   0.3333333333333333    0.7700016414704944    0.6457409231263513 T T T Zr
   0.8333333333333333    0.2700016414704945    0.6457409231263513 T T T Zr
   0.5000000000000000    0.5633316918628387    0.7153701879847598 T T T Zr
   0.0000000000000000    0.0633316918628387    0.7153701879847598 T T T Zr
   0.0000000000000000    0.5633316918628387    0.6598146324292044 T T T Zr
   0.5000000000000000    0.0633316918628387    0.6598146324292044 T T T Zr
   0.5000000000000000    0.9366683081371611    0.6457409231263513 T T T Zr
   0.0000000000000000    0.4366683081371611    0.6457409231263513 T T T Zr
   0.0000000000000000    0.9366683081371611    0.7012964786819068 T T T Zr
   0.5000000000000000    0.4366683081371611    0.7012964786819068 T T T Zr
   0.6666666666666666    0.7299983585295053    0.7153701879847598 T T T Zr
   0.1666666666666666    0.2299983585295053    0.7153701879847598 T T T Zr
   0.1666666666666666    0.7299983585295053    0.6598146324292044 T T T Zr
   0.6666666666666666    0.2299983585295053    0.6598146324292044 T T T Zr
   0.6666666666666667    0.6033349748038279    0.7012964786819068 T T T Zr
   0.1666666666666667    0.1033349748038279    0.7012964786819068 T T T Zr
   0.1666666666666667    0.6033349748038279    0.6457409231263513 T T T Zr
   0.6666666666666666    0.1033349748038279    0.6457409231263513 T T T Zr
   0.8333333333333333    0.5833333333333334    0.6805555555555556 T T T Fe
   0.3333333333333332    0.0833333333333333    0.6805555555555556 T T T Fe
   0.3333333333333332    0.5833333333333334    0.6250000000000000 T T T Fe
   0.8333333333333333    0.0833333333333333    0.6250000000000000 T T T Fe
   0.9999999999999999    0.7500000000000000    0.6805555555555556 T T T Fe
   0.4999999999999998    0.2499999999999999    0.6805555555555556 T T T Fe
   0.4999999999999998    0.7499999999999999    0.6250000000000000 T T T Fe
   0.9999999999999998    0.2499999999999999    0.6250000000000000 T T T Fe
   0.6666666666666665    0.9166666666666666    0.6250000000000000 T T T Fe
   0.1666666666666665    0.4166666666666666    0.6250000000000000 T T T Fe
   0.1666666666666665    0.9166666666666666    0.6805555555555556 T T T Fe
   0.6666666666666664    0.4166666666666666    0.6805555555555556 T T T Fe
   0.9166666666666665    0.6666666666666666    0.6250000000000000 T T T Co
   0.4166666666666665    0.1666666666666666    0.6250000000000000 T T T Co
   0.4166666666666665    0.6666666666666666    0.6805555555555556 T T T Co
   0.9166666666666665    0.1666666666666666    0.6805555555555556 T T T Co
   0.7500000000000000    0.5000000000000000    0.6805555555555556 T T T Co
   0.2500000000000000    0.0000000000000000    0.6805555555555556 T T T Co
   0.2500000000000000    0.4999999999999999    0.6250000000000000 T T T Co
   0.7500000000000000    0.0000000000000000    0.6250000000000000 T T T Co
   0.5000000000000000    0.5000000000000000    0.6527777777777778 T T T Co
   0.0000000000000000    0.0000000000000000    0.6527777777777778 T T T Co
   0.0000000000000000    0.4999999999999999    0.7083333333333334 T T T Co
   0.4999999999999999    0.0000000000000000    0.7083333333333334 T T T Co
   0.5833333333333333    0.8333333333333333    0.6805555555555556 T T T Co
   0.0833333333333332    0.3333333333333333    0.6805555555555556 T T T Co
   0.0833333333333332    0.8333333333333333    0.6250000000000000 T T T Co
   0.5833333333333331    0.3333333333333333    0.6250000000000000 T T T Co
   0.9166666666666666    0.6666666666666666    0.6805555555555556 T T T Co
   0.4166666666666666    0.1666666666666666    0.6805555555555556 T T T Co
   0.4166666666666666    0.6666666666666666    0.6250000000000000 T T T Co
   0.9166666666666666    0.1666666666666666    0.6250000000000000 T T T Co
   0.6666666666666666    0.6666666666666666    0.6527777777777778 T T T Co
   0.1666666666666667    0.1666666666666667    0.6527777777777778 T T T Co
   0.1666666666666667    0.6666666666666666    0.7083333333333334 T T T Co
   0.6666666666666666    0.1666666666666666    0.7083333333333334 T T T Co
   0.7500000000000000    0.5000000000000000    0.6250000000000000 T T T Co
   0.2500000000000000    0.0000000000000000    0.6250000000000000 T T T Co
   0.2500000000000000    0.5000000000000000    0.6805555555555556 T T T Co
   0.7500000000000000    0.0000000000000000    0.6805555555555556 T T T Co
   0.5833333333333333    0.8333333333333333    0.6250000000000000 T T T Co
   0.0833333333333332    0.3333333333333333    0.6250000000000000 T T T Co
   0.0833333333333332    0.8333333333333333    0.6805555555555556 T T T Co
   0.5833333333333333    0.3333333333333333    0.6805555555555556 T T T Co
   0.8333333333333333    0.8333333333333333    0.6527777777777778 T T T Co
   0.3333333333333333    0.3333333333333333    0.6527777777777778 T T T Co
   0.3333333333333333    0.8333333333333333    0.7083333333333334 T T T Co
   0.8333333333333333    0.3333333333333333    0.7083333333333335 T T T Co
