Ge12 As12 Au12
1.0
   6.4040547535926873    0.0000000000000000    0.0000000000000004
   3.6676638232575982    6.6940885876183795    6.3286450702119135
   0.0000000000000000    0.0000000000000000   44.3005154914833952
Ge As Au Ge As Au Ge As Au
4 4 4 4 4 4 4 4 4
Selective dynamics
direct
   0.9216972958633036    0.1852048023992552    0.3491614713776872 T T T Ge
   0.0783027041366963    0.8147951976007449    0.4020771292060458 F F F Ge
   0.9216972958633036    0.6852048023992552    0.3491614713776872 T T T Ge
   0.0783027041366963    0.3147951976007448    0.4020771292060458 F F F Ge
   0.5843350071775504    0.8151744902043063    0.2938706095733045 T T T As
   0.4156649928224495    0.1848255097956937    0.3839204639173920 T T T As
   0.5843350071775504    0.3151744902043064    0.2938706095733045 T T T As
   0.4156649928224495    0.6848255097956937    0.3839204639173920 T T T As
   0.7523757446187034    0.2490805310486337    0.3927593728129807 F F F Au
   0.2476242553812965    0.7509194689513664    0.3210680959697331 T T T Au
   0.7523757446187034    0.7490805310486338    0.3927593728129807 F F F Au
   0.2476242553812965    0.2509194689513664    0.3210680959697331 T T T Au
   0.9216972958633036    0.1852048023992552    0.4920186142348300 F F F Ge
   0.0783027041366963    0.8147951976007449    0.5449342720631887 F F F Ge
   0.9216972958633036    0.6852048023992552    0.4920186142348300 F F F Ge
   0.0783027041366963    0.3147951976007448    0.5449342720631887 F F F Ge
   0.5843350071775504    0.8151744902043063    0.4367277524304474 F F F As
   0.4156649928224495    0.1848255097956937    0.5267776067745349 F F F As
   0.5843350071775504    0.3151744902043064    0.4367277524304474 F F F As
   0.4156649928224495    0.6848255097956937    0.5267776067745349 F F F As
   0.7523757446187034    0.2490805310486337    0.5356165156701236 F F F Au
   0.2476242553812965    0.7509194689513664    0.4639252388268760 F F F Au
   0.7523757446187034    0.7490805310486338    0.5356165156701236 F F F Au
   0.2476242553812965    0.2509194689513664    0.4639252388268760 F F F Au
   0.9216972958633036    0.1852048023992552    0.6348757570919729 T T T Ge
   0.0783027041366963    0.8147951976007449    0.6877914149203315 T T T Ge
   0.9216972958633036    0.6852048023992552    0.6348757570919729 T T T Ge
   0.0783027041366963    0.3147951976007448    0.6877914149203315 T T T Ge
   0.5843350071775504    0.8151744902043063    0.5795848952875902 F F F As
   0.4156649928224495    0.1848255097956937    0.6696347496316777 T T T As
   0.5843350071775504    0.3151744902043064    0.5795848952875902 F F F As
   0.4156649928224495    0.6848255097956937    0.6696347496316777 T T T As
   0.7523757446187034    0.2490805310486337    0.6784736585272664 T T T Au
   0.2476242553812965    0.7509194689513664    0.6067823816840188 T T T Au
   0.7523757446187034    0.7490805310486338    0.6784736585272664 T T T Au
   0.2476242553812965    0.2509194689513664    0.6067823816840188 T T T Au
