Ca32 In32 Cu128
1.0
  14.5727858868751436    0.0000000000000000   -7.2863929434375718
  -0.0000000000000041   14.5727858868751436   -7.2863929434375718
   0.0000000000000000    0.0000000000000000   36.4319647171878600
Ca In Cu Ca In Cu
16 16 64 16 16 64
Selective dynamics
direct
   0.8750000000000000    0.8749999999999999    0.4666666666666667 F F F Ca
   0.3749999999999999    0.3749999999999999    0.4666666666666667 F F F Ca
   0.3749999999999999    0.8749999999999999    0.3666666666666668 T T T Ca
   0.8750000000000000    0.3749999999999999    0.3666666666666668 T T T Ca
   0.6250000000000000    0.6249999999999999    0.3666666666666667 T T T Ca
   0.1250000000000000    0.1250000000000000    0.3666666666666667 T T T Ca
   0.1250000000000000    0.6249999999999999    0.4666666666666667 F F F Ca
   0.6250000000000000    0.1249999999999999    0.4666666666666667 F F F Ca
   0.8750000000000000    0.6249999999999999    0.3166666666666667 T T T Ca
   0.3749999999999999    0.1249999999999999    0.3166666666666668 T T T Ca
   0.3749999999999999    0.6249999999999999    0.4166666666666667 T T T Ca
   0.8750000000000000    0.1249999999999999    0.4166666666666667 T T T Ca
   0.6250000000000000    0.8749999999999999    0.3166666666666667 T T T Ca
   0.1250000000000000    0.3749999999999999    0.3166666666666668 T T T Ca
   0.1250000000000000    0.8749999999999999    0.4166666666666668 T T T Ca
   0.6250000000000000    0.3749999999999999    0.4166666666666668 T T T Ca
   0.4999999999999999    0.5000000000000000    0.4666666666666667 F F F In
   0.0000000000000000    0.0000000000000000    0.4666666666666667 F F F In
   0.0000000000000000    0.4999999999999999    0.3666666666666667 T T T In
   0.4999999999999999    0.0000000000000000    0.3666666666666667 T T T In
   0.7499999999999999    0.7499999999999999    0.3666666666666667 T T T In
   0.2500000000000000    0.2500000000000000    0.3666666666666667 T T T In
   0.2500000000000000    0.7499999999999999    0.4666666666666667 F F F In
   0.7499999999999999    0.2499999999999999    0.4666666666666667 F F F In
   0.4999999999999999    0.7499999999999999    0.4166666666666667 T T T In
   0.0000000000000000    0.2500000000000000    0.4166666666666667 T T T In
   0.0000000000000000    0.7499999999999999    0.3166666666666668 T T T In
   0.4999999999999999    0.2499999999999999    0.3166666666666668 T T T In
   0.7499999999999999    0.4999999999999999    0.4166666666666667 T T T In
   0.2500000000000000    0.0000000000000000    0.4166666666666667 T T T In
   0.2500000000000000    0.4999999999999999    0.3166666666666668 T T T In
   0.7499999999999999    0.9999999999999999    0.3166666666666668 T T T In
   0.5628213977310387    0.8128213977310387    0.3669237848514976 T T T Cu
   0.0628213977310388    0.3128213977310388    0.3669237848514977 T T T Cu
   0.0628213977310388    0.8128213977310387    0.4669237848514977 F F F Cu
   0.5628213977310387    0.3128213977310387    0.4669237848514978 F F F Cu
   0.9371786022689611    0.8128213977310386    0.3915381075742512 T T T Cu
   0.4371786022689612    0.3128213977310386    0.3915381075742512 T T T Cu
   0.4371786022689612    0.8128213977310386    0.4915381075742513 F F F Cu
   0.9371786022689611    0.3128213977310386    0.4915381075742513 F F F Cu
   0.9371786022689611    0.9371786022689612    0.3666666666666668 T T T Cu
   0.4371786022689612    0.4371786022689611    0.3666666666666668 T T T Cu
   0.4371786022689612    0.9371786022689611    0.4666666666666668 F F F Cu
   0.9371786022689611    0.4371786022689611    0.4666666666666668 F F F Cu
   0.5628213977310387    0.9371786022689611    0.4415381075742512 F F F Cu
   0.0628213977310388    0.4371786022689612    0.4415381075742512 F F F Cu
   0.0628213977310388    0.9371786022689611    0.3415381075742512 T T T Cu
   0.5628213977310387    0.4371786022689612    0.3415381075742512 T T T Cu
   0.8128213977310387    0.5628213977310388    0.3669237848514977 T T T Cu
   0.3128213977310388    0.0628213977310388    0.3669237848514977 T T T Cu
   0.3128213977310388    0.5628213977310388    0.4669237848514978 F F F Cu
   0.8128213977310387    0.0628213977310387    0.4669237848514977 F F F Cu
   0.6871786022689611    0.5628213977310387    0.4915381075742512 F F F Cu
   0.1871786022689612    0.0628213977310387    0.4915381075742512 F F F Cu
   0.1871786022689612    0.5628213977310387    0.3915381075742513 T T T Cu
   0.6871786022689611    0.0628213977310387    0.3915381075742512 T T T Cu
   0.6871786022689611    0.6871786022689611    0.4666666666666667 F F F Cu
   0.1871786022689612    0.1871786022689612    0.4666666666666667 F F F Cu
   0.1871786022689612    0.6871786022689611    0.3666666666666668 T T T Cu
   0.6871786022689611    0.1871786022689611    0.3666666666666668 T T T Cu
   0.8128213977310387    0.6871786022689611    0.4415381075742512 F F F Cu
   0.3128213977310388    0.1871786022689612    0.4415381075742513 F F F Cu
   0.3128213977310388    0.6871786022689611    0.3415381075742512 T T T Cu
   0.8128213977310387    0.1871786022689611    0.3415381075742512 T T T Cu
   0.5628213977310387    0.5628213977310388    0.4169237848514977 T T T Cu
   0.0628213977310388    0.0628213977310387    0.4169237848514978 T T T Cu
   0.0628213977310388    0.5628213977310387    0.3169237848514978 T T T Cu
   0.5628213977310387    0.0628213977310387    0.3169237848514977 T T T Cu
   0.9371786022689611    0.5628213977310387    0.4415381075742512 F F F Cu
   0.4371786022689612    0.0628213977310387    0.4415381075742512 F F F Cu
   0.4371786022689612    0.5628213977310387    0.3415381075742512 T T T Cu
   0.9371786022689611    0.0628213977310387    0.3415381075742512 T T T Cu
   0.9371786022689611    0.6871786022689611    0.4166666666666666 T T T Cu
   0.4371786022689612    0.1871786022689612    0.4166666666666667 T T T Cu
   0.4371786022689612    0.6871786022689611    0.3166666666666667 T T T Cu
   0.9371786022689611    0.1871786022689611    0.3166666666666667 T T T Cu
   0.5628213977310387    0.6871786022689611    0.4915381075742511 F F F Cu
   0.0628213977310388    0.1871786022689612    0.4915381075742513 F F F Cu
   0.0628213977310388    0.6871786022689610    0.3915381075742513 T T T Cu
   0.5628213977310387    0.1871786022689611    0.3915381075742512 T T T Cu
   0.8128213977310387    0.8128213977310386    0.3169237848514977 T T T Cu
   0.3128213977310388    0.3128213977310387    0.3169237848514977 T T T Cu
   0.3128213977310388    0.8128213977310386    0.4169237848514978 T T T Cu
   0.8128213977310387    0.3128213977310387    0.4169237848514978 T T T Cu
   0.6871786022689611    0.8128213977310387    0.4415381075742512 F F F Cu
   0.1871786022689612    0.3128213977310387    0.4415381075742512 F F F Cu
   0.1871786022689612    0.8128213977310386    0.3415381075742512 T T T Cu
   0.6871786022689611    0.3128213977310387    0.3415381075742513 T T T Cu
   0.6871786022689611    0.9371786022689611    0.4166666666666667 T T T Cu
   0.1871786022689612    0.4371786022689612    0.4166666666666667 T T T Cu
   0.1871786022689612    0.9371786022689611    0.3166666666666668 T T T Cu
   0.6871786022689611    0.4371786022689612    0.3166666666666668 T T T Cu
   0.8128213977310387    0.9371786022689612    0.3915381075742512 T T T Cu
   0.3128213977310388    0.4371786022689611    0.3915381075742513 T T T Cu
   0.3128213977310388    0.9371786022689611    0.4915381075742514 F F F Cu
   0.8128213977310387    0.4371786022689611    0.4915381075742513 F F F Cu
   0.8750000000000000    0.8749999999999999    0.6666666666666667 T T T Ca
   0.3749999999999999    0.3749999999999999    0.6666666666666667 T T T Ca
   0.3749999999999999    0.8749999999999999    0.5666666666666668 F F F Ca
   0.8750000000000000    0.3749999999999999    0.5666666666666668 F F F Ca
   0.6250000000000000    0.6249999999999999    0.5666666666666667 F F F Ca
   0.1250000000000000    0.1250000000000000    0.5666666666666668 F F F Ca
   0.1250000000000000    0.6249999999999999    0.6666666666666667 T T T Ca
   0.6250000000000000    0.1249999999999999    0.6666666666666667 T T T Ca
   0.8750000000000000    0.6249999999999999    0.5166666666666667 F F F Ca
   0.3749999999999999    0.1249999999999999    0.5166666666666667 F F F Ca
   0.3749999999999999    0.6249999999999999    0.6166666666666667 T T T Ca
   0.8750000000000000    0.1249999999999999    0.6166666666666667 T T T Ca
   0.6250000000000000    0.8749999999999999    0.5166666666666667 F F F Ca
   0.1250000000000000    0.3749999999999999    0.5166666666666667 F F F Ca
   0.1250000000000000    0.8749999999999999    0.6166666666666668 T T T Ca
   0.6250000000000000    0.3749999999999999    0.6166666666666668 T T T Ca
   0.4999999999999999    0.5000000000000000    0.6666666666666666 T T T In
   0.0000000000000000    0.0000000000000000    0.6666666666666667 T T T In
   0.0000000000000000    0.4999999999999999    0.5666666666666668 F F F In
   0.4999999999999999    0.0000000000000000    0.5666666666666667 F F F In
   0.7499999999999999    0.7499999999999999    0.5666666666666667 F F F In
   0.2500000000000000    0.2500000000000000    0.5666666666666668 F F F In
   0.2500000000000000    0.7499999999999999    0.6666666666666667 T T T In
   0.7499999999999999    0.2499999999999999    0.6666666666666667 T T T In
   0.4999999999999999    0.7499999999999999    0.6166666666666667 T T T In
   0.0000000000000000    0.2500000000000000    0.6166666666666667 T T T In
   0.0000000000000000    0.7499999999999999    0.5166666666666667 F F F In
   0.4999999999999999    0.2499999999999999    0.5166666666666667 F F F In
   0.7499999999999999    0.4999999999999999    0.6166666666666667 T T T In
   0.2500000000000000    0.0000000000000000    0.6166666666666667 T T T In
   0.2500000000000000    0.4999999999999999    0.5166666666666667 F F F In
   0.7499999999999999    0.9999999999999999    0.5166666666666667 F F F In
   0.5628213977310387    0.8128213977310387    0.5669237848514976 F F F Cu
   0.0628213977310388    0.3128213977310388    0.5669237848514977 F F F Cu
   0.0628213977310388    0.8128213977310387    0.6669237848514977 T T T Cu
   0.5628213977310387    0.3128213977310387    0.6669237848514977 T T T Cu
   0.9371786022689611    0.8128213977310386    0.5915381075742512 T T T Cu
   0.4371786022689612    0.3128213977310386    0.5915381075742512 T T T Cu
   0.4371786022689612    0.8128213977310386    0.6915381075742513 T T T Cu
   0.9371786022689611    0.3128213977310386    0.6915381075742513 T T T Cu
   0.9371786022689611    0.9371786022689612    0.5666666666666668 F F F Cu
   0.4371786022689612    0.4371786022689611    0.5666666666666668 F F F Cu
   0.4371786022689612    0.9371786022689611    0.6666666666666667 T T T Cu
   0.9371786022689611    0.4371786022689611    0.6666666666666667 T T T Cu
   0.5628213977310387    0.9371786022689611    0.6415381075742512 T T T Cu
   0.0628213977310388    0.4371786022689612    0.6415381075742512 T T T Cu
   0.0628213977310388    0.9371786022689611    0.5415381075742512 F F F Cu
   0.5628213977310387    0.4371786022689612    0.5415381075742512 F F F Cu
   0.8128213977310387    0.5628213977310388    0.5669237848514977 F F F Cu
   0.3128213977310388    0.0628213977310388    0.5669237848514977 F F F Cu
   0.3128213977310388    0.5628213977310388    0.6669237848514977 T T T Cu
   0.8128213977310387    0.0628213977310387    0.6669237848514977 T T T Cu
   0.6871786022689611    0.5628213977310387    0.6915381075742512 T T T Cu
   0.1871786022689612    0.0628213977310387    0.6915381075742513 T T T Cu
   0.1871786022689612    0.5628213977310387    0.5915381075742513 T T T Cu
   0.6871786022689611    0.0628213977310387    0.5915381075742512 T T T Cu
   0.6871786022689611    0.6871786022689611    0.6666666666666667 T T T Cu
   0.1871786022689612    0.1871786022689612    0.6666666666666667 T T T Cu
   0.1871786022689612    0.6871786022689611    0.5666666666666668 F F F Cu
   0.6871786022689611    0.1871786022689611    0.5666666666666668 F F F Cu
   0.8128213977310387    0.6871786022689611    0.6415381075742511 T T T Cu
   0.3128213977310388    0.1871786022689612    0.6415381075742512 T T T Cu
   0.3128213977310388    0.6871786022689611    0.5415381075742512 F F F Cu
   0.8128213977310387    0.1871786022689611    0.5415381075742512 F F F Cu
   0.5628213977310387    0.5628213977310388    0.6169237848514977 T T T Cu
   0.0628213977310388    0.0628213977310387    0.6169237848514978 T T T Cu
   0.0628213977310388    0.5628213977310387    0.5169237848514978 F F F Cu
   0.5628213977310387    0.0628213977310387    0.5169237848514978 F F F Cu
   0.9371786022689611    0.5628213977310387    0.6415381075742512 T T T Cu
   0.4371786022689612    0.0628213977310387    0.6415381075742512 T T T Cu
   0.4371786022689612    0.5628213977310387    0.5415381075742512 F F F Cu
   0.9371786022689611    0.0628213977310387    0.5415381075742512 F F F Cu
   0.9371786022689611    0.6871786022689611    0.6166666666666667 T T T Cu
   0.4371786022689612    0.1871786022689612    0.6166666666666667 T T T Cu
   0.4371786022689612    0.6871786022689611    0.5166666666666667 F F F Cu
   0.9371786022689611    0.1871786022689611    0.5166666666666667 F F F Cu
   0.5628213977310387    0.6871786022689611    0.6915381075742512 T T T Cu
   0.0628213977310388    0.1871786022689612    0.6915381075742513 T T T Cu
   0.0628213977310388    0.6871786022689610    0.5915381075742513 T T T Cu
   0.5628213977310387    0.1871786022689611    0.5915381075742512 T T T Cu
   0.8128213977310387    0.8128213977310386    0.5169237848514977 F F F Cu
   0.3128213977310388    0.3128213977310387    0.5169237848514978 F F F Cu
   0.3128213977310388    0.8128213977310386    0.6169237848514978 T T T Cu
   0.8128213977310387    0.3128213977310387    0.6169237848514978 T T T Cu
   0.6871786022689611    0.8128213977310387    0.6415381075742511 T T T Cu
   0.1871786022689612    0.3128213977310387    0.6415381075742512 T T T Cu
   0.1871786022689612    0.8128213977310386    0.5415381075742512 F F F Cu
   0.6871786022689611    0.3128213977310387    0.5415381075742512 F F F Cu
   0.6871786022689611    0.9371786022689611    0.6166666666666667 T T T Cu
   0.1871786022689612    0.4371786022689612    0.6166666666666667 T T T Cu
   0.1871786022689612    0.9371786022689611    0.5166666666666667 F F F Cu
   0.6871786022689611    0.4371786022689612    0.5166666666666667 F F F Cu
   0.8128213977310387    0.9371786022689612    0.5915381075742512 T T T Cu
   0.3128213977310388    0.4371786022689611    0.5915381075742513 T T T Cu
   0.3128213977310388    0.9371786022689611    0.6915381075742514 T T T Cu
   0.8128213977310387    0.4371786022689611    0.6915381075742513 T T T Cu
