Sr6 Pd30
1.0
   4.7308556423487529    0.0000000000000000   -2.7313607786073137
  -0.0000000000000025    8.8483547498743711   -5.4627215572146248
   0.0000000000000000    0.0000000000000000   38.2390509005023773
Sr Pd Sr Pd Sr Pd
2 10 2 10 2 10
Selective dynamics
direct
   0.0000000000000000    0.0000000000000000    0.4226190476190476 F F F Sr
   0.0000000000000000    0.5000000000000000    0.3511904761904762 T T T Sr
   0.6666666666666666    0.0000000000000000    0.3273809523809523 T T T Pd
   0.6666666666666666    0.5000000000000000    0.3988095238095238 T T T Pd
   0.5000000000000000    0.2500000000000000    0.3154761904761904 T T T Pd
   0.5000000000000000    0.7500000000000000    0.3869047619047619 T T T Pd
   0.0000000000000000    0.2500000000000000    0.3869047619047619 T T T Pd
   0.0000000000000000    0.7500000000000000    0.3154761904761904 T T T Pd
   0.4999999999999999    0.2500000000000000    0.3869047619047619 T T T Pd
   0.4999999999999999    0.7500000000000000    0.3154761904761904 T T T Pd
   0.3333333333333333    0.0000000000000000    0.3750000000000000 T T T Pd
   0.3333333333333333    0.5000000000000000    0.3035714285714285 T T T Pd
   0.0000000000000000    0.0000000000000000    0.5654761904761905 F F F Sr
   0.0000000000000000    0.5000000000000000    0.4940476190476190 F F F Sr
   0.6666666666666666    0.0000000000000000    0.4702380952380952 F F F Pd
   0.6666666666666666    0.5000000000000000    0.5416666666666666 F F F Pd
   0.5000000000000000    0.2500000000000000    0.4583333333333333 F F F Pd
   0.5000000000000000    0.7500000000000000    0.5297619047619047 F F F Pd
   0.0000000000000000    0.2500000000000000    0.5297619047619047 F F F Pd
   0.0000000000000000    0.7500000000000000    0.4583333333333333 F F F Pd
   0.4999999999999999    0.2500000000000000    0.5297619047619047 F F F Pd
   0.4999999999999999    0.7500000000000000    0.4583333333333333 F F F Pd
   0.3333333333333333    0.0000000000000000    0.5178571428571428 F F F Pd
   0.3333333333333333    0.5000000000000000    0.4464285714285714 F F F Pd
   0.0000000000000000    0.0000000000000000    0.7083333333333333 T T T Sr
   0.0000000000000000    0.5000000000000000    0.6369047619047619 T T T Sr
   0.6666666666666666    0.0000000000000000    0.6130952380952380 T T T Pd
   0.6666666666666666    0.5000000000000000    0.6845238095238095 T T T Pd
   0.5000000000000000    0.2500000000000000    0.6011904761904761 F F F Pd
   0.5000000000000000    0.7500000000000000    0.6726190476190476 T T T Pd
   0.0000000000000000    0.2500000000000000    0.6726190476190476 T T T Pd
   0.0000000000000000    0.7500000000000000    0.6011904761904761 F F F Pd
   0.4999999999999999    0.2500000000000000    0.6726190476190476 T T T Pd
   0.4999999999999999    0.7500000000000000    0.6011904761904761 F F F Pd
   0.3333333333333333    0.0000000000000000    0.6607142857142857 T T T Pd
   0.3333333333333333    0.5000000000000000    0.5892857142857142 F F F Pd
