Ba16 Cd16 Sn16
1.0
  12.1946236497227058    0.0000000000000000    5.2848196249217656
  18.1796977720750803    6.1235645092017075    0.0000000000000012
   0.0000000000000000    0.0000000000000000   47.5633766242958842
Ba Cd Sn Ba Cd Sn Ba Cd Sn Ba Cd Sn
4 4 4 4 4 4 4 4 4 4 4 4
Selective dynamics
direct
   0.3405690750498924    0.7047176440630875    0.2769738064759379 T T T Ba
   0.6594309249501078    0.2952823559369124    0.3526558231536918 T T T Ba
   0.8405690750498922    0.7047176440630875    0.2769738064759379 T T T Ba
   0.1594309249501078    0.2952823559369124    0.3526558231536918 T T T Ba
   0.8836662520469574    0.2751015314552419    0.3832963423651529 T T T Cd
   0.1163337479530426    0.7248984685447583    0.3574443983755879 T T T Cd
   0.3836662520469573    0.2751015314552419    0.3832963423651529 T T T Cd
   0.6163337479530426    0.7248984685447583    0.3574443983755879 T T T Cd
   0.2390100336408307    0.1002944352414019    0.2882581444102781 T T T Sn
   0.7609899663591693    0.8997055647585981    0.3413714852193516 T T T Sn
   0.7390100336408308    0.1002944352414019    0.2882581444102781 T T T Sn
   0.2609899663591693    0.8997055647585981    0.3413714852193516 T T T Sn
   0.3405690750498924    0.7047176440630875    0.3880849175870490 F F F Ba
   0.6594309249501078    0.2952823559369124    0.4637669342648029 F F F Ba
   0.8405690750498922    0.7047176440630875    0.3880849175870490 F F F Ba
   0.1594309249501078    0.2952823559369124    0.4637669342648029 F F F Ba
   0.8836662520469574    0.2751015314552419    0.4944074534762640 F F F Cd
   0.1163337479530426    0.7248984685447583    0.4685555094866990 F F F Cd
   0.3836662520469573    0.2751015314552419    0.4944074534762640 F F F Cd
   0.6163337479530426    0.7248984685447583    0.4685555094866990 F F F Cd
   0.2390100336408307    0.1002944352414019    0.3993692555213892 F F F Sn
   0.7609899663591693    0.8997055647585981    0.4524825963304627 F F F Sn
   0.7390100336408308    0.1002944352414019    0.3993692555213892 F F F Sn
   0.2609899663591693    0.8997055647585981    0.4524825963304627 F F F Sn
   0.3405690750498924    0.7047176440630875    0.4991960286981602 F F F Ba
   0.6594309249501078    0.2952823559369124    0.5748780453759139 F F F Ba
   0.8405690750498922    0.7047176440630875    0.4991960286981602 F F F Ba
   0.1594309249501078    0.2952823559369124    0.5748780453759139 F F F Ba
   0.8836662520469574    0.2751015314552419    0.6055185645873751 F F F Cd
   0.1163337479530426    0.7248984685447583    0.5796666205978100 F F F Cd
   0.3836662520469573    0.2751015314552419    0.6055185645873751 F F F Cd
   0.6163337479530426    0.7248984685447583    0.5796666205978100 F F F Cd
   0.2390100336408307    0.1002944352414019    0.5104803666325003 F F F Sn
   0.7609899663591693    0.8997055647585981    0.5635937074415738 F F F Sn
   0.7390100336408308    0.1002944352414019    0.5104803666325003 F F F Sn
   0.2609899663591693    0.8997055647585981    0.5635937074415738 F F F Sn
   0.3405690750498924    0.7047176440630875    0.6103071398092712 T T T Ba
   0.6594309249501078    0.2952823559369124    0.6859891564870251 T T T Ba
   0.8405690750498922    0.7047176440630875    0.6103071398092712 T T T Ba
   0.1594309249501078    0.2952823559369124    0.6859891564870251 T T T Ba
   0.8836662520469574    0.2751015314552419    0.7166296756984862 T T T Cd
   0.1163337479530426    0.7248984685447583    0.6907777317089212 T T T Cd
   0.3836662520469573    0.2751015314552419    0.7166296756984862 T T T Cd
   0.6163337479530426    0.7248984685447583    0.6907777317089212 T T T Cd
   0.2390100336408307    0.1002944352414019    0.6215914777436113 T T T Sn
   0.7609899663591693    0.8997055647585981    0.6747048185526849 T T T Sn
   0.7390100336408308    0.1002944352414019    0.6215914777436113 T T T Sn
   0.2609899663591693    0.8997055647585981    0.6747048185526849 T T T Sn
