In18 Sn6 Au24
1.0
   4.2902913875130233    0.0000000000000000    0.0000000000000003
   0.0000000000000035   21.6197134564204596   -3.7994629664511606
   0.0000000000000000    0.0000000000000000   30.3957037316092773
In Sn Au In Sn Au In Sn Au
6 2 8 6 2 8 6 2 8
Selective dynamics
direct
   0.5000000000000000    0.4280381640394352    0.3503797626924293 T T T In
   0.5000000000000000    0.9280381640394353    0.4128797626924293 T T T In
   0.0000000000000000    0.0708894992049558    0.4307361795881194 F F F In
   0.0000000000000000    0.5708894992049558    0.3682361795881194 T T T In
   0.0000000000000000    0.3230820946590178    0.3997602540198771 T T T In
   0.0000000000000000    0.8230820946590178    0.3372602540198771 T T T In
   0.5000000000000000    0.1775933220091801    0.3815741574386474 T T T Sn
   0.5000000000000000    0.6775933220091801    0.3190741574386474 T T T Sn
   0.5000000000000000    0.0458596943586435    0.3651074539823304 T T T Au
   0.5000000000000000    0.5458596943586435    0.4276074539823304 F F F Au
   0.5000000000000000    0.2965507431526930    0.3339438350815865 T T T Au
   0.5000000000000000    0.7965507431526929    0.3964438350815865 T T T Au
   0.0000000000000000    0.2036179051204386    0.3223272303275547 T T T Au
   0.0000000000000000    0.7036179051204385    0.3848272303275547 T T T Au
   0.0000000000000000    0.4543690774556417    0.4161711268694551 T T T Au
   0.0000000000000000    0.9543690774556417    0.3536711268694551 T T T Au
   0.5000000000000000    0.4280381640394352    0.4753797626924293 F F F In
   0.5000000000000000    0.9280381640394353    0.5378797626924293 F F F In
   0.0000000000000000    0.0708894992049558    0.5557361795881194 F F F In
   0.0000000000000000    0.5708894992049558    0.4932361795881194 F F F In
   0.0000000000000000    0.3230820946590178    0.5247602540198771 F F F In
   0.0000000000000000    0.8230820946590178    0.4622602540198771 F F F In
   0.5000000000000000    0.1775933220091801    0.5065741574386474 F F F Sn
   0.5000000000000000    0.6775933220091801    0.4440741574386474 F F F Sn
   0.5000000000000000    0.0458596943586435    0.4901074539823304 F F F Au
   0.5000000000000000    0.5458596943586435    0.5526074539823304 F F F Au
   0.5000000000000000    0.2965507431526930    0.4589438350815865 F F F Au
   0.5000000000000000    0.7965507431526929    0.5214438350815865 F F F Au
   0.0000000000000000    0.2036179051204386    0.4473272303275547 F F F Au
   0.0000000000000000    0.7036179051204385    0.5098272303275547 F F F Au
   0.0000000000000000    0.4543690774556417    0.5411711268694551 F F F Au
   0.0000000000000000    0.9543690774556417    0.4786711268694551 F F F Au
   0.5000000000000000    0.4280381640394352    0.6003797626924293 T T T In
   0.5000000000000000    0.9280381640394353    0.6628797626924293 T T T In
   0.0000000000000000    0.0708894992049558    0.6807361795881194 T T T In
   0.0000000000000000    0.5708894992049558    0.6182361795881194 T T T In
   0.0000000000000000    0.3230820946590178    0.6497602540198771 T T T In
   0.0000000000000000    0.8230820946590178    0.5872602540198771 T T T In
   0.5000000000000000    0.1775933220091801    0.6315741574386474 T T T Sn
   0.5000000000000000    0.6775933220091801    0.5690741574386474 F F F Sn
   0.5000000000000000    0.0458596943586435    0.6151074539823304 T T T Au
   0.5000000000000000    0.5458596943586435    0.6776074539823304 T T T Au
   0.5000000000000000    0.2965507431526930    0.5839438350815865 T T T Au
   0.5000000000000000    0.7965507431526929    0.6464438350815865 T T T Au
   0.0000000000000000    0.2036179051204386    0.5723272303275547 F F F Au
   0.0000000000000000    0.7036179051204385    0.6348272303275547 T T T Au
   0.0000000000000000    0.4543690774556417    0.6661711268694551 T T T Au
   0.0000000000000000    0.9543690774556417    0.6036711268694551 T T T Au
