In3 Sn1 Au4
1.0
   3.7994629664511597    0.0000000000000000    0.0000000000000002
   0.0000000000000007    4.2902913875130233    0.0000000000000003
   0.0000000000000000    0.0000000000000000   32.4295701846306912
In Sn Au
3 1 4
Selective dynamics
direct
   0.0000000000000000    0.5000000000000000    0.5770254010262897 T T T In
   0.0000000000000000    0.0000000000000000    0.3389262911366367 T T T In
   0.5000000000000000    0.0000000000000000    0.5070546881060114 F F F In
   0.5000000000000000    0.5000000000000000    0.4100621730061196 T T T Sn
   0.5000000000000000    0.5000000000000000    0.6555730879057620 T T T Au
   0.0000000000000000    0.5000000000000000    0.4893671204351282 F F F Au
   0.0000000000000000    0.0000000000000000    0.4274118950802919 T T T Au
   0.5000000000000000    0.0000000000000000    0.5945793433037607 T T T Au
