Y18 In18 Ni18
1.0
   7.4468172381509925    0.0000000000000000    0.0000000000000005
   7.4468172381509961   12.8982658111572626    3.8234040576741921
   0.0000000000000000    0.0000000000000000   30.5872324613935369
Y In Ni Y In Ni Y In Ni
6 6 6 6 6 6 6 6 6
Selective dynamics
direct
   0.5893537717505948    0.4999999999999999    0.4270833333333333 F F F Y
   0.5893537717505949    0.0000000000000000    0.3645833333333333 T T T Y
   0.0000000000000000    0.2053231141247026    0.3389179440677455 T T T Y
   0.0000000000000000    0.7053231141247025    0.4014179440677455 T T T Y
   0.4106462282494051    0.2946768858752974    0.3277487225989211 T T T Y
   0.4106462282494051    0.7946768858752975    0.3902487225989211 T T T Y
   0.2538982905529891    0.4999999999999999    0.3645833333333333 T T T In
   0.2538982905529892    0.0000000000000000    0.4270833333333333 F F F In
   0.0000000000000000    0.3730508547235054    0.3804519764928951 T T T In
   0.0000000000000000    0.8730508547235054    0.3179519764928951 T T T In
   0.7461017094470108    0.1269491452764945    0.4112146901737715 T T T In
   0.7461017094470108    0.6269491452764946    0.3487146901737715 T T T In
   0.0000000000000000    0.5000000000000000    0.4270833333333333 F F F Ni
   0.0000000000000000    0.0000000000000000    0.3645833333333333 T T T Ni
   0.3333333333333333    0.1666666666666667    0.4062500000000000 T T T Ni
   0.3333333333333334    0.6666666666666667    0.3437500000000000 T T T Ni
   0.6666666666666666    0.3333333333333333    0.3854166666666666 T T T Ni
   0.6666666666666666    0.8333333333333334    0.3229166666666666 T T T Ni
   0.5893537717505948    0.4999999999999999    0.5520833333333333 F F F Y
   0.5893537717505949    0.0000000000000000    0.4895833333333333 F F F Y
   0.0000000000000000    0.2053231141247026    0.4639179440677455 F F F Y
   0.0000000000000000    0.7053231141247025    0.5264179440677454 F F F Y
   0.4106462282494051    0.2946768858752974    0.4527487225989211 F F F Y
   0.4106462282494051    0.7946768858752975    0.5152487225989211 F F F Y
   0.2538982905529891    0.4999999999999999    0.4895833333333333 F F F In
   0.2538982905529892    0.0000000000000000    0.5520833333333333 F F F In
   0.0000000000000000    0.3730508547235054    0.5054519764928951 F F F In
   0.0000000000000000    0.8730508547235054    0.4429519764928951 F F F In
   0.7461017094470108    0.1269491452764945    0.5362146901737714 F F F In
   0.7461017094470108    0.6269491452764946    0.4737146901737715 F F F In
   0.0000000000000000    0.5000000000000000    0.5520833333333333 F F F Ni
   0.0000000000000000    0.0000000000000000    0.4895833333333333 F F F Ni
   0.3333333333333333    0.1666666666666667    0.5312500000000000 F F F Ni
   0.3333333333333334    0.6666666666666667    0.4687500000000000 F F F Ni
   0.6666666666666666    0.3333333333333333    0.5104166666666666 F F F Ni
   0.6666666666666666    0.8333333333333334    0.4479166666666666 F F F Ni
   0.5893537717505948    0.4999999999999999    0.6770833333333333 T T T Y
   0.5893537717505949    0.0000000000000000    0.6145833333333333 T T T Y
   0.0000000000000000    0.2053231141247026    0.5889179440677454 T T T Y
   0.0000000000000000    0.7053231141247025    0.6514179440677454 T T T Y
   0.4106462282494051    0.2946768858752974    0.5777487225989211 T T T Y
   0.4106462282494051    0.7946768858752975    0.6402487225989211 T T T Y
   0.2538982905529891    0.4999999999999999    0.6145833333333333 T T T In
   0.2538982905529892    0.0000000000000000    0.6770833333333333 T T T In
   0.0000000000000000    0.3730508547235054    0.6304519764928951 T T T In
   0.0000000000000000    0.8730508547235054    0.5679519764928951 F F F In
   0.7461017094470108    0.1269491452764945    0.6612146901737714 T T T In
   0.7461017094470108    0.6269491452764946    0.5987146901737714 T T T In
   0.0000000000000000    0.5000000000000000    0.6770833333333333 T T T Ni
   0.0000000000000000    0.0000000000000000    0.6145833333333333 T T T Ni
   0.3333333333333333    0.1666666666666667    0.6562500000000000 T T T Ni
   0.3333333333333334    0.6666666666666667    0.5937500000000000 T T T Ni
   0.6666666666666666    0.3333333333333333    0.6354166666666667 T T T Ni
   0.6666666666666666    0.8333333333333334    0.5729166666666666 F F F Ni
