Sr24 In36 Rh24
1.0
  11.1049614685327445    0.0000000000000000    4.3289412314537223
  17.9456219754117292   14.5195687291792535    0.0000000000000014
   0.0000000000000000    0.0000000000000000   34.6315298516297787
Sr In Rh Sr In Rh Sr In Rh
8 12 8 8 12 8 8 12 8
Selective dynamics
direct
   0.5319112153807521    0.6122592077696254    0.3665468123631203 T T T Sr
   0.0319112153807521    0.1122592077696254    0.4290468123631203 F F F Sr
   0.9680887846192474    0.8877407922303746    0.3120246162083083 T T T Sr
   0.4680887846192475    0.3877407922303746    0.3745246162083083 T T T Sr
   0.0319112153807523    0.6122592077696254    0.3665468123631203 T T T Sr
   0.5319112153807523    0.1122592077696254    0.4290468123631203 F F F Sr
   0.4680887846192474    0.8877407922303746    0.3120246162083083 T T T Sr
   0.9680887846192474    0.3877407922303746    0.3745246162083083 T T T Sr
   0.4999999999999998    0.5000000000000000    0.4330357142857143 F F F In
   0.0000000000000000    0.0000000000000000    0.3705357142857143 T T T In
   0.1373040605008845    0.7212783209818063    0.3533727067231037 T T T In
   0.6373040605008846    0.2212783209818063    0.4158727067231037 F F F In
   0.3626959394991152    0.7787216790181937    0.3251987218483249 T T T In
   0.8626959394991152    0.2787216790181936    0.3876987218483249 T T T In
   0.0000000000000000    0.5000000000000000    0.4330357142857143 F F F In
   0.5000000000000000    0.0000000000000000    0.3705357142857143 T T T In
   0.6373040605008844    0.7212783209818063    0.3533727067231037 T T T In
   0.1373040605008845    0.2212783209818063    0.4158727067231037 F F F In
   0.8626959394991153    0.7787216790181937    0.3251987218483249 T T T In
   0.3626959394991154    0.2787216790181937    0.3876987218483249 T T T In
   0.7310488020563852    0.8964328816827133    0.4041546140286661 T T T Rh
   0.2310488020563851    0.3964328816827134    0.3416546140286661 T T T Rh
   0.7689511979436148    0.6035671183172865    0.3994168145427625 T T T Rh
   0.2689511979436148    0.1035671183172866    0.3369168145427625 T T T Rh
   0.2310488020563852    0.8964328816827133    0.4041546140286661 T T T Rh
   0.7310488020563852    0.3964328816827134    0.3416546140286661 T T T Rh
   0.2689511979436148    0.6035671183172865    0.3994168145427625 T T T Rh
   0.7689511979436148    0.1035671183172866    0.3369168145427625 T T T Rh
   0.5319112153807521    0.6122592077696254    0.4915468123631203 F F F Sr
   0.0319112153807521    0.1122592077696254    0.5540468123631203 F F F Sr
   0.9680887846192474    0.8877407922303746    0.4370246162083083 F F F Sr
   0.4680887846192475    0.3877407922303746    0.4995246162083083 F F F Sr
   0.0319112153807523    0.6122592077696254    0.4915468123631203 F F F Sr
   0.5319112153807523    0.1122592077696254    0.5540468123631203 F F F Sr
   0.4680887846192474    0.8877407922303746    0.4370246162083083 F F F Sr
   0.9680887846192474    0.3877407922303746    0.4995246162083083 F F F Sr
   0.4999999999999998    0.5000000000000000    0.5580357142857143 F F F In
   0.0000000000000000    0.0000000000000000    0.4955357142857143 F F F In
   0.1373040605008845    0.7212783209818063    0.4783727067231037 F F F In
   0.6373040605008846    0.2212783209818063    0.5408727067231037 F F F In
   0.3626959394991152    0.7787216790181937    0.4501987218483249 F F F In
   0.8626959394991152    0.2787216790181936    0.5126987218483249 F F F In
   0.0000000000000000    0.5000000000000000    0.5580357142857143 F F F In
   0.5000000000000000    0.0000000000000000    0.4955357142857143 F F F In
   0.6373040605008844    0.7212783209818063    0.4783727067231037 F F F In
   0.1373040605008845    0.2212783209818063    0.5408727067231037 F F F In
   0.8626959394991153    0.7787216790181937    0.4501987218483249 F F F In
   0.3626959394991154    0.2787216790181937    0.5126987218483249 F F F In
   0.7310488020563852    0.8964328816827133    0.5291546140286661 F F F Rh
   0.2310488020563851    0.3964328816827134    0.4666546140286661 F F F Rh
   0.7689511979436148    0.6035671183172865    0.5244168145427625 F F F Rh
   0.2689511979436148    0.1035671183172866    0.4619168145427625 F F F Rh
   0.2310488020563852    0.8964328816827133    0.5291546140286661 F F F Rh
   0.7310488020563852    0.3964328816827134    0.4666546140286661 F F F Rh
   0.2689511979436148    0.6035671183172865    0.5244168145427625 F F F Rh
   0.7689511979436148    0.1035671183172866    0.4619168145427625 F F F Rh
   0.5319112153807521    0.6122592077696254    0.6165468123631203 T T T Sr
   0.0319112153807521    0.1122592077696254    0.6790468123631203 T T T Sr
   0.9680887846192474    0.8877407922303746    0.5620246162083083 F F F Sr
   0.4680887846192475    0.3877407922303746    0.6245246162083083 T T T Sr
   0.0319112153807523    0.6122592077696254    0.6165468123631203 T T T Sr
   0.5319112153807523    0.1122592077696254    0.6790468123631203 T T T Sr
   0.4680887846192474    0.8877407922303746    0.5620246162083083 F F F Sr
   0.9680887846192474    0.3877407922303746    0.6245246162083083 T T T Sr
   0.4999999999999998    0.5000000000000000    0.6830357142857143 T T T In
   0.0000000000000000    0.0000000000000000    0.6205357142857143 T T T In
   0.1373040605008845    0.7212783209818063    0.6033727067231037 T T T In
   0.6373040605008846    0.2212783209818063    0.6658727067231037 T T T In
   0.3626959394991152    0.7787216790181937    0.5751987218483249 F F F In
   0.8626959394991152    0.2787216790181936    0.6376987218483249 T T T In
   0.0000000000000000    0.5000000000000000    0.6830357142857143 T T T In
   0.5000000000000000    0.0000000000000000    0.6205357142857143 T T T In
   0.6373040605008844    0.7212783209818063    0.6033727067231037 T T T In
   0.1373040605008845    0.2212783209818063    0.6658727067231037 T T T In
   0.8626959394991153    0.7787216790181937    0.5751987218483249 F F F In
   0.3626959394991154    0.2787216790181937    0.6376987218483249 T T T In
   0.7310488020563852    0.8964328816827133    0.6541546140286661 T T T Rh
   0.2310488020563851    0.3964328816827134    0.5916546140286661 T T T Rh
   0.7689511979436148    0.6035671183172865    0.6494168145427625 T T T Rh
   0.2689511979436148    0.1035671183172866    0.5869168145427625 T T T Rh
   0.2310488020563852    0.8964328816827133    0.6541546140286661 T T T Rh
   0.7310488020563852    0.3964328816827134    0.5916546140286661 T T T Rh
   0.2689511979436148    0.6035671183172865    0.6494168145427625 T T T Rh
   0.7689511979436148    0.1035671183172866    0.5869168145427625 T T T Rh
