Mn18 Nb18 Ge18
1.0
   6.5666726915810916    0.0000000000000000    0.0000000000000004
   6.5666726915810951   11.3738107384935230    3.6421062399620050
   0.0000000000000000    0.0000000000000000   29.1368499196960506
Mn Nb Ge Mn Nb Ge Mn Nb Ge
6 6 6 6 6 6 6 6 6
Selective dynamics
direct
   0.7499624204299380    0.5000000000000000    0.3645833333333334 T T T Mn
   0.7499624204299381    0.0000000000000001    0.4270833333333334 F F F Mn
   0.2500375795700621    0.3749812102149690    0.3802106820564622 T T T Mn
   0.2500375795700620    0.8749812102149690    0.3177106820564622 T T T Mn
   0.0000000000000000    0.1250187897850310    0.4114559846102045 T T T Mn
   0.9999999999999999    0.6250187897850310    0.3489559846102045 T T T Mn
   0.4160053519888365    0.5000000000000000    0.4270833333333334 F F F Nb
   0.4160053519888365    0.0000000000000000    0.3645833333333334 T T T Nb
   0.5839946480111635    0.2080026759944183    0.3385829988340311 T T T Nb
   0.5839946480111635    0.7080026759944182    0.4010829988340311 T T T Nb
   0.0000000000000000    0.2919973240055818    0.3280836678326357 T T T Nb
   0.0000000000000000    0.7919973240055818    0.3905836678326357 T T T Nb
   0.6666666666666666    0.3333333333333333    0.3854166666666667 T T T Ge
   0.6666666666666666    0.8333333333333334    0.3229166666666667 T T T Ge
   0.3333333333333334    0.1666666666666667    0.4062500000000000 T T T Ge
   0.3333333333333333    0.6666666666666667    0.3437500000000000 T T T Ge
   0.0000000000000000    0.4999999999999999    0.4270833333333334 F F F Ge
   0.0000000000000000    0.0000000000000000    0.3645833333333334 T T T Ge
   0.7499624204299380    0.5000000000000000    0.4895833333333334 F F F Mn
   0.7499624204299381    0.0000000000000001    0.5520833333333334 F F F Mn
   0.2500375795700621    0.3749812102149690    0.5052106820564622 F F F Mn
   0.2500375795700620    0.8749812102149690    0.4427106820564622 F F F Mn
   0.0000000000000000    0.1250187897850310    0.5364559846102045 F F F Mn
   0.9999999999999999    0.6250187897850310    0.4739559846102045 F F F Mn
   0.4160053519888365    0.5000000000000000    0.5520833333333334 F F F Nb
   0.4160053519888365    0.0000000000000000    0.4895833333333334 F F F Nb
   0.5839946480111635    0.2080026759944183    0.4635829988340311 F F F Nb
   0.5839946480111635    0.7080026759944182    0.5260829988340311 F F F Nb
   0.0000000000000000    0.2919973240055818    0.4530836678326357 F F F Nb
   0.0000000000000000    0.7919973240055818    0.5155836678326357 F F F Nb
   0.6666666666666666    0.3333333333333333    0.5104166666666667 F F F Ge
   0.6666666666666666    0.8333333333333334    0.4479166666666667 F F F Ge
   0.3333333333333334    0.1666666666666667    0.5312500000000000 F F F Ge
   0.3333333333333333    0.6666666666666667    0.4687500000000000 F F F Ge
   0.0000000000000000    0.4999999999999999    0.5520833333333334 F F F Ge
   0.0000000000000000    0.0000000000000000    0.4895833333333334 F F F Ge
   0.7499624204299380    0.5000000000000000    0.6145833333333334 T T T Mn
   0.7499624204299381    0.0000000000000001    0.6770833333333334 T T T Mn
   0.2500375795700621    0.3749812102149690    0.6302106820564622 T T T Mn
   0.2500375795700620    0.8749812102149690    0.5677106820564622 F F F Mn
   0.0000000000000000    0.1250187897850310    0.6614559846102045 T T T Mn
   0.9999999999999999    0.6250187897850310    0.5989559846102045 T T T Mn
   0.4160053519888365    0.5000000000000000    0.6770833333333334 T T T Nb
   0.4160053519888365    0.0000000000000000    0.6145833333333334 T T T Nb
   0.5839946480111635    0.2080026759944183    0.5885829988340311 T T T Nb
   0.5839946480111635    0.7080026759944182    0.6510829988340311 T T T Nb
   0.0000000000000000    0.2919973240055818    0.5780836678326357 T T T Nb
   0.0000000000000000    0.7919973240055818    0.6405836678326357 T T T Nb
   0.6666666666666666    0.3333333333333333    0.6354166666666667 T T T Ge
   0.6666666666666666    0.8333333333333334    0.5729166666666667 T T T Ge
   0.3333333333333334    0.1666666666666667    0.6562500000000000 T T T Ge
   0.3333333333333333    0.6666666666666667    0.5937500000000000 T T T Ge
   0.0000000000000000    0.4999999999999999    0.6770833333333334 T T T Ge
   0.0000000000000000    0.0000000000000000    0.6145833333333334 T T T Ge
