Mn36 Nb36 Ge36
1.0
  11.3738107384935212    0.0000000000000000  -13.1333453831621831
  -0.0000000000000037    7.2842124799240109   -6.5666726915810933
   0.0000000000000000    0.0000000000000000   52.5333815326487326
Mn Nb Ge Mn Nb Ge Mn Nb Ge
12 12 12 12 12 12 12 12 12
Selective dynamics
direct
   0.8749812102149691    0.5000000000000000    0.3211782068324266 T T T Mn
   0.3749812102149691    0.0000000000000000    0.3211782068324266 T T T Mn
   0.3749812102149691    0.5000000000000001    0.3836782068324266 T T T Mn
   0.8749812102149691    0.0000000000000001    0.3836782068324266 T T T Mn
   0.6250187897850310    0.5000000000000000    0.3211876017249422 T T T Mn
   0.1250187897850310    0.0000000000000000    0.3211876017249422 T T T Mn
   0.1250187897850310    0.5000000000000001    0.3836876017249422 T T T Mn
   0.6250187897850310    0.0000000000000001    0.3836876017249422 T T T Mn
   0.5000000000000000    0.5000000000000001    0.3680508581092978 T T T Mn
   0.0000000000000000    0.0000000000000001    0.3680508581092978 T T T Mn
   0.0000000000000000    0.5000000000000001    0.4305508581092978 F F F Mn
   0.5000000000000000    0.0000000000000001    0.4305508581092978 F F F Mn
   0.7080026759944182    0.7500000000000001    0.3315558900548578 T T T Nb
   0.2080026759944182    0.2500000000000001    0.3315558900548578 T T T Nb
   0.2080026759944182    0.7500000000000001    0.3940558900548578 T T T Nb
   0.7080026759944182    0.2500000000000001    0.3940558900548578 T T T Nb
   0.7919973240055818    0.7500000000000001    0.4150545520576487 T T T Nb
   0.2919973240055818    0.2500000000000001    0.4150545520576487 T T T Nb
   0.2919973240055818    0.7500000000000002    0.3525545520576487 T T T Nb
   0.7919973240055818    0.2500000000000002    0.3525545520576487 T T T Nb
   0.5000000000000000    0.7500000000000001    0.3575562245541601 T T T Nb
   0.0000000000000000    0.2500000000000001    0.3575562245541601 T T T Nb
   0.0000000000000000    0.7500000000000001    0.4200562245541601 F F F Nb
   0.5000000000000000    0.2500000000000001    0.4200562245541601 F F F Nb
   0.8333333333333334    0.5000000000000001    0.3576388888888888 T T T Ge
   0.3333333333333333    0.0000000000000001    0.3576388888888888 T T T Ge
   0.3333333333333333    0.5000000000000001    0.4201388888888888 F F F Ge
   0.8333333333333334    0.0000000000000001    0.4201388888888888 F F F Ge
   0.6666666666666666    0.5000000000000001    0.3784722222222222 T T T Ge
   0.1666666666666667    0.0000000000000001    0.3784722222222222 T T T Ge
   0.1666666666666667    0.5000000000000001    0.3159722222222222 T T T Ge
   0.6666666666666666    0.0000000000000001    0.3159722222222222 T T T Ge
   0.5000000000000000    0.7500000000000000    0.4305555555555555 F F F Ge
   0.0000000000000000    0.2500000000000000    0.4305555555555555 F F F Ge
   0.0000000000000000    0.7500000000000001    0.3680555555555555 T T T Ge
   0.5000000000000000    0.2500000000000001    0.3680555555555555 T T T Ge
   0.8749812102149691    0.5000000000000000    0.4461782068324266 F F F Mn
   0.3749812102149691    0.0000000000000000    0.4461782068324266 F F F Mn
   0.3749812102149691    0.5000000000000001    0.5086782068324267 F F F Mn
   0.8749812102149691    0.0000000000000001    0.5086782068324267 F F F Mn
   0.6250187897850310    0.5000000000000000    0.4461876017249422 F F F Mn
   0.1250187897850310    0.0000000000000000    0.4461876017249422 F F F Mn
   0.1250187897850310    0.5000000000000001    0.5086876017249422 F F F Mn
   0.6250187897850310    0.0000000000000001    0.5086876017249422 F F F Mn
   0.5000000000000000    0.5000000000000001    0.4930508581092978 F F F Mn
   0.0000000000000000    0.0000000000000001    0.4930508581092978 F F F Mn
   0.0000000000000000    0.5000000000000001    0.5555508581092978 F F F Mn
   0.5000000000000000    0.0000000000000001    0.5555508581092978 F F F Mn
   0.7080026759944182    0.7500000000000001    0.4565558900548578 F F F Nb
   0.2080026759944182    0.2500000000000001    0.4565558900548578 F F F Nb
   0.2080026759944182    0.7500000000000001    0.5190558900548579 F F F Nb
   0.7080026759944182    0.2500000000000001    0.5190558900548579 F F F Nb
   0.7919973240055818    0.7500000000000001    0.5400545520576487 F F F Nb
   0.2919973240055818    0.2500000000000001    0.5400545520576487 F F F Nb
   0.2919973240055818    0.7500000000000002    0.4775545520576487 F F F Nb
   0.7919973240055818    0.2500000000000002    0.4775545520576487 F F F Nb
   0.5000000000000000    0.7500000000000001    0.4825562245541601 F F F Nb
   0.0000000000000000    0.2500000000000001    0.4825562245541601 F F F Nb
   0.0000000000000000    0.7500000000000001    0.5450562245541601 F F F Nb
   0.5000000000000000    0.2500000000000001    0.5450562245541601 F F F Nb
   0.8333333333333334    0.5000000000000001    0.4826388888888888 F F F Ge
   0.3333333333333333    0.0000000000000001    0.4826388888888888 F F F Ge
   0.3333333333333333    0.5000000000000001    0.5451388888888888 F F F Ge
   0.8333333333333334    0.0000000000000001    0.5451388888888888 F F F Ge
   0.6666666666666666    0.5000000000000001    0.5034722222222222 F F F Ge
   0.1666666666666667    0.0000000000000001    0.5034722222222222 F F F Ge
   0.1666666666666667    0.5000000000000001    0.4409722222222222 F F F Ge
   0.6666666666666666    0.0000000000000001    0.4409722222222222 F F F Ge
   0.5000000000000000    0.7500000000000000    0.5555555555555556 F F F Ge
   0.0000000000000000    0.2500000000000000    0.5555555555555556 F F F Ge
   0.0000000000000000    0.7500000000000001    0.4930555555555555 F F F Ge
   0.5000000000000000    0.2500000000000001    0.4930555555555555 F F F Ge
   0.8749812102149691    0.5000000000000000    0.5711782068324267 F F F Mn
   0.3749812102149691    0.0000000000000000    0.5711782068324267 F F F Mn
   0.3749812102149691    0.5000000000000001    0.6336782068324267 T T T Mn
   0.8749812102149691    0.0000000000000001    0.6336782068324267 T T T Mn
   0.6250187897850310    0.5000000000000000    0.5711876017249422 F F F Mn
   0.1250187897850310    0.0000000000000000    0.5711876017249422 F F F Mn
   0.1250187897850310    0.5000000000000001    0.6336876017249422 T T T Mn
   0.6250187897850310    0.0000000000000001    0.6336876017249422 T T T Mn
   0.5000000000000000    0.5000000000000001    0.6180508581092978 T T T Mn
   0.0000000000000000    0.0000000000000001    0.6180508581092978 T T T Mn
   0.0000000000000000    0.5000000000000001    0.6805508581092978 T T T Mn
   0.5000000000000000    0.0000000000000001    0.6805508581092978 T T T Mn
   0.7080026759944182    0.7500000000000001    0.5815558900548579 T T T Nb
   0.2080026759944182    0.2500000000000001    0.5815558900548579 T T T Nb
   0.2080026759944182    0.7500000000000001    0.6440558900548579 T T T Nb
   0.7080026759944182    0.2500000000000001    0.6440558900548579 T T T Nb
   0.7919973240055818    0.7500000000000001    0.6650545520576487 T T T Nb
   0.2919973240055818    0.2500000000000001    0.6650545520576487 T T T Nb
   0.2919973240055818    0.7500000000000002    0.6025545520576487 T T T Nb
   0.7919973240055818    0.2500000000000002    0.6025545520576487 T T T Nb
   0.5000000000000000    0.7500000000000001    0.6075562245541601 T T T Nb
   0.0000000000000000    0.2500000000000001    0.6075562245541601 T T T Nb
   0.0000000000000000    0.7500000000000001    0.6700562245541601 T T T Nb
   0.5000000000000000    0.2500000000000001    0.6700562245541601 T T T Nb
   0.8333333333333334    0.5000000000000001    0.6076388888888888 T T T Ge
   0.3333333333333333    0.0000000000000001    0.6076388888888888 T T T Ge
   0.3333333333333333    0.5000000000000001    0.6701388888888888 T T T Ge
   0.8333333333333334    0.0000000000000001    0.6701388888888888 T T T Ge
   0.6666666666666666    0.5000000000000001    0.6284722222222222 T T T Ge
   0.1666666666666667    0.0000000000000001    0.6284722222222222 T T T Ge
   0.1666666666666667    0.5000000000000001    0.5659722222222222 F F F Ge
   0.6666666666666666    0.0000000000000001    0.5659722222222221 F F F Ge
   0.5000000000000000    0.7500000000000000    0.6805555555555556 T T T Ge
   0.0000000000000000    0.2500000000000000    0.6805555555555556 T T T Ge
   0.0000000000000000    0.7500000000000001    0.6180555555555556 T T T Ge
   0.5000000000000000    0.2500000000000001    0.6180555555555556 T T T Ge
