Mn12 Nb12 Ge12
1.0
   6.5666726915810916    0.0000000000000000    0.0000000000000004
   3.2833363457905471    5.6869053692467615    3.6421062399620063
   0.0000000000000000    0.0000000000000000   32.7789561596580583
Mn Nb Ge Mn Nb Ge Mn Nb Ge Mn Nb Ge
3 3 3 3 3 3 3 3 3 3 3 3
Selective dynamics
direct
   0.7499624204299380    0.0000000000000001    0.3827160493827161 T T T Mn
   0.2500375795700620    0.7499624204299380    0.2993868915571674 T T T Mn
   0.9999999999999999    0.2500375795700619    0.3549340960971537 T T T Mn
   0.4160053519888365    0.0000000000000000    0.3271604938271606 T T T Nb
   0.5839946480111634    0.4160053519888365    0.2809376769395120 T T T Nb
   0.0000000000000000    0.5839946480111635    0.3733833107148090 T T T Nb
   0.6666666666666665    0.6666666666666667    0.3086419753086420 T T T Ge
   0.3333333333333332    0.3333333333333334    0.3456790123456790 T T T Ge
   0.0000000000000000    0.0000000000000000    0.3271604938271606 T T T Ge
   0.7499624204299380    0.0000000000000001    0.4938271604938272 F F F Mn
   0.2500375795700620    0.7499624204299380    0.4104980026682785 F F F Mn
   0.9999999999999999    0.2500375795700619    0.4660452072082648 F F F Mn
   0.4160053519888365    0.0000000000000000    0.4382716049382717 F F F Nb
   0.5839946480111634    0.4160053519888365    0.3920487880506232 F F F Nb
   0.0000000000000000    0.5839946480111635    0.4844944218259202 F F F Nb
   0.6666666666666665    0.6666666666666667    0.4197530864197531 F F F Ge
   0.3333333333333332    0.3333333333333334    0.4567901234567902 F F F Ge
   0.0000000000000000    0.0000000000000000    0.4382716049382717 F F F Ge
   0.7499624204299380    0.0000000000000001    0.6049382716049383 F F F Mn
   0.2500375795700620    0.7499624204299380    0.5216091137793897 F F F Mn
   0.9999999999999999    0.2500375795700619    0.5771563183193759 F F F Mn
   0.4160053519888365    0.0000000000000000    0.5493827160493827 F F F Nb
   0.5839946480111634    0.4160053519888365    0.5031598991617343 F F F Nb
   0.0000000000000000    0.5839946480111635    0.5956055329370312 F F F Nb
   0.6666666666666665    0.6666666666666667    0.5308641975308642 F F F Ge
   0.3333333333333332    0.3333333333333334    0.5679012345679013 F F F Ge
   0.0000000000000000    0.0000000000000000    0.5493827160493827 F F F Ge
   0.7499624204299380    0.0000000000000001    0.7160493827160495 T T T Mn
   0.2500375795700620    0.7499624204299380    0.6327202248905007 T T T Mn
   0.9999999999999999    0.2500375795700619    0.6882674294304869 T T T Mn
   0.4160053519888365    0.0000000000000000    0.6604938271604939 T T T Nb
   0.5839946480111634    0.4160053519888365    0.6142710102728454 T T T Nb
   0.0000000000000000    0.5839946480111635    0.7067166440481424 T T T Nb
   0.6666666666666665    0.6666666666666667    0.6419753086419753 T T T Ge
   0.3333333333333332    0.3333333333333334    0.6790123456790124 T T T Ge
   0.0000000000000000    0.0000000000000000    0.6604938271604939 T T T Ge
