Ca16 Ag8 Pd16
1.0
   4.5286759872680982    0.0000000000000000    0.0000000000000003
  -0.0000000000000033   11.6802466692499873    8.4717601157761244
   0.0000000000000000    0.0000000000000000   42.3588005788806328
Ca Ag Pd Ca Ag Pd
8 4 8 8 4 8
Selective dynamics
direct
   0.0000000000000000    0.2500000000000000    0.3845634504366046 T T T Ca
   0.0000000000000000    0.7500000000000000    0.4845634504366046 F F F Ca
   0.0000000000000000    0.2500000000000000    0.4654365495633954 F F F Ca
   0.0000000000000000    0.7500000000000000    0.3654365495633953 T T T Ca
   0.5000000000000000    0.0000000000000000    0.3345634504366046 T T T Ca
   0.5000000000000000    0.4999999999999999    0.4345634504366046 F F F Ca
   0.5000000000000000    0.0000000000000000    0.4154365495633954 F F F Ca
   0.5000000000000000    0.4999999999999999    0.3154365495633953 T T T Ca
   0.0000000000000000    0.0000000000000000    0.4750000000000000 F F F Ag
   0.0000000000000000    0.4999999999999999    0.3750000000000000 T T T Ag
   0.5000000000000000    0.2500000000000000    0.3250000000000000 T T T Ag
   0.5000000000000000    0.7500000000000000    0.4250000000000000 F F F Ag
   0.4999999999999999    0.3655581846016674    0.4018883630796665 F F F Pd
   0.4999999999999999    0.8655581846016673    0.3018883630796665 T T T Pd
   0.5000000000000000    0.1344418153983326    0.4481116369203335 F F F Pd
   0.4999999999999999    0.6344418153983326    0.3481116369203335 T T T Pd
   0.0000000000000000    0.1155581846016674    0.3518883630796665 T T T Pd
   0.0000000000000000    0.6155581846016673    0.4518883630796665 F F F Pd
   0.0000000000000000    0.3844418153983326    0.4981116369203334 F F F Pd
   0.0000000000000000    0.8844418153983324    0.3981116369203335 F F F Pd
   0.0000000000000000    0.2500000000000000    0.5845634504366046 F F F Ca
   0.0000000000000000    0.7500000000000000    0.6845634504366047 T T T Ca
   0.0000000000000000    0.2500000000000000    0.6654365495633954 T T T Ca
   0.0000000000000000    0.7500000000000000    0.5654365495633953 F F F Ca
   0.5000000000000000    0.0000000000000000    0.5345634504366046 F F F Ca
   0.5000000000000000    0.4999999999999999    0.6345634504366047 T T T Ca
   0.5000000000000000    0.0000000000000000    0.6154365495633953 T T T Ca
   0.5000000000000000    0.4999999999999999    0.5154365495633954 F F F Ca
   0.0000000000000000    0.0000000000000000    0.6750000000000000 T T T Ag
   0.0000000000000000    0.4999999999999999    0.5750000000000000 F F F Ag
   0.5000000000000000    0.2500000000000000    0.5250000000000000 F F F Ag
   0.5000000000000000    0.7500000000000000    0.6250000000000000 T T T Ag
   0.4999999999999999    0.3655581846016674    0.6018883630796665 F F F Pd
   0.4999999999999999    0.8655581846016673    0.5018883630796666 F F F Pd
   0.5000000000000000    0.1344418153983326    0.6481116369203335 T T T Pd
   0.4999999999999999    0.6344418153983326    0.5481116369203335 F F F Pd
   0.0000000000000000    0.1155581846016674    0.5518883630796665 F F F Pd
   0.0000000000000000    0.6155581846016673    0.6518883630796666 T T T Pd
   0.0000000000000000    0.3844418153983326    0.6981116369203335 T T T Pd
   0.0000000000000000    0.8844418153983324    0.5981116369203334 F F F Pd
