Na4 Cd2 Sn2
1.0
   5.0751732323295773    0.0000000000000000    0.0000000000000003
  -2.5375866161647904    4.3952289478041964    0.0000000000000003
   0.0000000000000000    0.0000000000000000   30.4104717540673946
Na Cd Sn
4 2 2
Selective dynamics
direct
   0.3333333333333334    0.6666666666666666    0.6524015414143491 T T T Na
   0.6666666666666669    0.3333333333333333    0.4857348747476825 F F F Na
   0.3333333333333333    0.6666666666666666    0.4309317919189842 T T T Na
   0.6666666666666667    0.3333333333333333    0.5975984585856509 T T T Na
   0.0000000000000000    0.0000000000000000    0.3750000000000000 T T T Cd
   0.0000000000000000    0.0000000000000000    0.5416666666666666 F F F Cd
   0.6666666666666666    0.3333333333333333    0.3750000000000000 T T T Sn
   0.3333333333333335    0.6666666666666666    0.5416666666666666 F F F Sn
