Y48 Ga96 Pd48
1.0
  20.3382553078454826    0.0000000000000000   -4.4433534796919840
   0.0000000000000021   13.2767163836325075   -4.4433534796919867
   0.0000000000000000    0.0000000000000000   31.1034743578439148
Y Ga Pd Y Ga Pd Y Ga Pd
16 32 16 16 32 16 16 32 16
Selective dynamics
direct
   0.7057249954662552    0.8750000000000000    0.3597464279237508 T T T Y
   0.2057249954662552    0.3750000000000001    0.3597464279237508 T T T Y
   0.2057249954662552    0.8750000000000001    0.2883178564951793 T T T Y
   0.7057249954662552    0.3750000000000001    0.2883178564951793 T T T Y
   0.5442750045337448    0.6250000000000001    0.3723964292191064 T T T Y
   0.0442750045337448    0.1250000000000000    0.3723964292191064 T T T Y
   0.0442750045337448    0.6250000000000000    0.3009678577905350 T T T Y
   0.5442750045337448    0.1250000000000001    0.3009678577905350 T T T Y
   0.9557249954662553    0.8750000000000000    0.3240321422094651 T T T Y
   0.4557249954662552    0.3750000000000001    0.3240321422094650 T T T Y
   0.4557249954662552    0.8750000000000001    0.3954607136380365 F F F Y
   0.9557249954662553    0.3750000000000001    0.3954607136380365 F F F Y
   0.7942750045337448    0.6250000000000001    0.3366821435048207 T T T Y
   0.2942750045337448    0.1250000000000000    0.3366821435048207 T T T Y
   0.2942750045337448    0.6250000000000001    0.4081107149333921 F F F Y
   0.7942750045337448    0.1250000000000001    0.4081107149333921 F F F Y
   0.5638036480721594    0.9730562761778395    0.3534799891785713 T T T Ga
   0.0638036480721595    0.4730562761778394    0.3534799891785713 T T T Ga
   0.0638036480721595    0.9730562761778394    0.4249085606071427 F F F Ga
   0.5638036480721594    0.4730562761778394    0.4249085606071427 F F F Ga
   0.6861963519278405    0.5269437238221607    0.3786628679642859 T T T Ga
   0.1861963519278405    0.0269437238221607    0.3786628679642859 T T T Ga
   0.1861963519278405    0.5269437238221607    0.3072342965357144 T T T Ga
   0.6861963519278405    0.0269437238221607    0.3072342965357145 T T T Ga
   0.5638036480721594    0.7769437238221607    0.3254639102706172 T T T Ga
   0.0638036480721595    0.2769437238221606    0.3254639102706172 T T T Ga
   0.0638036480721595    0.7769437238221606    0.3968924816991886 F F F Ga
   0.5638036480721594    0.2769437238221607    0.3968924816991886 F F F Ga
   0.6861963519278405    0.7230562761778395    0.4066789468722400 F F F Ga
   0.1861963519278405    0.2230562761778395    0.4066789468722400 F F F Ga
   0.1861963519278405    0.7230562761778394    0.3352503754436685 T T T Ga
   0.6861963519278405    0.2230562761778395    0.3352503754436685 T T T Ga
   0.8138036480721595    0.9730562761778395    0.3177657034642856 T T T Ga
   0.3138036480721595    0.4730562761778394    0.3177657034642856 T T T Ga
   0.3138036480721595    0.9730562761778395    0.3891942748928570 T T T Ga
   0.8138036480721595    0.4730562761778395    0.3891942748928570 T T T Ga
   0.9361963519278405    0.5269437238221607    0.3429485822500002 T T T Ga
   0.4361963519278404    0.0269437238221607    0.3429485822500002 T T T Ga
   0.4361963519278404    0.5269437238221607    0.4143771536785716 F F F Ga
   0.9361963519278405    0.0269437238221607    0.4143771536785716 F F F Ga
   0.8138036480721595    0.7769437238221607    0.2897496245563315 T T T Ga
   0.3138036480721595    0.2769437238221607    0.2897496245563315 T T T Ga
   0.3138036480721595    0.7769437238221608    0.3611781959849029 T T T Ga
   0.8138036480721595    0.2769437238221608    0.3611781959849029 T T T Ga
   0.9361963519278405    0.7230562761778395    0.3709646611579543 T T T Ga
   0.4361963519278404    0.2230562761778394    0.3709646611579542 T T T Ga
   0.4361963519278404    0.7230562761778394    0.2995360897293828 T T T Ga
   0.9361963519278405    0.2230562761778395    0.2995360897293828 T T T Ga
   0.6004456063576207    0.8750000000000000    0.4161350866225172 F F F Pd
   0.1004456063576207    0.3750000000000001    0.4161350866225172 F F F Pd
   0.1004456063576207    0.8750000000000001    0.3447065151939458 T T T Pd
   0.6004456063576207    0.3750000000000001    0.3447065151939458 T T T Pd
   0.6495543936423793    0.6250000000000001    0.3160077705203400 T T T Pd
   0.1495543936423793    0.1250000000000000    0.3160077705203399 T T T Pd
   0.1495543936423793    0.6250000000000000    0.3874363419489113 T T T Pd
   0.6495543936423793    0.1250000000000001    0.3874363419489114 T T T Pd
   0.8504456063576207    0.8750000000000000    0.3804208009082315 T T T Pd
   0.3504456063576207    0.3750000000000001    0.3804208009082315 T T T Pd
   0.3504456063576207    0.8750000000000001    0.3089922294796601 T T T Pd
   0.8504456063576207    0.3750000000000001    0.3089922294796602 T T T Pd
   0.8995543936423792    0.6250000000000001    0.4231506276631971 F F F Pd
   0.3995543936423793    0.1250000000000001    0.4231506276631971 F F F Pd
   0.3995543936423793    0.6250000000000001    0.3517220562346257 T T T Pd
   0.8995543936423792    0.1250000000000001    0.3517220562346256 T T T Pd
   0.7057249954662552    0.8750000000000000    0.5026035707808936 F F F Y
   0.2057249954662552    0.3750000000000001    0.5026035707808936 F F F Y
   0.2057249954662552    0.8750000000000001    0.4311749993523222 F F F Y
   0.7057249954662552    0.3750000000000001    0.4311749993523222 F F F Y
   0.5442750045337448    0.6250000000000001    0.5152535720762492 F F F Y
   0.0442750045337448    0.1250000000000000    0.5152535720762492 F F F Y
   0.0442750045337448    0.6250000000000000    0.4438250006476778 F F F Y
   0.5442750045337448    0.1250000000000001    0.4438250006476778 F F F Y
   0.9557249954662553    0.8750000000000000    0.4668892850666079 F F F Y
   0.4557249954662552    0.3750000000000001    0.4668892850666079 F F F Y
   0.4557249954662552    0.8750000000000001    0.5383178564951794 F F F Y
   0.9557249954662553    0.3750000000000001    0.5383178564951794 F F F Y
   0.7942750045337448    0.6250000000000001    0.4795392863619636 F F F Y
   0.2942750045337448    0.1250000000000000    0.4795392863619635 F F F Y
   0.2942750045337448    0.6250000000000001    0.5509678577905350 F F F Y
   0.7942750045337448    0.1250000000000001    0.5509678577905350 F F F Y
   0.5638036480721594    0.9730562761778395    0.4963371320357142 F F F Ga
   0.0638036480721595    0.4730562761778394    0.4963371320357141 F F F Ga
   0.0638036480721595    0.9730562761778394    0.5677657034642856 F F F Ga
   0.5638036480721594    0.4730562761778394    0.5677657034642856 F F F Ga
   0.6861963519278405    0.5269437238221607    0.5215200108214287 F F F Ga
   0.1861963519278405    0.0269437238221607    0.5215200108214287 F F F Ga
   0.1861963519278405    0.5269437238221607    0.4500914393928573 F F F Ga
   0.6861963519278405    0.0269437238221607    0.4500914393928573 F F F Ga
   0.5638036480721594    0.7769437238221607    0.4683210531277601 F F F Ga
   0.0638036480721595    0.2769437238221606    0.4683210531277600 F F F Ga
   0.0638036480721595    0.7769437238221606    0.5397496245563315 F F F Ga
   0.5638036480721594    0.2769437238221607    0.5397496245563315 F F F Ga
   0.6861963519278405    0.7230562761778395    0.5495360897293828 F F F Ga
   0.1861963519278405    0.2230562761778395    0.5495360897293828 F F F Ga
   0.1861963519278405    0.7230562761778394    0.4781075183008114 F F F Ga
   0.6861963519278405    0.2230562761778395    0.4781075183008114 F F F Ga
   0.8138036480721595    0.9730562761778395    0.4606228463214284 F F F Ga
   0.3138036480721595    0.4730562761778394    0.4606228463214284 F F F Ga
   0.3138036480721595    0.9730562761778395    0.5320514177499999 F F F Ga
   0.8138036480721595    0.4730562761778395    0.5320514177499999 F F F Ga
   0.9361963519278405    0.5269437238221607    0.4858057251071430 F F F Ga
   0.4361963519278404    0.0269437238221607    0.4858057251071430 F F F Ga
   0.4361963519278404    0.5269437238221607    0.5572342965357144 F F F Ga
   0.9361963519278405    0.0269437238221607    0.5572342965357144 F F F Ga
   0.8138036480721595    0.7769437238221607    0.4326067674134744 F F F Ga
   0.3138036480721595    0.2769437238221607    0.4326067674134744 F F F Ga
   0.3138036480721595    0.7769437238221608    0.5040353388420458 F F F Ga
   0.8138036480721595    0.2769437238221608    0.5040353388420458 F F F Ga
   0.9361963519278405    0.7230562761778395    0.5138218040150971 F F F Ga
   0.4361963519278404    0.2230562761778394    0.5138218040150971 F F F Ga
   0.4361963519278404    0.7230562761778394    0.4423932325865257 F F F Ga
   0.9361963519278405    0.2230562761778395    0.4423932325865257 F F F Ga
   0.6004456063576207    0.8750000000000000    0.5589922294796601 F F F Pd
   0.1004456063576207    0.3750000000000001    0.5589922294796601 F F F Pd
   0.1004456063576207    0.8750000000000001    0.4875636580510886 F F F Pd
   0.6004456063576207    0.3750000000000001    0.4875636580510886 F F F Pd
   0.6495543936423793    0.6250000000000001    0.4588649133774828 F F F Pd
   0.1495543936423793    0.1250000000000000    0.4588649133774828 F F F Pd
   0.1495543936423793    0.6250000000000000    0.5302934848060542 F F F Pd
   0.6495543936423793    0.1250000000000001    0.5302934848060542 F F F Pd
   0.8504456063576207    0.8750000000000000    0.5232779437653744 F F F Pd
   0.3504456063576207    0.3750000000000001    0.5232779437653744 F F F Pd
   0.3504456063576207    0.8750000000000001    0.4518493723368029 F F F Pd
   0.8504456063576207    0.3750000000000001    0.4518493723368030 F F F Pd
   0.8995543936423792    0.6250000000000001    0.5660077705203399 F F F Pd
   0.3995543936423793    0.1250000000000001    0.5660077705203399 F F F Pd
   0.3995543936423793    0.6250000000000001    0.4945791990917685 F F F Pd
   0.8995543936423792    0.1250000000000001    0.4945791990917685 F F F Pd
   0.7057249954662552    0.8750000000000000    0.6454607136380365 T T T Y
   0.2057249954662552    0.3750000000000001    0.6454607136380365 T T T Y
   0.2057249954662552    0.8750000000000001    0.5740321422094650 F F F Y
   0.7057249954662552    0.3750000000000001    0.5740321422094650 F F F Y
   0.5442750045337448    0.6250000000000001    0.6581107149333921 T T T Y
   0.0442750045337448    0.1250000000000000    0.6581107149333921 T T T Y
   0.0442750045337448    0.6250000000000000    0.5866821435048206 F F F Y
   0.5442750045337448    0.1250000000000001    0.5866821435048206 F F F Y
   0.9557249954662553    0.8750000000000000    0.6097464279237508 T T T Y
   0.4557249954662552    0.3750000000000001    0.6097464279237508 T T T Y
   0.4557249954662552    0.8750000000000001    0.6811749993523222 T T T Y
   0.9557249954662553    0.3750000000000001    0.6811749993523222 T T T Y
   0.7942750045337448    0.6250000000000001    0.6223964292191064 T T T Y
   0.2942750045337448    0.1250000000000000    0.6223964292191064 T T T Y
   0.2942750045337448    0.6250000000000001    0.6938250006476778 T T T Y
   0.7942750045337448    0.1250000000000001    0.6938250006476778 T T T Y
   0.5638036480721594    0.9730562761778395    0.6391942748928570 T T T Ga
   0.0638036480721595    0.4730562761778394    0.6391942748928570 T T T Ga
   0.0638036480721595    0.9730562761778394    0.7106228463214284 T T T Ga
   0.5638036480721594    0.4730562761778394    0.7106228463214284 T T T Ga
   0.6861963519278405    0.5269437238221607    0.6643771536785716 T T T Ga
   0.1861963519278405    0.0269437238221607    0.6643771536785716 T T T Ga
   0.1861963519278405    0.5269437238221607    0.5929485822500001 F F F Ga
   0.6861963519278405    0.0269437238221607    0.5929485822500002 F F F Ga
   0.5638036480721594    0.7769437238221607    0.6111781959849029 T T T Ga
   0.0638036480721595    0.2769437238221606    0.6111781959849029 T T T Ga
   0.0638036480721595    0.7769437238221606    0.6826067674134743 T T T Ga
   0.5638036480721594    0.2769437238221607    0.6826067674134744 T T T Ga
   0.6861963519278405    0.7230562761778395    0.6923932325865257 T T T Ga
   0.1861963519278405    0.2230562761778395    0.6923932325865256 T T T Ga
   0.1861963519278405    0.7230562761778394    0.6209646611579542 T T T Ga
   0.6861963519278405    0.2230562761778395    0.6209646611579542 T T T Ga
   0.8138036480721595    0.9730562761778395    0.6034799891785713 F F F Ga
   0.3138036480721595    0.4730562761778394    0.6034799891785713 F F F Ga
   0.3138036480721595    0.9730562761778395    0.6749085606071427 T T T Ga
   0.8138036480721595    0.4730562761778395    0.6749085606071427 T T T Ga
   0.9361963519278405    0.5269437238221607    0.6286628679642858 T T T Ga
   0.4361963519278404    0.0269437238221607    0.6286628679642858 T T T Ga
   0.4361963519278404    0.5269437238221607    0.7000914393928572 T T T Ga
   0.9361963519278405    0.0269437238221607    0.7000914393928572 T T T Ga
   0.8138036480721595    0.7769437238221607    0.5754639102706172 F F F Ga
   0.3138036480721595    0.2769437238221607    0.5754639102706172 F F F Ga
   0.3138036480721595    0.7769437238221608    0.6468924816991886 T T T Ga
   0.8138036480721595    0.2769437238221608    0.6468924816991886 T T T Ga
   0.9361963519278405    0.7230562761778395    0.6566789468722400 T T T Ga
   0.4361963519278404    0.2230562761778394    0.6566789468722399 T T T Ga
   0.4361963519278404    0.7230562761778394    0.5852503754436685 F F F Ga
   0.9361963519278405    0.2230562761778395    0.5852503754436685 F F F Ga
   0.6004456063576207    0.8750000000000000    0.7018493723368029 T T T Pd
   0.1004456063576207    0.3750000000000001    0.7018493723368029 T T T Pd
   0.1004456063576207    0.8750000000000001    0.6304208009082315 T T T Pd
   0.6004456063576207    0.3750000000000001    0.6304208009082315 T T T Pd
   0.6495543936423793    0.6250000000000001    0.6017220562346257 F F F Pd
   0.1495543936423793    0.1250000000000000    0.6017220562346256 F F F Pd
   0.1495543936423793    0.6250000000000000    0.6731506276631970 T T T Pd
   0.6495543936423793    0.1250000000000001    0.6731506276631971 T T T Pd
   0.8504456063576207    0.8750000000000000    0.6661350866225173 T T T Pd
   0.3504456063576207    0.3750000000000001    0.6661350866225172 T T T Pd
   0.3504456063576207    0.8750000000000001    0.5947065151939458 F F F Pd
   0.8504456063576207    0.3750000000000001    0.5947065151939459 F F F Pd
   0.8995543936423792    0.6250000000000001    0.7088649133774828 T T T Pd
   0.3995543936423793    0.1250000000000001    0.7088649133774827 T T T Pd
   0.3995543936423793    0.6250000000000001    0.6374363419489113 T T T Pd
   0.8995543936423792    0.1250000000000001    0.6374363419489113 T T T Pd
