Ba12 Cd12 Pb12
1.0
  12.4375674794748114    0.0000000000000000   -5.3667637497887748
   6.4614553630563654    6.2477722410517718    0.0000000000000006
   0.0000000000000000    0.0000000000000000   37.5673462485214031
Ba Cd Pb Ba Cd Pb Ba Cd Pb
4 4 4 4 4 4 4 4 4
Selective dynamics
direct
   0.2490833327380494    0.7943128173512726    0.3451071427721022 T T T Ba
   0.7509166672619506    0.2056871826487274    0.4167976191326596 F F F Ba
   0.7490833327380493    0.7943128173512726    0.3451071427721022 T T T Ba
   0.2509166672619507    0.2056871826487274    0.4167976191326596 F F F Ba
   0.5570515480669267    0.5985465154270990    0.3176740306762276 T T T Cd
   0.4429484519330734    0.4014534845729010    0.3013735883713914 T T T Cd
   0.0570515480669266    0.5985465154270990    0.3176740306762276 T T T Cd
   0.9429484519330735    0.4014534845729010    0.3013735883713914 T T T Cd
   0.5653859918515175    0.7690556549963397    0.3902932369311691 T T T Pb
   0.4346140081484825    0.2309443450036603    0.3716115249735927 T T T Pb
   0.0653859918515175    0.7690556549963397    0.3902932369311691 T T T Pb
   0.9346140081484825    0.2309443450036603    0.3716115249735927 T T T Pb
   0.2490833327380494    0.7943128173512726    0.4879642856292451 F F F Ba
   0.7509166672619506    0.2056871826487274    0.5596547619898025 F F F Ba
   0.7490833327380493    0.7943128173512726    0.4879642856292451 F F F Ba
   0.2509166672619507    0.2056871826487274    0.5596547619898025 F F F Ba
   0.5570515480669267    0.5985465154270990    0.4605311735333705 F F F Cd
   0.4429484519330734    0.4014534845729010    0.4442307312285342 F F F Cd
   0.0570515480669266    0.5985465154270990    0.4605311735333704 F F F Cd
   0.9429484519330735    0.4014534845729010    0.4442307312285343 F F F Cd
   0.5653859918515175    0.7690556549963397    0.5331503797883119 F F F Pb
   0.4346140081484825    0.2309443450036603    0.5144686678307355 F F F Pb
   0.0653859918515175    0.7690556549963397    0.5331503797883119 F F F Pb
   0.9346140081484825    0.2309443450036603    0.5144686678307355 F F F Pb
   0.2490833327380494    0.7943128173512726    0.6308214284863880 T T T Ba
   0.7509166672619506    0.2056871826487274    0.7025119048469453 T T T Ba
   0.7490833327380493    0.7943128173512726    0.6308214284863880 T T T Ba
   0.2509166672619507    0.2056871826487274    0.7025119048469453 T T T Ba
   0.5570515480669267    0.5985465154270990    0.6033883163905133 F F F Cd
   0.4429484519330734    0.4014534845729010    0.5870878740856771 F F F Cd
   0.0570515480669266    0.5985465154270990    0.6033883163905133 F F F Cd
   0.9429484519330735    0.4014534845729010    0.5870878740856771 F F F Cd
   0.5653859918515175    0.7690556549963397    0.6760075226454548 T T T Pb
   0.4346140081484825    0.2309443450036603    0.6573258106878784 T T T Pb
   0.0653859918515175    0.7690556549963397    0.6760075226454548 T T T Pb
   0.9346140081484825    0.2309443450036603    0.6573258106878784 T T T Pb
