Sr6 Zn15 Si9
1.0
   4.2785563828473716    0.0000000000000000    0.0000000000000003
  -0.0000000000000007   10.7174880638464902   -8.5571127656947432
   0.0000000000000000    0.0000000000000000   34.2284510627789729
Sr Zn Si Sr Zn Si Sr Zn Si
2 5 3 2 5 3 2 5 3
Selective dynamics
direct
   0.0000000000000000    0.9956192595451726    0.3301547401362930 T T T Sr
   0.5000000000000000    0.5036615893128555    0.3946653225782137 T T T Sr
   0.5000000000000000    0.2535888589952364    0.3946471399988090 T T T Zn
   0.0000000000000000    0.7477412776957949    0.3306852446739486 T T T Zn
   0.0000000000000000    0.2535888589952364    0.3321471399988090 T T T Zn
   0.5000000000000000    0.7477412776957949    0.3931852446739486 T T T Zn
   0.5000000000000000    0.1150233341290985    0.4225057587822745 T T T Zn
   0.0000000000000000    0.6140563569465201    0.3597640144866299 T T T Si
   0.0000000000000000    0.3881308912447068    0.4282826480611766 T T T Si
   0.5000000000000000    0.8808512854395900    0.3639627466098974 T T T Si
   0.0000000000000000    0.9956192595451726    0.4551547401362930 F F F Sr
   0.5000000000000000    0.5036615893128555    0.5196653225782137 F F F Sr
   0.5000000000000000    0.2535888589952364    0.5196471399988090 F F F Zn
   0.0000000000000000    0.7477412776957949    0.4556852446739486 F F F Zn
   0.0000000000000000    0.2535888589952364    0.4571471399988090 F F F Zn
   0.5000000000000000    0.7477412776957949    0.5181852446739486 F F F Zn
   0.5000000000000000    0.1150233341290985    0.5475057587822745 F F F Zn
   0.0000000000000000    0.6140563569465201    0.4847640144866299 F F F Si
   0.0000000000000000    0.3881308912447068    0.5532826480611766 F F F Si
   0.5000000000000000    0.8808512854395900    0.4889627466098974 F F F Si
   0.0000000000000000    0.9956192595451726    0.5801547401362930 T T T Sr
   0.5000000000000000    0.5036615893128555    0.6446653225782137 T T T Sr
   0.5000000000000000    0.2535888589952364    0.6446471399988090 T T T Zn
   0.0000000000000000    0.7477412776957949    0.5806852446739486 T T T Zn
   0.0000000000000000    0.2535888589952364    0.5821471399988090 T T T Zn
   0.5000000000000000    0.7477412776957949    0.6431852446739486 T T T Zn
   0.5000000000000000    0.1150233341290985    0.6725057587822745 T T T Zn
   0.0000000000000000    0.6140563569465201    0.6097640144866299 T T T Si
   0.0000000000000000    0.3881308912447068    0.6782826480611766 T T T Si
   0.5000000000000000    0.8808512854395900    0.6139627466098974 T T T Si
