Sr8 Zn20 Si12
1.0
   4.2785563828473716    0.0000000000000000   -4.2785563828473707
  -0.0000000000000007   10.7174880638464902   -8.5571127656947432
   0.0000000000000000    0.0000000000000000   42.7855638284737125
Sr Zn Si Sr Zn Si Sr Zn Si Sr Zn Si
2 5 3 2 5 3 2 5 3 2 5 3
Selective dynamics
direct
   0.0000000000000000    0.9956192595451726    0.3291237921090344 T T T Sr
   0.5000000000000000    0.5036615893128557    0.3307322580625709 T T T Sr
   0.5000000000000000    0.2535888589952365    0.3307177119990471 T T T Zn
   0.0000000000000000    0.7477412776957949    0.3295481957391588 T T T Zn
   0.0000000000000000    0.2535888589952364    0.3307177119990471 T T T Zn
   0.5000000000000000    0.7477412776957949    0.3295481957391588 T T T Zn
   0.5000000000000000    0.1150233341290986    0.3530046070258195 T T T Zn
   0.0000000000000000    0.6140563569465201    0.3528112115893038 T T T Si
   0.0000000000000000    0.3881308912447068    0.4076261184489412 T T T Si
   0.5000000000000000    0.8808512854395900    0.4061701972879178 T T T Si
   0.0000000000000000    0.9956192595451726    0.4291237921090344 T T T Sr
   0.5000000000000000    0.5036615893128557    0.4307322580625710 T T T Sr
   0.5000000000000000    0.2535888589952365    0.4307177119990471 T T T Zn
   0.0000000000000000    0.7477412776957949    0.4295481957391588 T T T Zn
   0.0000000000000000    0.2535888589952364    0.4307177119990471 T T T Zn
   0.5000000000000000    0.7477412776957949    0.4295481957391588 T T T Zn
   0.5000000000000000    0.1150233341290986    0.4530046070258196 F F F Zn
   0.0000000000000000    0.6140563569465201    0.4528112115893039 F F F Si
   0.0000000000000000    0.3881308912447068    0.5076261184489412 F F F Si
   0.5000000000000000    0.8808512854395900    0.5061701972879178 F F F Si
   0.0000000000000000    0.9956192595451726    0.5291237921090344 F F F Sr
   0.5000000000000000    0.5036615893128557    0.5307322580625710 F F F Sr
   0.5000000000000000    0.2535888589952365    0.5307177119990472 F F F Zn
   0.0000000000000000    0.7477412776957949    0.5295481957391588 F F F Zn
   0.0000000000000000    0.2535888589952364    0.5307177119990472 F F F Zn
   0.5000000000000000    0.7477412776957949    0.5295481957391588 F F F Zn
   0.5000000000000000    0.1150233341290986    0.5530046070258196 F F F Zn
   0.0000000000000000    0.6140563569465201    0.5528112115893038 F F F Si
   0.0000000000000000    0.3881308912447068    0.6076261184489412 T T T Si
   0.5000000000000000    0.8808512854395900    0.6061701972879179 T T T Si
   0.0000000000000000    0.9956192595451726    0.6291237921090344 T T T Sr
   0.5000000000000000    0.5036615893128557    0.6307322580625709 T T T Sr
   0.5000000000000000    0.2535888589952365    0.6307177119990471 T T T Zn
   0.0000000000000000    0.7477412776957949    0.6295481957391589 T T T Zn
   0.0000000000000000    0.2535888589952364    0.6307177119990471 T T T Zn
   0.5000000000000000    0.7477412776957949    0.6295481957391589 T T T Zn
   0.5000000000000000    0.1150233341290986    0.6530046070258195 T T T Zn
   0.0000000000000000    0.6140563569465201    0.6528112115893039 T T T Si
   0.0000000000000000    0.3881308912447068    0.7076261184489412 T T T Si
   0.5000000000000000    0.8808512854395900    0.7061701972879179 T T T Si
