Sr8 Zn20 Si12
1.0
  10.7174880638464902    0.0000000000000000    0.0000000000000007
   0.0000000000000007    4.2785563828473716   -4.2785563828473707
   0.0000000000000000    0.0000000000000000   38.5070074456263427
Sr Zn Si Sr Zn Si Sr Zn Si Sr Zn Si
2 5 3 2 5 3 2 5 3 2 5 3
Selective dynamics
direct
   0.0043807404548274    0.0000000000000000    0.3555555555555556 T T T Sr
   0.4963384106871445    0.5000000000000000    0.3555555555555556 T T T Sr
   0.7464111410047636    0.5000000000000000    0.3000000000000000 T T T Zn
   0.2522587223042051    0.0000000000000000    0.3000000000000000 T T T Zn
   0.7464111410047636    0.0000000000000000    0.3000000000000000 T T T Zn
   0.2522587223042051    0.5000000000000000    0.3000000000000000 T T T Zn
   0.8849766658709015    0.5000000000000000    0.3555555555555556 T T T Zn
   0.3859436430534799    0.0000000000000000    0.3555555555555556 T T T Si
   0.6118691087552932    0.0000000000000000    0.3555555555555556 T T T Si
   0.1191487145604100    0.5000000000000000    0.3555555555555556 T T T Si
   0.0043807404548274    0.0000000000000000    0.4666666666666667 F F F Sr
   0.4963384106871445    0.5000000000000000    0.4666666666666667 F F F Sr
   0.7464111410047636    0.5000000000000000    0.4111111111111111 F F F Zn
   0.2522587223042051    0.0000000000000000    0.4111111111111111 F F F Zn
   0.7464111410047636    0.0000000000000000    0.4111111111111111 F F F Zn
   0.2522587223042051    0.5000000000000000    0.4111111111111111 F F F Zn
   0.8849766658709015    0.5000000000000000    0.4666666666666667 F F F Zn
   0.3859436430534799    0.0000000000000000    0.4666666666666667 F F F Si
   0.6118691087552932    0.0000000000000000    0.4666666666666667 F F F Si
   0.1191487145604100    0.5000000000000000    0.4666666666666667 F F F Si
   0.0043807404548274    0.0000000000000000    0.5777777777777777 F F F Sr
   0.4963384106871445    0.5000000000000000    0.5777777777777777 F F F Sr
   0.7464111410047636    0.5000000000000000    0.5222222222222223 F F F Zn
   0.2522587223042051    0.0000000000000000    0.5222222222222223 F F F Zn
   0.7464111410047636    0.0000000000000000    0.5222222222222223 F F F Zn
   0.2522587223042051    0.5000000000000000    0.5222222222222223 F F F Zn
   0.8849766658709015    0.5000000000000000    0.5777777777777777 F F F Zn
   0.3859436430534799    0.0000000000000000    0.5777777777777777 F F F Si
   0.6118691087552932    0.0000000000000000    0.5777777777777777 F F F Si
   0.1191487145604100    0.5000000000000000    0.5777777777777777 F F F Si
   0.0043807404548274    0.0000000000000000    0.6888888888888889 T T T Sr
   0.4963384106871445    0.5000000000000000    0.6888888888888889 T T T Sr
   0.7464111410047636    0.5000000000000000    0.6333333333333333 T T T Zn
   0.2522587223042051    0.0000000000000000    0.6333333333333333 T T T Zn
   0.7464111410047636    0.0000000000000000    0.6333333333333333 T T T Zn
   0.2522587223042051    0.5000000000000000    0.6333333333333333 T T T Zn
   0.8849766658709015    0.5000000000000000    0.6888888888888889 T T T Zn
   0.3859436430534799    0.0000000000000000    0.6888888888888889 T T T Si
   0.6118691087552932    0.0000000000000000    0.6888888888888889 T T T Si
   0.1191487145604100    0.5000000000000000    0.6888888888888889 T T T Si
