Sr8 Zn20 Si12
1.0
   4.2785563828473716    0.0000000000000000   -4.2785563828473707
  -0.0000000000000007   10.7174880638464902   -4.2785563828473734
   0.0000000000000000    0.0000000000000000   42.7855638284737125
Sr Zn Si Sr Zn Si Sr Zn Si Sr Zn Si
2 5 3 2 5 3 2 5 3 2 5 3
Selective dynamics
direct
   0.0000000000000000    0.9956192595451726    0.3345618960545172 T T T Sr
   0.5000000000000000    0.5036615893128557    0.3853661290312855 T T T Sr
   0.5000000000000000    0.2535888589952365    0.3103588559995236 T T T Zn
   0.0000000000000000    0.7477412776957949    0.3597740978695794 T T T Zn
   0.0000000000000000    0.2535888589952365    0.3103588559995236 T T T Zn
   0.5000000000000000    0.7477412776957949    0.3597740978695794 T T T Zn
   0.5000000000000000    0.1150233341290986    0.3465023035129098 T T T Zn
   0.0000000000000000    0.6140563569465201    0.3964056057946519 T T T Si
   0.0000000000000000    0.3881308912447068    0.3738130592244706 T T T Si
   0.5000000000000000    0.8808512854395900    0.3230850986439590 T T T Si
   0.0000000000000000    0.9956192595451726    0.4345618960545172 F F F Sr
   0.5000000000000000    0.5036615893128557    0.4853661290312855 F F F Sr
   0.5000000000000000    0.2535888589952365    0.4103588559995236 T T T Zn
   0.0000000000000000    0.7477412776957949    0.4597740978695795 F F F Zn
   0.0000000000000000    0.2535888589952365    0.4103588559995236 T T T Zn
   0.5000000000000000    0.7477412776957949    0.4597740978695795 F F F Zn
   0.5000000000000000    0.1150233341290986    0.4465023035129098 F F F Zn
   0.0000000000000000    0.6140563569465201    0.4964056057946520 F F F Si
   0.0000000000000000    0.3881308912447068    0.4738130592244706 F F F Si
   0.5000000000000000    0.8808512854395900    0.4230850986439589 F F F Si
   0.0000000000000000    0.9956192595451726    0.5345618960545172 F F F Sr
   0.5000000000000000    0.5036615893128557    0.5853661290312855 F F F Sr
   0.5000000000000000    0.2535888589952365    0.5103588559995236 F F F Zn
   0.0000000000000000    0.7477412776957949    0.5597740978695794 F F F Zn
   0.0000000000000000    0.2535888589952365    0.5103588559995236 F F F Zn
   0.5000000000000000    0.7477412776957949    0.5597740978695794 F F F Zn
   0.5000000000000000    0.1150233341290986    0.5465023035129097 F F F Zn
   0.0000000000000000    0.6140563569465201    0.5964056057946520 T T T Si
   0.0000000000000000    0.3881308912447068    0.5738130592244706 F F F Si
   0.5000000000000000    0.8808512854395900    0.5230850986439590 F F F Si
   0.0000000000000000    0.9956192595451726    0.6345618960545172 T T T Sr
   0.5000000000000000    0.5036615893128557    0.6853661290312856 T T T Sr
   0.5000000000000000    0.2535888589952365    0.6103588559995236 T T T Zn
   0.0000000000000000    0.7477412776957949    0.6597740978695794 T T T Zn
   0.0000000000000000    0.2535888589952365    0.6103588559995236 T T T Zn
   0.5000000000000000    0.7477412776957949    0.6597740978695794 T T T Zn
   0.5000000000000000    0.1150233341290986    0.6465023035129098 T T T Zn
   0.0000000000000000    0.6140563569465201    0.6964056057946519 T T T Si
   0.0000000000000000    0.3881308912447068    0.6738130592244707 T T T Si
   0.5000000000000000    0.8808512854395900    0.6230850986439589 T T T Si
