Al32 Ge16 W24
1.0
   9.7183135702584309    0.0000000000000000    8.4230498202898350
   4.8860524677401527    6.7355200706057126    0.0000000000000005
   0.0000000000000000    0.0000000000000000   42.1152491014491801
Al Ge W Al Ge W
16 8 12 16 8 12
Selective dynamics
direct
   0.0000000000000000    0.4999999999999999    0.3943526338558510 T T T Al
   0.5000000000000000    0.4999999999999999    0.4943526338558510 F F F Al
   0.2972114749540999    0.1694367233915983    0.3220204541523206 T T T Al
   0.7972114749540999    0.1694367233915983    0.4220204541523206 F F F Al
   0.7027885250459001    0.8305632766084017    0.4409050441339606 F F F Al
   0.2027885250459001    0.8305632766084017    0.3409050441339606 T T T Al
   0.2500000000000001    0.4999999999999999    0.3777290629769180 T T T Al
   0.7500000000000000    0.4999999999999999    0.4777290629769180 F F F Al
   0.2499999999999999    0.4999999999999999    0.4443526338558510 F F F Al
   0.7500000000000000    0.4999999999999999    0.3443526338558510 T T T Al
   0.0472114749540999    0.1694367233915983    0.4720204541523206 F F F Al
   0.5472114749540999    0.1694367233915983    0.3720204541523206 T T T Al
   0.9527885250459002    0.8305632766084017    0.4909050441339605 F F F Al
   0.4527885250459001    0.8305632766084017    0.3909050441339605 T T T Al
   0.0000000000000000    0.4999999999999999    0.3277290629769180 T T T Al
   0.5000000000000000    0.4999999999999999    0.4277290629769180 F F F Al
   0.3004755738465796    0.1703121883087775    0.3888911647982941 T T T Ge
   0.8004755738465796    0.1703121883087775    0.4888911647982940 F F F Ge
   0.6995244261534205    0.8296878116912224    0.3090813943369258 T T T Ge
   0.1995244261534205    0.8296878116912224    0.4090813943369259 F F F Ge
   0.0504755738465797    0.1703121883087775    0.3388911647982941 T T T Ge
   0.5504755738465796    0.1703121883087775    0.4388911647982941 F F F Ge
   0.9495244261534205    0.8296878116912224    0.3590813943369259 T T T Ge
   0.4495244261534205    0.8296878116912224    0.4590813943369259 F F F Ge
   0.0569764636790514    0.1594779679905897    0.4040621306171339 T T T W
   0.5569764636790513    0.1594779679905897    0.3040621306171339 T T T W
   0.9430235363209487    0.8405220320094101    0.4268527160887545 F F F W
   0.4430235363209487    0.8405220320094101    0.3268527160887544 T T T W
   0.0000000000000001    0.4999999999999999    0.4611053990398414 F F F W
   0.5000000000000000    0.4999999999999999    0.3611053990398414 T T T W
   0.3069764636790513    0.1594779679905897    0.4540621306171339 F F F W
   0.8069764636790513    0.1594779679905897    0.3540621306171339 T T T W
   0.6930235363209487    0.8405220320094101    0.3768527160887545 T T T W
   0.1930235363209487    0.8405220320094101    0.4768527160887545 F F F W
   0.2500000000000001    0.4999999999999999    0.3111053990398415 T T T W
   0.7500000000000000    0.4999999999999999    0.4111053990398414 F F F W
   0.0000000000000000    0.4999999999999999    0.5943526338558509 T T T Al
   0.5000000000000000    0.4999999999999999    0.6943526338558510 T T T Al
   0.2972114749540999    0.1694367233915983    0.5220204541523206 F F F Al
   0.7972114749540999    0.1694367233915983    0.6220204541523207 T T T Al
   0.7027885250459001    0.8305632766084017    0.6409050441339605 T T T Al
   0.2027885250459001    0.8305632766084017    0.5409050441339606 F F F Al
   0.2500000000000001    0.4999999999999999    0.5777290629769181 F F F Al
   0.7500000000000000    0.4999999999999999    0.6777290629769180 T T T Al
   0.2499999999999999    0.4999999999999999    0.6443526338558510 T T T Al
   0.7500000000000000    0.4999999999999999    0.5443526338558510 F F F Al
   0.0472114749540999    0.1694367233915983    0.6720204541523206 T T T Al
   0.5472114749540999    0.1694367233915983    0.5720204541523206 F F F Al
   0.9527885250459002    0.8305632766084017    0.6909050441339606 T T T Al
   0.4527885250459001    0.8305632766084017    0.5909050441339606 T T T Al
   0.0000000000000000    0.4999999999999999    0.5277290629769180 F F F Al
   0.5000000000000000    0.4999999999999999    0.6277290629769180 T T T Al
   0.3004755738465796    0.1703121883087775    0.5888911647982941 F F F Ge
   0.8004755738465796    0.1703121883087775    0.6888911647982940 T T T Ge
   0.6995244261534205    0.8296878116912224    0.5090813943369259 F F F Ge
   0.1995244261534205    0.8296878116912224    0.6090813943369259 T T T Ge
   0.0504755738465797    0.1703121883087775    0.5388911647982941 F F F Ge
   0.5504755738465796    0.1703121883087775    0.6388911647982941 T T T Ge
   0.9495244261534205    0.8296878116912224    0.5590813943369259 F F F Ge
   0.4495244261534205    0.8296878116912224    0.6590813943369259 T T T Ge
   0.0569764636790514    0.1594779679905897    0.6040621306171339 T T T W
   0.5569764636790513    0.1594779679905897    0.5040621306171339 F F F W
   0.9430235363209487    0.8405220320094101    0.6268527160887545 T T T W
   0.4430235363209487    0.8405220320094101    0.5268527160887544 F F F W
   0.0000000000000001    0.4999999999999999    0.6611053990398414 T T T W
   0.5000000000000000    0.4999999999999999    0.5611053990398414 F F F W
   0.3069764636790513    0.1594779679905897    0.6540621306171339 T T T W
   0.8069764636790513    0.1594779679905897    0.5540621306171339 F F F W
   0.6930235363209487    0.8405220320094101    0.5768527160887544 F F F W
   0.1930235363209487    0.8405220320094101    0.6768527160887544 T T T W
   0.2500000000000001    0.4999999999999999    0.5111053990398414 F F F W
   0.7500000000000000    0.4999999999999999    0.6111053990398414 T T T W
