Al48 Ge24 W36
1.0
   6.7355200706057117    0.0000000000000000   -0.0268956826109404
  -0.0000000000000010   16.8460996405796735   -4.8591567851292110
   0.0000000000000000    0.0000000000000000   34.0140974959045010
Al Ge W Al Ge W Al Ge W
16 8 12 16 8 12 16 8 12
Selective dynamics
direct
   0.5000000000000000    0.1738191375825942    0.3720565990197358 T T T Al
   0.5000000000000000    0.6738191375825942    0.3006280275911644 T T T Al
   0.8305632766084017    0.2060438493643702    0.4143543683171035 F F F Al
   0.8305632766084017    0.7060438493643701    0.3429257968885321 T T T Al
   0.1694367233915983    0.2060438493643702    0.3389658902314469 T T T Al
   0.1694367233915983    0.7060438493643701    0.4103944616600184 F F F Al
   0.5000000000000000    0.0903780647799266    0.2887078743336404 T T T Al
   0.5000000000000000    0.5903780647799266    0.3601364457622118 T T T Al
   0.5000000000000000    0.4238191375825942    0.3363423133054501 T T T Al
   0.5000000000000000    0.9238191375825942    0.4077708847340215 F F F Al
   0.8305632766084017    0.4560438493643701    0.3786400826028178 T T T Al
   0.8305632766084017    0.9560438493643701    0.3072115111742464 T T T Al
   0.1694367233915983    0.4560438493643701    0.3032516045171612 T T T Al
   0.1694367233915983    0.9560438493643701    0.3746801759457327 T T T Al
   0.5000000000000000    0.3403780647799266    0.3958507314764976 F F F Al
   0.5000000000000000    0.8403780647799266    0.3244221600479261 T T T Al
   0.8296878116912225    0.0372350233031966    0.3912964878372414 F F F Ge
   0.8296878116912225    0.5372350233031966    0.3198679164086700 T T T Ge
   0.1703121883087776    0.0372350233031966    0.3137926775509737 T T T Ge
   0.1703121883087776    0.5372350233031966    0.3852212489795452 F F F Ge
   0.8296878116912225    0.2872350233031966    0.3555822021229557 T T T Ge
   0.8296878116912225    0.7872350233031966    0.4270107735515271 F F F Ge
   0.1703121883087776    0.2872350233031966    0.4209355346938309 F F F Ge
   0.1703121883087776    0.7872350233031966    0.3495069632652595 T T T Ge
   0.8405220320094102    0.1210571638398612    0.3321521592491585 T T T W
   0.8405220320094102    0.6210571638398612    0.4035807306777300 F F F W
   0.1594779679905899    0.1210571638398612    0.3968861891495322 F F F W
   0.1594779679905899    0.6210571638398612    0.3254576177209607 T T T W
   0.5000000000000000    0.0069372246226181    0.3482163257397392 T T T W
   0.5000000000000000    0.5069372246226180    0.4196448971683107 F F F W
   0.8405220320094102    0.3710571638398612    0.2964378735348728 T T T W
   0.8405220320094102    0.8710571638398612    0.3678664449634443 T T T W
   0.1594779679905899    0.3710571638398612    0.3611719034352465 T T T W
   0.1594779679905899    0.8710571638398612    0.2897433320066750 T T T W
   0.5000000000000000    0.2569372246226180    0.3125020400254535 T T T W
   0.5000000000000000    0.7569372246226180    0.3839306114540249 F F F W
   0.5000000000000000    0.1738191375825942    0.5149137418768787 F F F Al
   0.5000000000000000    0.6738191375825942    0.4434851704483072 F F F Al
   0.8305632766084017    0.2060438493643702    0.5572115111742464 F F F Al
   0.8305632766084017    0.7060438493643701    0.4857829397456749 F F F Al
   0.1694367233915983    0.2060438493643702    0.4818230330885898 F F F Al
   0.1694367233915983    0.7060438493643701    0.5532516045171612 F F F Al
   0.5000000000000000    0.0903780647799266    0.4315650171907833 F F F Al
   0.5000000000000000    0.5903780647799266    0.5029935886193547 F F F Al
   0.5000000000000000    0.4238191375825942    0.4791994561625929 F F F Al
   0.5000000000000000    0.9238191375825942    0.5506280275911644 F F F Al
   0.8305632766084017    0.4560438493643701    0.5214972254599607 F F F Al
   0.8305632766084017    0.9560438493643701    0.4500686540313892 F F F Al
   0.1694367233915983    0.4560438493643701    0.4461087473743041 F F F Al
   0.1694367233915983    0.9560438493643701    0.5175373188028756 F F F Al
   0.5000000000000000    0.3403780647799266    0.5387078743336404 F F F Al
   0.5000000000000000    0.8403780647799266    0.4672793029050690 F F F Al
   0.8296878116912225    0.0372350233031966    0.5341536306943842 F F F Ge
   0.8296878116912225    0.5372350233031966    0.4627250592658128 F F F Ge
   0.1703121883087776    0.0372350233031966    0.4566498204081166 F F F Ge
   0.1703121883087776    0.5372350233031966    0.5280783918366880 F F F Ge
   0.8296878116912225    0.2872350233031966    0.4984393449800985 F F F Ge
   0.8296878116912225    0.7872350233031966    0.5698679164086700 F F F Ge
   0.1703121883087776    0.2872350233031966    0.5637926775509737 F F F Ge
   0.1703121883087776    0.7872350233031966    0.4923641061224023 F F F Ge
   0.8405220320094102    0.1210571638398612    0.4750093021063014 F F F W
   0.8405220320094102    0.6210571638398612    0.5464378735348729 F F F W
   0.1594779679905899    0.1210571638398612    0.5397433320066750 F F F W
   0.1594779679905899    0.6210571638398612    0.4683147605781036 F F F W
   0.5000000000000000    0.0069372246226181    0.4910734685968821 F F F W
   0.5000000000000000    0.5069372246226180    0.5625020400254535 F F F W
   0.8405220320094102    0.3710571638398612    0.4392950163920157 F F F W
   0.8405220320094102    0.8710571638398612    0.5107235878205871 F F F W
   0.1594779679905899    0.3710571638398612    0.5040290462923893 F F F W
   0.1594779679905899    0.8710571638398612    0.4326004748638179 F F F W
   0.5000000000000000    0.2569372246226180    0.4553591828825964 F F F W
   0.5000000000000000    0.7569372246226180    0.5267877543111678 F F F W
   0.5000000000000000    0.1738191375825942    0.6577708847340215 T T T Al
   0.5000000000000000    0.6738191375825942    0.5863423133054501 F F F Al
   0.8305632766084017    0.2060438493643702    0.7000686540313892 T T T Al
   0.8305632766084017    0.7060438493643701    0.6286400826028178 T T T Al
   0.1694367233915983    0.2060438493643702    0.6246801759457326 T T T Al
   0.1694367233915983    0.7060438493643701    0.6961087473743041 T T T Al
   0.5000000000000000    0.0903780647799266    0.5744221600479261 F F F Al
   0.5000000000000000    0.5903780647799266    0.6458507314764975 T T T Al
   0.5000000000000000    0.4238191375825942    0.6220565990197358 T T T Al
   0.5000000000000000    0.9238191375825942    0.6934851704483072 T T T Al
   0.8305632766084017    0.4560438493643701    0.6643543683171035 T T T Al
   0.8305632766084017    0.9560438493643701    0.5929257968885321 F F F Al
   0.1694367233915983    0.4560438493643701    0.5889658902314470 F F F Al
   0.1694367233915983    0.9560438493643701    0.6603944616600184 T T T Al
   0.5000000000000000    0.3403780647799266    0.6815650171907832 T T T Al
   0.5000000000000000    0.8403780647799266    0.6101364457622118 F F F Al
   0.8296878116912225    0.0372350233031966    0.6770107735515271 T T T Ge
   0.8296878116912225    0.5372350233031966    0.6055822021229557 F F F Ge
   0.1703121883087776    0.0372350233031966    0.5995069632652594 F F F Ge
   0.1703121883087776    0.5372350233031966    0.6709355346938309 T T T Ge
   0.8296878116912225    0.2872350233031966    0.6412964878372414 T T T Ge
   0.8296878116912225    0.7872350233031966    0.7127250592658128 T T T Ge
   0.1703121883087776    0.2872350233031966    0.7066498204081166 T T T Ge
   0.1703121883087776    0.7872350233031966    0.6352212489795452 T T T Ge
   0.8405220320094102    0.1210571638398612    0.6178664449634442 F F F W
   0.8405220320094102    0.6210571638398612    0.6892950163920157 T T T W
   0.1594779679905899    0.1210571638398612    0.6826004748638179 T T T W
   0.1594779679905899    0.6210571638398612    0.6111719034352464 F F F W
   0.5000000000000000    0.0069372246226181    0.6339306114540249 T T T W
   0.5000000000000000    0.5069372246226180    0.7053591828825964 T T T W
   0.8405220320094102    0.3710571638398612    0.5821521592491585 F F F W
   0.8405220320094102    0.8710571638398612    0.6535807306777299 T T T W
   0.1594779679905899    0.3710571638398612    0.6468861891495321 T T T W
   0.1594779679905899    0.8710571638398612    0.5754576177209607 F F F W
   0.5000000000000000    0.2569372246226180    0.5982163257397392 F F F W
   0.5000000000000000    0.7569372246226180    0.6696448971683107 T T T W
