Y10 Si20 Rh20
1.0
   4.0570712944483756    0.0000000000000000    4.0570712944483756
   8.1141425888967547   10.0017460891510837   -0.0000000000000021
   0.0000000000000000    0.0000000000000000   48.6848555333805066
Y Si Rh Y Si Rh Y Si Rh Y Si Rh Y Si Rh
2 4 4 2 4 4 2 4 4 2 4 4 2 4 4
Selective dynamics
direct
   0.0000000000000000    0.0000000000000000    0.3333333333333333 T T T Y
   0.5000000000000000    0.4999999999999998    0.3333333333333333 T T T Y
   0.2565383180352540    0.1217308409823729    0.3536218068303955 T T T Si
   0.2434616819647459    0.3782691590176270    0.3130448598362711 T T T Si
   0.7565383180352541    0.6217308409823729    0.3536218068303955 T T T Si
   0.7434616819647459    0.8782691590176269    0.3130448598362711 T T T Si
   0.0000000000000000    0.2499999999999999    0.3333333333333333 T T T Rh
   0.5000000000000000    0.2499999999999999    0.3333333333333333 T T T Rh
   0.5000000000000000    0.7499999999999999    0.3333333333333333 T T T Rh
   0.0000000000000000    0.7499999999999999    0.3333333333333333 T T T Rh
   0.0000000000000000    0.0000000000000000    0.4166666666666666 F F F Y
   0.5000000000000000    0.4999999999999998    0.4166666666666666 F F F Y
   0.2565383180352540    0.1217308409823729    0.4369551401637288 F F F Si
   0.2434616819647459    0.3782691590176270    0.3963781931696044 T T T Si
   0.7565383180352541    0.6217308409823729    0.4369551401637288 F F F Si
   0.7434616819647459    0.8782691590176269    0.3963781931696044 T T T Si
   0.0000000000000000    0.2499999999999999    0.4166666666666666 F F F Rh
   0.5000000000000000    0.2499999999999999    0.4166666666666666 F F F Rh
   0.5000000000000000    0.7499999999999999    0.4166666666666666 F F F Rh
   0.0000000000000000    0.7499999999999999    0.4166666666666666 F F F Rh
   0.0000000000000000    0.0000000000000000    0.4999999999999999 F F F Y
   0.5000000000000000    0.4999999999999998    0.4999999999999999 F F F Y
   0.2565383180352540    0.1217308409823729    0.5202884734970621 F F F Si
   0.2434616819647459    0.3782691590176270    0.4797115265029378 F F F Si
   0.7565383180352541    0.6217308409823729    0.5202884734970621 F F F Si
   0.7434616819647459    0.8782691590176269    0.4797115265029378 F F F Si
   0.0000000000000000    0.2499999999999999    0.4999999999999999 F F F Rh
   0.5000000000000000    0.2499999999999999    0.4999999999999999 F F F Rh
   0.5000000000000000    0.7499999999999999    0.4999999999999999 F F F Rh
   0.0000000000000000    0.7499999999999999    0.4999999999999999 F F F Rh
   0.0000000000000000    0.0000000000000000    0.5833333333333333 F F F Y
   0.5000000000000000    0.4999999999999998    0.5833333333333333 F F F Y
   0.2565383180352540    0.1217308409823729    0.6036218068303955 T T T Si
   0.2434616819647459    0.3782691590176270    0.5630448598362712 F F F Si
   0.7565383180352541    0.6217308409823729    0.6036218068303955 T T T Si
   0.7434616819647459    0.8782691590176269    0.5630448598362712 F F F Si
   0.0000000000000000    0.2499999999999999    0.5833333333333333 F F F Rh
   0.5000000000000000    0.2499999999999999    0.5833333333333333 F F F Rh
   0.5000000000000000    0.7499999999999999    0.5833333333333333 F F F Rh
   0.0000000000000000    0.7499999999999999    0.5833333333333333 F F F Rh
   0.0000000000000000    0.0000000000000000    0.6666666666666666 T T T Y
   0.5000000000000000    0.4999999999999998    0.6666666666666666 T T T Y
   0.2565383180352540    0.1217308409823729    0.6869551401637288 T T T Si
   0.2434616819647459    0.3782691590176270    0.6463781931696044 T T T Si
   0.7565383180352541    0.6217308409823729    0.6869551401637288 T T T Si
   0.7434616819647459    0.8782691590176269    0.6463781931696044 T T T Si
   0.0000000000000000    0.2499999999999999    0.6666666666666666 T T T Rh
   0.5000000000000000    0.2499999999999999    0.6666666666666666 T T T Rh
   0.5000000000000000    0.7499999999999999    0.6666666666666666 T T T Rh
   0.0000000000000000    0.7499999999999999    0.6666666666666666 T T T Rh
