Cd8 Ga16 Te32
1.0
  12.5577485301565144    0.0000000000000000   -6.2788742650782572
  -0.0000000000000007   12.0114401455224069   -6.2788742650782554
   0.0000000000000000    0.0000000000000000   31.3943713253912904
Cd Ga Te Cd Ga Te
4 8 16 4 8 16
Selective dynamics
direct
   0.0000000000000000    0.0000000000000000    0.4750000000000000 F F F Cd
   0.5000000000000000    0.0000000000000000    0.3750000000000000 T T T Cd
   0.2500000000000000    0.4999999999999999    0.3250000000000000 T T T Cd
   0.7500000000000000    0.4999999999999999    0.4250000000000000 T T T Cd
   0.0000000000000000    0.2500000000000000    0.4250000000000000 T T T Ga
   0.5000000000000000    0.2499999999999999    0.3250000000000000 T T T Ga
   0.2500000000000000    0.0000000000000000    0.4250000000000000 T T T Ga
   0.7500000000000000    0.0000000000000000    0.3250000000000000 T T T Ga
   0.2500000000000000    0.7499999999999999    0.4750000000000000 F F F Ga
   0.7500000000000000    0.7499999999999999    0.3750000000000000 T T T Ga
   0.0000000000000000    0.5000000000000000    0.3750000000000000 T T T Ga
   0.5000000000000000    0.4999999999999999    0.4750000000000000 F F F Ga
   0.3769122511464503    0.3622795709632740    0.4680487184073300 F F F Te
   0.8769122511464503    0.3622795709632739    0.3680487184073300 T T T Te
   0.3630258849634629    0.1377204290367260    0.3243843623414577 T T T Te
   0.8630258849634629    0.1377204290367259    0.4243843623414577 T T T Te
   0.1369741150365371    0.1377204290367260    0.3807038092732327 T T T Te
   0.6369741150365371    0.1377204290367260    0.4807038092732328 F F F Te
   0.1230877488535498    0.3622795709632740    0.3268631099779796 T T T Te
   0.6230877488535498    0.3622795709632739    0.4268631099779796 T T T Te
   0.1269122511464502    0.8622795709632739    0.4180487184073300 T T T Te
   0.6269122511464502    0.8622795709632739    0.3180487184073300 T T T Te
   0.1130258849634629    0.6377204290367259    0.4743843623414577 F F F Te
   0.6130258849634629    0.6377204290367259    0.3743843623414577 T T T Te
   0.3869741150365371    0.6377204290367260    0.4307038092732327 T T T Te
   0.8869741150365371    0.6377204290367259    0.3307038092732327 T T T Te
   0.3730877488535498    0.8622795709632739    0.3768631099779796 T T T Te
   0.8730877488535497    0.8622795709632739    0.4768631099779796 F F F Te
   0.0000000000000000    0.0000000000000000    0.6750000000000000 T T T Cd
   0.5000000000000000    0.0000000000000000    0.5750000000000001 T T T Cd
   0.2500000000000000    0.4999999999999999    0.5250000000000000 F F F Cd
   0.7500000000000000    0.4999999999999999    0.6250000000000000 T T T Cd
   0.0000000000000000    0.2500000000000000    0.6250000000000000 T T T Ga
   0.5000000000000000    0.2499999999999999    0.5250000000000000 F F F Ga
   0.2500000000000000    0.0000000000000000    0.6250000000000000 T T T Ga
   0.7500000000000000    0.0000000000000000    0.5250000000000000 F F F Ga
   0.2500000000000000    0.7499999999999999    0.6750000000000000 T T T Ga
   0.7500000000000000    0.7499999999999999    0.5750000000000001 T T T Ga
   0.0000000000000000    0.5000000000000000    0.5750000000000001 T T T Ga
   0.5000000000000000    0.4999999999999999    0.6750000000000000 T T T Ga
   0.3769122511464503    0.3622795709632740    0.6680487184073300 T T T Te
   0.8769122511464503    0.3622795709632739    0.5680487184073301 T T T Te
   0.3630258849634629    0.1377204290367260    0.5243843623414577 F F F Te
   0.8630258849634629    0.1377204290367259    0.6243843623414578 T T T Te
   0.1369741150365371    0.1377204290367260    0.5807038092732327 T T T Te
   0.6369741150365371    0.1377204290367260    0.6807038092732327 T T T Te
   0.1230877488535498    0.3622795709632740    0.5268631099779796 F F F Te
   0.6230877488535498    0.3622795709632739    0.6268631099779796 T T T Te
   0.1269122511464502    0.8622795709632739    0.6180487184073300 T T T Te
   0.6269122511464502    0.8622795709632739    0.5180487184073300 F F F Te
   0.1130258849634629    0.6377204290367259    0.6743843623414577 T T T Te
   0.6130258849634629    0.6377204290367259    0.5743843623414577 T T T Te
   0.3869741150365371    0.6377204290367260    0.6307038092732328 T T T Te
   0.8869741150365371    0.6377204290367259    0.5307038092732328 F F F Te
   0.3730877488535498    0.8622795709632739    0.5768631099779796 T T T Te
   0.8730877488535497    0.8622795709632739    0.6768631099779796 T T T Te
