Cd12 Ga24 Te48
1.0
   6.2788742650782572    0.0000000000000000    6.2788742650782563
   6.2788742650782554   24.0228802910448067    0.0000000000000015
   0.0000000000000000    0.0000000000000000   43.9521198555478065
Cd Ga Te Cd Ga Te Cd Ga Te
4 8 16 4 8 16 4 8 16
Selective dynamics
direct
   0.5000000000000000    0.4999999999999999    0.3418367346938775 T T T Cd
   0.0000000000000000    0.0000000000000000    0.4132653061224490 F F F Cd
   0.7500000000000002    0.7499999999999998    0.3775510204081633 T T T Cd
   0.2500000000000000    0.2499999999999999    0.3061224489795918 T T T Cd
   0.8750000000000001    0.6249999999999999    0.2882653061224490 T T T Ga
   0.3750000000000000    0.1250000000000000    0.3596938775510204 T T T Ga
   0.0000000000000001    0.4999999999999999    0.3418367346938775 T T T Ga
   0.5000000000000000    0.0000000000000000    0.4132653061224490 F F F Ga
   0.1250000000000000    0.8749999999999999    0.3239795918367347 T T T Ga
   0.6250000000000000    0.3749999999999999    0.3954081632653061 F F F Ga
   0.2500000000000001    0.7499999999999999    0.3775510204081632 T T T Ga
   0.7500000000000000    0.2500000000000000    0.3061224489795918 T T T Ga
   0.0928084445914374    0.6811397854816368    0.3648390286512295 T T T Te
   0.5928084445914372    0.1811397854816369    0.2934104572226580 T T T Te
   0.6849642877745376    0.5688602145183629    0.4191349464299330 F F F Te
   0.1849642877745374    0.0688602145183629    0.3477063750013616 T T T Te
   0.1773152831887366    0.5688602145183629    0.4270700128202115 F F F Te
   0.6773152831887366    0.0688602145183630    0.3556414413916401 T T T Te
   0.5449119844452890    0.6811397854816369    0.3705886651598505 T T T Te
   0.0449119844452889    0.1811397854816370    0.2991600937312791 T T T Te
   0.3428084445914372    0.9311397854816369    0.4005533143655152 F F F Te
   0.8428084445914372    0.4311397854816370    0.3291247429369437 T T T Te
   0.9349642877745377    0.8188602145183629    0.3119920892870759 T T T Te
   0.4349642877745374    0.3188602145183629    0.3834206607156473 T T T Te
   0.4273152831887367    0.8188602145183628    0.3199271556773544 T T T Te
   0.9273152831887364    0.3188602145183629    0.3913557271059258 F F F Te
   0.7949119844452889    0.9311397854816369    0.4063029508741362 F F F Te
   0.2949119844452889    0.4311397854816369    0.3348743794455648 T T T Te
   0.5000000000000000    0.4999999999999999    0.4846938775510204 F F F Cd
   0.0000000000000000    0.0000000000000000    0.5561224489795918 F F F Cd
   0.7500000000000002    0.7499999999999998    0.5204081632653061 F F F Cd
   0.2500000000000000    0.2499999999999999    0.4489795918367347 F F F Cd
   0.8750000000000001    0.6249999999999999    0.4311224489795918 F F F Ga
   0.3750000000000000    0.1250000000000000    0.5025510204081632 F F F Ga
   0.0000000000000001    0.4999999999999999    0.4846938775510204 F F F Ga
   0.5000000000000000    0.0000000000000000    0.5561224489795918 F F F Ga
   0.1250000000000000    0.8749999999999999    0.4668367346938775 F F F Ga
   0.6250000000000000    0.3749999999999999    0.5382653061224489 F F F Ga
   0.2500000000000001    0.7499999999999999    0.5204081632653061 F F F Ga
   0.7500000000000000    0.2500000000000000    0.4489795918367347 F F F Ga
   0.0928084445914374    0.6811397854816368    0.5076961715083723 F F F Te
   0.5928084445914372    0.1811397854816369    0.4362676000798009 F F F Te
   0.6849642877745376    0.5688602145183629    0.5619920892870758 F F F Te
   0.1849642877745374    0.0688602145183629    0.4905635178585045 F F F Te
   0.1773152831887366    0.5688602145183629    0.5699271556773544 F F F Te
   0.6773152831887366    0.0688602145183630    0.4984985842487829 F F F Te
   0.5449119844452890    0.6811397854816369    0.5134458080169934 F F F Te
   0.0449119844452889    0.1811397854816370    0.4420172365884220 F F F Te
   0.3428084445914372    0.9311397854816369    0.5434104572226580 F F F Te
   0.8428084445914372    0.4311397854816370    0.4719818857940866 F F F Te
   0.9349642877745377    0.8188602145183629    0.4548492321442187 F F F Te
   0.4349642877745374    0.3188602145183629    0.5262778035727902 F F F Te
   0.4273152831887367    0.8188602145183628    0.4627842985344972 F F F Te
   0.9273152831887364    0.3188602145183629    0.5342128699630686 F F F Te
   0.7949119844452889    0.9311397854816369    0.5491600937312791 F F F Te
   0.2949119844452889    0.4311397854816369    0.4777315223027077 F F F Te
   0.5000000000000000    0.4999999999999999    0.6275510204081632 T T T Cd
   0.0000000000000000    0.0000000000000000    0.6989795918367347 T T T Cd
   0.7500000000000002    0.7499999999999998    0.6632653061224489 T T T Cd
   0.2500000000000000    0.2499999999999999    0.5918367346938775 F F F Cd
   0.8750000000000001    0.6249999999999999    0.5739795918367347 F F F Ga
   0.3750000000000000    0.1250000000000000    0.6454081632653061 T T T Ga
   0.0000000000000001    0.4999999999999999    0.6275510204081632 T T T Ga
   0.5000000000000000    0.0000000000000000    0.6989795918367347 T T T Ga
   0.1250000000000000    0.8749999999999999    0.6096938775510203 F F F Ga
   0.6250000000000000    0.3749999999999999    0.6811224489795918 T T T Ga
   0.2500000000000001    0.7499999999999999    0.6632653061224489 T T T Ga
   0.7500000000000000    0.2500000000000000    0.5918367346938775 F F F Ga
   0.0928084445914374    0.6811397854816368    0.6505533143655151 T T T Te
   0.5928084445914372    0.1811397854816369    0.5791247429369437 F F F Te
   0.6849642877745376    0.5688602145183629    0.7048492321442187 T T T Te
   0.1849642877745374    0.0688602145183629    0.6334206607156473 T T T Te
   0.1773152831887366    0.5688602145183629    0.7127842985344972 T T T Te
   0.6773152831887366    0.0688602145183630    0.6413557271059258 T T T Te
   0.5449119844452890    0.6811397854816369    0.6563029508741363 T T T Te
   0.0449119844452889    0.1811397854816370    0.5848743794455648 F F F Te
   0.3428084445914372    0.9311397854816369    0.6862676000798009 T T T Te
   0.8428084445914372    0.4311397854816370    0.6148390286512294 T T T Te
   0.9349642877745377    0.8188602145183629    0.5977063750013616 F F F Te
   0.4349642877745374    0.3188602145183629    0.6691349464299330 T T T Te
   0.4273152831887367    0.8188602145183628    0.6056414413916400 F F F Te
   0.9273152831887364    0.3188602145183629    0.6770700128202115 T T T Te
   0.7949119844452889    0.9311397854816369    0.6920172365884218 T T T Te
   0.2949119844452889    0.4311397854816369    0.6205886651598504 T T T Te
