Al16 Re16 Ge16
1.0
   8.1909736616663107    0.0000000000000000    0.0000000000000005
   0.0000000000000010    6.5279474190308235   -3.2639737095154118
   0.0000000000000000    0.0000000000000000   32.6397370951541177
Al Re Ge Al Re Ge Al Re Ge Al Re Ge
4 4 4 4 4 4 4 4 4 4 4 4
Selective dynamics
direct
   0.8351093813803416    0.2500000000000000    0.3625000000000000 T T T Al
   0.8351093813803416    0.7500000000000000    0.3125000000000001 T T T Al
   0.3351093813803416    0.5000000000000000    0.3375000000000000 T T T Al
   0.3351093813803416    0.0000000000000000    0.3875000000000001 T T T Al
   0.5027969590897782    0.2500000000000000    0.3625000000000000 T T T Re
   0.5027969590897782    0.7500000000000000    0.3125000000000001 T T T Re
   0.0027969590897781    0.5000000000000000    0.3375000000000000 T T T Re
   0.0027969590897781    0.0000000000000000    0.3875000000000001 T T T Re
   0.6620936595298730    0.5000000000000000    0.3375000000000000 T T T Ge
   0.6620936595298730    0.0000000000000000    0.3875000000000001 T T T Ge
   0.1620936595298731    0.2500000000000000    0.3625000000000000 T T T Ge
   0.1620936595298731    0.7500000000000000    0.3125000000000001 T T T Ge
   0.8351093813803416    0.2500000000000000    0.4625000000000000 F F F Al
   0.8351093813803416    0.7500000000000000    0.4125000000000000 T T T Al
   0.3351093813803416    0.5000000000000000    0.4375000000000001 F F F Al
   0.3351093813803416    0.0000000000000000    0.4875000000000000 F F F Al
   0.5027969590897782    0.2500000000000000    0.4625000000000000 F F F Re
   0.5027969590897782    0.7500000000000000    0.4125000000000000 T T T Re
   0.0027969590897781    0.5000000000000000    0.4375000000000001 F F F Re
   0.0027969590897781    0.0000000000000000    0.4875000000000000 F F F Re
   0.6620936595298730    0.5000000000000000    0.4375000000000001 F F F Ge
   0.6620936595298730    0.0000000000000000    0.4875000000000000 F F F Ge
   0.1620936595298731    0.2500000000000000    0.4625000000000000 F F F Ge
   0.1620936595298731    0.7500000000000000    0.4125000000000000 T T T Ge
   0.8351093813803416    0.2500000000000000    0.5625000000000000 F F F Al
   0.8351093813803416    0.7500000000000000    0.5125000000000001 F F F Al
   0.3351093813803416    0.5000000000000000    0.5375000000000001 F F F Al
   0.3351093813803416    0.0000000000000000    0.5875000000000000 T T T Al
   0.5027969590897782    0.2500000000000000    0.5625000000000000 F F F Re
   0.5027969590897782    0.7500000000000000    0.5125000000000001 F F F Re
   0.0027969590897781    0.5000000000000000    0.5375000000000001 F F F Re
   0.0027969590897781    0.0000000000000000    0.5875000000000000 T T T Re
   0.6620936595298730    0.5000000000000000    0.5375000000000001 F F F Ge
   0.6620936595298730    0.0000000000000000    0.5875000000000000 T T T Ge
   0.1620936595298731    0.2500000000000000    0.5625000000000000 F F F Ge
   0.1620936595298731    0.7500000000000000    0.5125000000000001 F F F Ge
   0.8351093813803416    0.2500000000000000    0.6625000000000001 T T T Al
   0.8351093813803416    0.7500000000000000    0.6125000000000000 T T T Al
   0.3351093813803416    0.5000000000000000    0.6375000000000000 T T T Al
   0.3351093813803416    0.0000000000000000    0.6875000000000000 T T T Al
   0.5027969590897782    0.2500000000000000    0.6625000000000001 T T T Re
   0.5027969590897782    0.7500000000000000    0.6125000000000000 T T T Re
   0.0027969590897781    0.5000000000000000    0.6375000000000000 T T T Re
   0.0027969590897781    0.0000000000000000    0.6875000000000000 T T T Re
   0.6620936595298730    0.5000000000000000    0.6375000000000000 T T T Ge
   0.6620936595298730    0.0000000000000000    0.6875000000000000 T T T Ge
   0.1620936595298731    0.2500000000000000    0.6625000000000001 T T T Ge
   0.1620936595298731    0.7500000000000000    0.6125000000000000 T T T Ge
