Ta24 Co6 Ni6
1.0
   6.1764252528556050    0.0000000000000000    0.0000000000000004
  -0.0000000000000017    6.1764252528556050    4.9215105283326315
   0.0000000000000000    0.0000000000000000   34.4505736983284194
Ta Co Ni Ta Co Ni Ta Co Ni
8 2 2 8 2 2 8 2 2
Selective dynamics
direct
   0.6598884423253396    0.8401115576746605    0.3561745393798104 T T T Ta
   0.3401115576746605    0.1598884423253395    0.3104921272868563 T T T Ta
   0.3401115576746605    0.8401115576746605    0.4276031108083818 F F F Ta
   0.6598884423253396    0.1598884423253395    0.3819206987154277 T T T Ta
   0.1598884423253395    0.3401115576746604    0.3561745393798104 T T T Ta
   0.8401115576746605    0.6598884423253395    0.3104921272868563 T T T Ta
   0.8401115576746605    0.3401115576746604    0.4276031108083819 F F F Ta
   0.1598884423253395    0.6598884423253395    0.3819206987154277 T T T Ta
   0.0000000000000000    0.0000000000000000    0.2976190476190476 T T T Co
   0.5000000000000000    0.5000000000000000    0.2976190476190476 T T T Co
   0.0000000000000000    0.0000000000000000    0.3690476190476191 T T T Ni
   0.5000000000000000    0.5000000000000000    0.3690476190476191 T T T Ni
   0.6598884423253396    0.8401115576746605    0.4990316822369533 F F F Ta
   0.3401115576746605    0.1598884423253395    0.4533492701439991 F F F Ta
   0.3401115576746605    0.8401115576746605    0.5704602536655247 F F F Ta
   0.6598884423253396    0.1598884423253395    0.5247778415725706 F F F Ta
   0.1598884423253395    0.3401115576746604    0.4990316822369533 F F F Ta
   0.8401115576746605    0.6598884423253395    0.4533492701439991 F F F Ta
   0.8401115576746605    0.3401115576746604    0.5704602536655247 F F F Ta
   0.1598884423253395    0.6598884423253395    0.5247778415725706 F F F Ta
   0.0000000000000000    0.0000000000000000    0.4404761904761905 F F F Co
   0.5000000000000000    0.5000000000000000    0.4404761904761905 F F F Co
   0.0000000000000000    0.0000000000000000    0.5119047619047619 F F F Ni
   0.5000000000000000    0.5000000000000000    0.5119047619047619 F F F Ni
   0.6598884423253396    0.8401115576746605    0.6418888250940962 T T T Ta
   0.3401115576746605    0.1598884423253395    0.5962064130011420 F F F Ta
   0.3401115576746605    0.8401115576746605    0.7133173965226676 T T T Ta
   0.6598884423253396    0.1598884423253395    0.6676349844297134 T T T Ta
   0.1598884423253395    0.3401115576746604    0.6418888250940962 T T T Ta
   0.8401115576746605    0.6598884423253395    0.5962064130011420 F F F Ta
   0.8401115576746605    0.3401115576746604    0.7133173965226676 T T T Ta
   0.1598884423253395    0.6598884423253395    0.6676349844297134 T T T Ta
   0.0000000000000000    0.0000000000000000    0.5833333333333333 F F F Co
   0.5000000000000000    0.5000000000000000    0.5833333333333333 F F F Co
   0.0000000000000000    0.0000000000000000    0.6547619047619048 T T T Ni
   0.5000000000000000    0.5000000000000000    0.6547619047619048 T T T Ni
