Ni2 Rh4 Se8
1.0
   0.0000000000000000   12.2817983912665767    0.0337570645121908
   3.7135121945127016    0.0000000000000000    0.0000000000000000
   0.0000000000000000   -3.1398297882134689   -5.5761585373894196
Ni Rh Se
2 4 8
direct
  -0.0000000000000000   -0.0000000000000000   -0.0000000000000000 Ni
   0.5000000000000000    0.5000000000000000   -0.0000000000000000 Ni
   0.2639082032155060   -0.0000000000000000    0.2829116378839755 Rh
   0.2360917967844952    0.5000000000000000    0.7170883621160253 Rh
   0.7639082032155029    0.5000000000000000    0.2829116378839755 Rh
   0.7360917967844971    0.0000000000000000    0.7170883621160253 Rh
   0.3682159142654675    0.0000000000000000    0.0235600591340515 Se
   0.1317840857345313    0.5000000000000000    0.9764399408659473 Se
   0.1166950718488525   -0.0000000000000000    0.4481247911609762 Se
   0.3833049281511471    0.5000000000000000    0.5518752088390259 Se
   0.8682159142654683    0.5000000000000000    0.0235600591340515 Se
   0.6317840857345317    0.0000000000000000    0.9764399408659473 Se
   0.6166950718488536    0.5000000000000000    0.4481247911609762 Se
   0.8833049281511464    0.0000000000000000    0.5518752088390259 Se
