Y4 Ti4 Ge4
1.0
   4.0593492337473780   -0.0000000000000000    0.0000000000000002
   0.0000000000000006    4.0593492337473780    0.0000000000000002
   0.0000000000000000    0.0000000000000000   15.4374837690793409
Y Ti Ge
4 4 4
direct
  -0.0000000000000000   -0.0000000000000000    0.6741186071731619 Y
   0.5000000000000000    0.5000000000000000    0.8258813928268381 Y
   0.5000000000000000    0.5000000000000000    0.1741186071731582 Y
   0.0000000000000000    0.0000000000000000    0.3258813928268418 Y
  -0.0000000000000000    0.5000000000000000   -0.0000000000000000 Ti
   0.5000000000000000   -0.0000000000000000   -0.0000000000000000 Ti
   0.5000000000000000   -0.0000000000000000    0.5000000000000000 Ti
   0.0000000000000000    0.5000000000000000    0.5000000000000000 Ti
   0.5000000000000000    0.5000000000000000    0.6224624584062513 Ge
   0.0000000000000000    0.0000000000000000    0.8775375415937487 Ge
  -0.0000000000000000   -0.0000000000000000    0.1224624584062507 Ge
   0.5000000000000000    0.5000000000000000    0.3775375415937459 Ge
