Zr2 Fe4 Si4
1.0
   3.8496774002098006    0.0000000000000000    0.0000000000000002
   0.0000000000000006    3.8496774002098006    0.0000000000000002
   0.0000000000000000    0.0000000000000000    9.3143491519759571
Zr Fe Si
2 4 4
direct
   0.0000000000000000    0.0000000000000000    0.0000000000000000 Zr
   0.5000000000000000    0.5000000000000000    0.5000000000000000 Zr
   0.5000000000000000    0.0000000000000000    0.7500000000000000 Fe
   0.0000000000000000    0.5000000000000000    0.7500000000000000 Fe
  -0.0000000000000000    0.5000000000000000    0.2500000000000000 Fe
   0.5000000000000000    0.0000000000000000    0.2500000000000000 Fe
   0.5000000000000000    0.5000000000000000    0.8715619054716233 Si
  -0.0000000000000000   -0.0000000000000000    0.6284380945283767 Si
   0.0000000000000000    0.0000000000000000    0.3715619054716232 Si
   0.5000000000000000    0.5000000000000000    0.1284380945283766 Si
