Bi8
1.0
   6.5541185540733800    0.0000000000000000    0.0068189352369392
  -0.0000000000000006    9.1879479142458198   -4.6558773250832566
   0.0000000000000000    0.0000000000000000    4.6558773250832557
Bi
8
direct
   0.7505925209260909    0.3750000000000000    0.1255990510197194 Bi
   0.7505925209260909    0.8750000000000000    0.6255990510197194 Bi
   0.2494074790739093    0.1250000000000000    0.3744009489802878 Bi
   0.2494074790739093    0.6250000000000000    0.8744009489802878 Bi
   0.2506248126961311    0.3750000000000000    0.1229853123675255 Bi
   0.2506248126961311    0.8750000000000000    0.6229853123675255 Bi
   0.7493751873038690    0.1250000000000000    0.3770146876324744 Bi
   0.7493751873038690    0.6250000000000000    0.8770146876324745 Bi
