Ba4
1.0
   7.1353879095656723    0.0000000000000000    0.0000000000000004
   0.0000000000000011    7.1352299556460430   -5.0135737159227789
   0.0000000000000000    0.0000000000000000    5.0135737159227789
Ba
4
direct
   0.7500000000000000    0.0000000000000000    0.7480149972292409 Ba
   0.2500000000000000    0.0000000000000000    0.2519850027707591 Ba
   0.7500000000000000    0.5000000000000000    0.7480149972292409 Ba
   0.2500000000000000    0.5000000000000000    0.2519850027707590 Ba
