V8
1.0
   5.9961767574545695    0.0000000000000000   -2.9980883787272847
  -0.0000000000000017    5.9961767574545695   -2.9980883787272847
   0.0000000000000000    0.0000000000000000    2.9980883787272847
V
8
direct
   0.4999999999999999    0.5000000000000000    0.0000000000000002 V
   0.0000000000000000    0.0000000000000000    0.0000000000000000 V
   0.0000000000000000    0.5000000000000000    0.5000000000000000 V
   0.4999999999999999    0.0000000000000001    0.5000000000000000 V
   0.7499999999999999    0.7500000000000002    0.0000000000000002 V
   0.2500000000000000    0.2500000000000001    0.0000000000000000 V
   0.2500000000000000    0.7500000000000002    0.5000000000000000 V
   0.7499999999999999    0.2500000000000002    0.5000000000000000 V
