Cr1 Fe3
1.0
   3.5640300000000003    0.0000000000000000    0.0000000000000002
   0.0000000000000006    3.5640300000000003    0.0000000000000002
   0.0000000000000000    0.0000000000000000    3.5640300000000003
Cr Fe
1 3
direct
   0.0000000000000000    0.0000000000000000    0.0000000000000000 Cr
   0.0000000000000000    0.5000000000000000    0.5000000000000000 Fe
   0.5000000000000000    0.5000000000000000    0.0000000000000000 Fe
   0.5000000000000000    0.0000000000000000    0.5000000000000000 Fe
