Hf3 Pb1
1.0
   4.4512410600000001    0.0000000000000000    0.0000000000000003
   0.0000000000000007    4.4512410600000001    0.0000000000000003
   0.0000000000000000    0.0000000000000000    4.4512410600000001
Hf Pb
3 1
direct
   0.5000000000000000    0.0000000000000000    0.5000000000000000 Hf
   0.0000000000000000    0.5000000000000000    0.5000000000000000 Hf
   0.5000000000000000    0.5000000000000000    0.0000000000000000 Hf
   0.0000000000000000    0.0000000000000000    0.0000000000000000 Pb
