Y4 Mg2
1.0
   3.0217421423032196   -5.2338109178412004    0.0000000000000000
   3.0217421423032196    5.2338109178412004    0.0000000000000000
   0.0000000000000000    0.0000000000000000    5.6366829999999997
Y Mg
4 2
direct
   0.6561804999999999    0.0000000000000000    0.0000000000000000 Y
   0.3438195000000001    0.3438195000000001    0.0000000000000000 Y
   0.0000000000000000    0.6561804999999999    0.0000000000000000 Y
   0.0000000000000000    0.0000000000000000    0.5000000000000000 Y
   0.6666666666666666    0.3333333333333333    0.5000000000000000 Mg
   0.3333333333333333    0.6666666666666666    0.5000000000000000 Mg
