Fe3 Pd9
1.0
   1.3889248887229693   -2.4056884751651317    0.0000000000000000
   1.3889248887229693    2.4056884751651317    0.0000000000000000
   0.0000000000000000    0.0000000000000000   26.4943754449469466
Fe Pd
3 9
direct
   0.0000000000000000    0.0000000000000000    0.0000000000000000 Fe
   0.6666666666666666    0.3333333333333333    0.3333333333333333 Fe
   0.3333333333333333    0.6666666666666666    0.6666666666666666 Fe
   0.0000000000000000    0.0000000000000000    0.2551590000000000 Pd
   0.3333333333333333    0.6666666666666665    0.1666666666666667 Pd
   0.6666666666666666    0.3333333333333333    0.0781743333333333 Pd
   0.6666666666666666    0.3333333333333333    0.5884923333333333 Pd
   0.9999999999999999    0.9999999999999998    0.5000000000000000 Pd
   0.3333333333333333    0.6666666666666666    0.4115076666666667 Pd
   0.3333333333333333    0.6666666666666666    0.9218256666666667 Pd
   0.6666666666666665    0.3333333333333330    0.8333333333333333 Pd
   0.0000000000000000    0.0000000000000000    0.7448410000000000 Pd
