Ca3 Zn3
1.0
   1.9589899187094144   -3.3930700707199302    0.0000000000000000
   1.9589899187094144    3.3930700707199302    0.0000000000000000
   0.0000000000000000    0.0000000000000000   12.8911602975541388
Ca Zn
3 3
direct
   0.0000000000000000    0.0000000000000000    0.0000000000000000 Ca
   0.6666666666666666    0.3333333333333333    0.3333333333333333 Ca
   0.3333333333333333    0.6666666666666666    0.6666666666666666 Ca
   0.3333333333333333    0.6666666666666665    0.1666666666666667 Zn
   0.9999999999999999    0.9999999999999998    0.5000000000000000 Zn
   0.6666666666666665    0.3333333333333330    0.8333333333333333 Zn
