Y8 Fe16
1.0
   7.3491789707753590    0.0000000000000000    0.0000000000000005
   0.0000000000000012    7.3491789707753590    0.0000000000000005
   0.0000000000000000    0.0000000000000000    7.3491789707753590
Y Fe
8 16
direct
   0.7500000000000000    0.7500000000000000    0.2500000000000000 Y
   0.0000000000000000    0.5000000000000000    0.5000000000000000 Y
   0.7500000000000000    0.2500000000000000    0.7500000000000000 Y
   0.0000000000000000    0.0000000000000000    0.0000000000000000 Y
   0.2500000000000000    0.7500000000000000    0.7500000000000000 Y
   0.5000000000000000    0.5000000000000000    0.0000000000000000 Y
   0.2500000000000000    0.2500000000000000    0.2500000000000000 Y
   0.5000000000000000    0.0000000000000000    0.5000000000000000 Y
   0.6250000000000000    0.1250000000000000    0.1250000000000000 Fe
   0.6250000000000000    0.8750000000000000    0.8750000000000000 Fe
   0.3750000000000000    0.1250000000000000    0.8750000000000000 Fe
   0.3750000000000000    0.3750000000000000    0.6250000000000000 Fe
   0.6250000000000000    0.6250000000000000    0.6250000000000000 Fe
   0.6250000000000000    0.3750000000000000    0.3750000000000000 Fe
   0.3750000000000000    0.6250000000000000    0.3750000000000000 Fe
   0.3750000000000000    0.8750000000000000    0.1250000000000000 Fe
   0.1250000000000000    0.1250000000000000    0.6250000000000000 Fe
   0.1250000000000000    0.8750000000000000    0.3750000000000000 Fe
   0.8750000000000000    0.1250000000000000    0.3750000000000000 Fe
   0.8750000000000000    0.3750000000000000    0.1250000000000000 Fe
   0.1250000000000000    0.6250000000000000    0.1250000000000000 Fe
   0.1250000000000000    0.3750000000000000    0.8750000000000000 Fe
   0.8750000000000000    0.6250000000000000    0.8750000000000000 Fe
   0.8750000000000000    0.8750000000000000    0.6250000000000000 Fe
