Te1 Pd3
1.0
   3.5162323039030001    0.0000000000000000    0.0000000000000002
   0.0000000000000006    3.5162323039030001    0.0000000000000002
   0.0000000000000000    0.0000000000000000    5.6953335863109897
Te Pd
1 3
direct
   0.0000000000000000    0.0000000000000000    0.0000000000000000 Te
   0.5000000000000000    0.5000000000000000    0.7480899999999999 Pd
   0.0000000000000000    0.0000000000000000    0.5000000000000000 Pd
   0.5000000000000000    0.5000000000000000    0.2519100000000001 Pd
