Fe3 Ir3
1.0
   1.3584259544710990   -2.3528627714641899    0.0000000000000000
   1.3584259544710990    2.3528627714641899    0.0000000000000000
   0.0000000000000000    0.0000000000000000   12.7493274248902448
Fe Ir
3 3
direct
   0.0000000000000000    0.0000000000000000    0.0000000000000000 Fe
   0.6666666666666666    0.3333333333333333    0.3333333333333333 Fe
   0.3333333333333333    0.6666666666666666    0.6666666666666666 Fe
   0.3333333333333333    0.6666666666666665    0.1666666666666667 Ir
   0.9999999999999999    0.9999999999999998    0.5000000000000000 Ir
   0.6666666666666665    0.3333333333333330    0.8333333333333333 Ir
