Ir2 Pd6
1.0
   3.9389259999999999    0.0000000000000000    0.0000000000000002
   0.0000000000000006    3.9389259999999999    0.0000000000000002
   0.0000000000000000    0.0000000000000000    7.7857000000000003
Ir Pd
2 6
direct
   0.0000000000000000    0.0000000000000000    0.0000000000000000 Ir
   0.5000000000000000    0.5000000000000000    0.5000000000000000 Ir
   0.0000000000000000    0.5000000000000000    0.2500000000000000 Pd
   0.5000000000000000    0.0000000000000000    0.2500000000000000 Pd
   0.5000000000000000    0.5000000000000000    0.0000000000000000 Pd
   0.5000000000000000    0.0000000000000000    0.7500000000000000 Pd
   0.0000000000000000    0.5000000000000000    0.7500000000000000 Pd
   0.0000000000000000    0.0000000000000000    0.5000000000000000 Pd
