Na1 Ag3
1.0
   4.2441940000000002    0.0000000000000000    0.0000000000000003
   0.0000000000000007    4.2441940000000002    0.0000000000000003
   0.0000000000000000    0.0000000000000000    4.2441940000000002
Na Ag
1 3
direct
   0.0000000000000000    0.0000000000000000    0.0000000000000000 Na
   0.0000000000000000    0.5000000000000000    0.5000000000000000 Ag
   0.5000000000000000    0.0000000000000000    0.5000000000000000 Ag
   0.5000000000000000    0.5000000000000000    0.0000000000000000 Ag
