Cd3 Ag3
1.0
   1.5107047226433468   -2.6166173348525255    0.0000000000000000
   1.5107047226433468    2.6166173348525255    0.0000000000000000
   0.0000000000000000    0.0000000000000000   14.3501675231087464
Cd Ag
3 3
direct
   0.3333333333333333    0.6666666666666665    0.1666666666666667 Cd
   0.9999999999999999    0.9999999999999998    0.5000000000000000 Cd
   0.6666666666666665    0.3333333333333330    0.8333333333333333 Cd
   0.0000000000000000    0.0000000000000000    0.0000000000000000 Ag
   0.6666666666666666    0.3333333333333333    0.3333333333333333 Ag
   0.3333333333333333    0.6666666666666666    0.6666666666666666 Ag
