In1 Cu1 Se2
1.0
   2.0702410519520686   -3.5857626858958223    0.0000000000000000
   2.0702410519520686    3.5857626858958223    0.0000000000000000
   0.0000000000000000    0.0000000000000000    6.8226367939490959
In Cu Se
1 1 2
direct
   0.3333333333333333    0.6666666666666666    0.6392410000000001 In
   0.6666666666666666    0.3333333333333333    0.0801720000000000 Cu
   0.6666666666666666    0.3333333333333333    0.4557680000000002 Se
   0.3333333333333333    0.6666666666666666    0.0144190000000000 Se
