Zr6 Rh2
1.0
   4.0256679999999996    0.0000000000000000    0.0000000000000002
   0.0000000000000006    4.0256679999999996    0.0000000000000002
   0.0000000000000000    0.0000000000000000   10.0693680000000008
Zr Rh
6 2
direct
   0.0000000000000000    0.5000000000000000    0.2500000000000000 Zr
   0.5000000000000000    0.0000000000000000    0.2500000000000000 Zr
   0.5000000000000000    0.5000000000000000    0.0000000000000000 Zr
   0.5000000000000000    0.0000000000000000    0.7500000000000000 Zr
   0.0000000000000000    0.5000000000000000    0.7500000000000000 Zr
   0.0000000000000000    0.0000000000000000    0.5000000000000000 Zr
   0.0000000000000000    0.0000000000000000    0.0000000000000000 Rh
   0.5000000000000000    0.5000000000000000    0.5000000000000000 Rh
