Ga4 Fe16
1.0
   2.9598460000000002    0.0000000000000000    0.0000000000000002
   0.0000000000000007    4.1350920000000002    0.0000000000000003
   0.0000000000000000    0.0000000000000000   19.8944100000000006
Ga Fe
4 16
direct
   0.0000000000000000    0.0000000000000000    0.0000000000000000 Ga
   0.0000000000000000    0.5000000000000000    0.5000000000000000 Ga
   0.5000000000000000    0.0000000000000000    0.5000000000000000 Ga
   0.5000000000000000    0.5000000000000000    0.0000000000000000 Ga
   0.0000000000000000    0.0000000000000000    0.3983710000000000 Fe
   0.5000000000000000    0.0000000000000000    0.2998950000000000 Fe
   0.0000000000000000    0.0000000000000000    0.2001050000000000 Fe
   0.5000000000000000    0.0000000000000000    0.1016290000000000 Fe
   0.0000000000000000    0.5000000000000000    0.8983710000000000 Fe
   0.5000000000000000    0.5000000000000000    0.7998950000000000 Fe
   0.0000000000000000    0.5000000000000000    0.7001050000000000 Fe
   0.5000000000000000    0.5000000000000000    0.6016290000000000 Fe
   0.5000000000000000    0.0000000000000000    0.8983710000000000 Fe
   0.0000000000000000    0.0000000000000000    0.7998950000000000 Fe
   0.5000000000000000    0.0000000000000000    0.7001050000000000 Fe
   0.0000000000000000    0.0000000000000000    0.6016290000000000 Fe
   0.5000000000000000    0.5000000000000000    0.3983710000000000 Fe
   0.0000000000000000    0.5000000000000000    0.2998950000000000 Fe
   0.5000000000000000    0.5000000000000000    0.2001050000000000 Fe
   0.0000000000000000    0.5000000000000000    0.1016290000000000 Fe
