Mg4 Pd2
1.0
   3.2400517999999998    0.0000000000000000    0.0000000000000002
   0.0000000000000005    3.2400517999999998    0.0000000000000002
   0.0000000000000000    0.0000000000000000   10.0802265599999998
Mg Pd
4 2
direct
   0.5000000000000000    0.5000000000000000    0.1472166100000000 Mg
   0.0000000000000000    0.0000000000000000    0.3527833900000000 Mg
   0.0000000000000000    0.0000000000000000    0.6472166100000000 Mg
   0.5000000000000000    0.5000000000000000    0.8527833900000000 Mg
   0.0000000000000000    0.0000000000000000    0.0000000000000000 Pd
   0.5000000000000000    0.5000000000000000    0.5000000000000000 Pd
