Hf6 Sn2
1.0
   3.1210819284930387   -5.4058724747349967    0.0000000000000000
   3.1210819284930387    5.4058724747349967    0.0000000000000000
   0.0000000000000000    0.0000000000000000    5.0708520300000002
Hf Sn
6 2
direct
   0.3328973000000000    0.1664486500000000    0.7500000000000000 Hf
   0.8335513500000000    0.1664486500000000    0.7500000000000000 Hf
   0.8335513500000000    0.6671027000000000    0.7500000000000000 Hf
   0.6671027000000000    0.8335513500000000    0.2500000000000000 Hf
   0.1664486500000000    0.8335513500000000    0.2500000000000000 Hf
   0.1664486500000000    0.3328973000000000    0.2500000000000000 Hf
   0.6666666666666666    0.3333333333333333    0.2500000000000000 Sn
   0.3333333333333334    0.6666666666666667    0.7500000000000000 Sn
