Mn3 Sb2
1.0
   2.1603173366901265   -3.7417793876191796    0.0000000000000000
   2.1603173366901265    3.7417793876191796    0.0000000000000000
   0.0000000000000000    0.0000000000000000    5.3649430000000002
Mn Sb
3 2
direct
   0.0000000000000000    0.0000000000000000    0.2527210000000000 Mn
   0.0000000000000000    0.0000000000000000    0.7472790000000000 Mn
   0.3333333333333333    0.6666666666666666    0.5000000000000000 Mn
   0.3333333333333333    0.6666666666666666    0.0000000000000000 Sb
   0.6666666666666666    0.3333333333333333    0.5000000000000000 Sb
