Al1 Co3
1.0
   3.5749480000000005    0.0000000000000000    0.0000000000000002
   0.0000000000000006    3.5749480000000005    0.0000000000000002
   0.0000000000000000    0.0000000000000000    3.5749480000000005
Al Co
1 3
direct
   0.0000000000000000    0.0000000000000000    0.0000000000000000 Al
   0.5000000000000000    0.5000000000000000    0.0000000000000000 Co
   0.5000000000000000    0.0000000000000000    0.5000000000000000 Co
   0.0000000000000000    0.5000000000000000    0.5000000000000000 Co
