In4 Se4
1.0
   0.0000000000000000   11.6527857562337811    0.0000000000000000
   4.1092979100000004    0.0000000000000000    0.0000000000000000
   0.0000000000000000   -1.7232330140179344   -4.7713478576797250
In Se
4 4
direct
   0.3882032500000000    0.5000000000000000    0.0468413600000001 In
   0.1117967500000000    0.0000000000000000    0.9531586399999999 In
   0.8882032500000001    0.0000000000000000    0.0468413600000001 In
   0.6117967499999999    0.5000000000000000    0.9531586399999999 In
   0.1609275900000000    0.5000000000000000    0.6689556200000000 Se
   0.3390724100000000    0.0000000000000000    0.3310443800000000 Se
   0.6609275900000000    0.0000000000000000    0.6689556200000000 Se
   0.8390724100000000    0.5000000000000000    0.3310443800000000 Se
