Mg6 Cu2
1.0
   3.2741938400000001    0.0000000000000000    0.0000000000000002
   0.0000000000000008    4.8079461800000001    0.0000000000000003
   0.0000000000000000    0.0000000000000000    9.6810588000000006
Mg Cu
6 2
direct
   0.0000000000000000    0.0000000000000000    0.7177107700000001 Mg
   0.5000000000000000    0.0000000000000000    0.0000000000000000 Mg
   0.5000000000000000    0.5000000000000000    0.7822892299999999 Mg
   0.5000000000000000    0.5000000000000000    0.2177107700000001 Mg
   0.0000000000000000    0.5000000000000000    0.5000000000000000 Mg
   0.0000000000000000    0.0000000000000000    0.2822892299999999 Mg
   0.0000000000000000    0.5000000000000000    0.0000000000000000 Cu
   0.5000000000000000    0.0000000000000000    0.5000000000000000 Cu
