Ag4 Se2
1.0
   3.9688180000000002    0.0000000000000000    0.0000000000000002
   0.0000000000000007    4.5822409999999998    0.0000000000000003
   0.0000000000000000    0.0000000000000000    7.3484429999999996
Ag Se
4 2
direct
   0.5000000000000000    0.7500000000000000    0.8971040000000000 Ag
   0.0000000000000000    0.2500000000000000    0.3880080000000000 Ag
   0.5000000000000000    0.2500000000000000    0.1028960000000000 Ag
   0.0000000000000000    0.7500000000000000    0.6119920000000000 Ag
   0.5000000000000000    0.2500000000000000    0.7055490000000001 Se
   0.5000000000000000    0.7500000000000000    0.2944509999999999 Se
