Sn8 Rh4
1.0
   6.4388533141174014    0.0000000000000000    0.0000000000000004
   0.0000000000000010    6.4388533141174014    0.0000000000000004
   0.0000000000000000    0.0000000000000000    5.7216180559276859
Sn Rh
8 4
direct
   0.1622737450000000    0.6622737450000000    0.5000000000000000 Sn
   0.3377262550000000    0.1622737450000000    0.5000000000000000 Sn
   0.1622737450000000    0.3377262550000000    0.0000000000000000 Sn
   0.3377262550000000    0.8377262550000000    0.0000000000000000 Sn
   0.6622737450000000    0.1622737450000000    0.0000000000000000 Sn
   0.8377262550000000    0.6622737450000000    0.0000000000000000 Sn
   0.6622737450000000    0.8377262550000000    0.5000000000000000 Sn
   0.8377262550000000    0.3377262550000000    0.5000000000000000 Sn
   0.0000000000000000    0.0000000000000000    0.2500000000000000 Rh
   0.0000000000000000    0.0000000000000000    0.7500000000000000 Rh
   0.5000000000000000    0.5000000000000000    0.7500000000000000 Rh
   0.5000000000000000    0.5000000000000000    0.2500000000000000 Rh
