Na8 Ag4 Sb4
1.0
   7.8718077182693653    0.0000000000000000    0.0000000000000005
   0.0000000000000015    9.2180602190019361    0.0000000000000006
   0.0000000000000000    0.0000000000000000    5.7631129799999998
Na Ag Sb
8 4 4
direct
   0.6501337099999999    0.3223944299999998    0.7500000000000000 Na
   0.3498662900000001    0.6776055700000001    0.2500000000000000 Na
   0.6501337099999999    0.6776055700000001    0.7500000000000000 Na
   0.3498662900000001    0.3223944299999998    0.2500000000000000 Na
   0.1501337100000000    0.8223944299999999    0.7500000000000000 Na
   0.8498662900000001    0.1776055700000001    0.2500000000000000 Na
   0.1501337100000000    0.1776055700000001    0.7500000000000000 Na
   0.8498662900000001    0.8223944299999999    0.2500000000000000 Na
   0.5000000000000000    0.0000000000000000    0.0000000000000000 Ag
   0.5000000000000000    0.0000000000000000    0.5000000000000000 Ag
   0.0000000000000000    0.5000000000000000    0.0000000000000000 Ag
   0.0000000000000000    0.5000000000000000    0.5000000000000000 Ag
   0.7907967899999997    0.0000000000000000    0.7500000000000000 Sb
   0.2092032100000003    0.0000000000000000    0.2500000000000000 Sb
   0.2907967899999997    0.5000000000000000    0.7500000000000000 Sb
   0.7092032100000003    0.5000000000000000    0.2500000000000000 Sb
