Ti2 Pd2
1.0
   2.7750899900000001    0.0000000000000000    0.0000000000000002
   0.0000000000000007    4.5704518599999995    0.0000000000000003
   0.0000000000000000    0.0000000000000000    4.8757812999999999
Ti Pd
2 2
direct
   0.0000000000000000    0.2500000000000000    0.7024778600000000 Ti
   0.0000000000000000    0.7500000000000000    0.2975221400000000 Ti
   0.5000000000000000    0.2500000000000000    0.1866044800000001 Pd
   0.5000000000000000    0.7500000000000000    0.8133955199999999 Pd
