Be3 Fe1
1.0
   3.2390011066668811    0.0000000000000000    0.0000000000000002
   0.0000000000000005    3.2390011066668811    0.0000000000000002
   0.0000000000000000    0.0000000000000000    3.2390011066668811
Be Fe
3 1
direct
   0.0000000000000000    0.5000000000000000    0.5000000000000000 Be
   0.5000000000000000    0.0000000000000000    0.5000000000000000 Be
   0.5000000000000000    0.5000000000000000    0.0000000000000000 Be
   0.0000000000000000    0.0000000000000000    0.0000000000000000 Fe
