Tl90
1.0
   6.2358827861240060    0.0000000000000000    7.2005772104072960
   0.0000000000000040   25.1306215242742965    3.6002886052036502
   0.0000000000000000    0.0000000000000000   43.2034632624437975
Tl
90
Selective dynamics
direct
   0.5000000000000000    0.0000000000000001    0.3263888888888890 T T T Tl
   0.0000000000000000    0.0000000000000000    0.3680555555555556 T T T Tl
   0.8333333333333321    0.1124319117169251    0.3447973406902562 T T T Tl
   0.3333333333333322    0.1124319117169250    0.3031306740235895 T T T Tl
   0.5000000000000000    0.2209014216164107    0.3079804370875214 T T T Tl
   0.0000000000000000    0.2209014216164107    0.3496471037541881 T T T Tl
   0.6666666666666679    0.6666666666666643    0.3680555555555559 T T T Tl
   0.1666666666666679    0.6666666666666643    0.3263888888888892 T T T Tl
   0.5000000000000000    0.7790985783835893    0.3447973406902565 T T T Tl
   0.0000000000000000    0.7790985783835893    0.3031306740235898 T T T Tl
   0.6666666666666679    0.8875680882830750    0.3496471037541883 T T T Tl
   0.1666666666666679    0.8875680882830750    0.3079804370875217 T T T Tl
   0.8333333333333321    0.3333333333333357    0.3263888888888886 T T T Tl
   0.3333333333333322    0.3333333333333357    0.3680555555555553 T T T Tl
   0.6666666666666679    0.4457652450502608    0.3031306740235895 T T T Tl
   0.1666666666666679    0.4457652450502607    0.3447973406902562 T T T Tl
   0.8333333333333321    0.5542347549497393    0.3079804370875217 T T T Tl
   0.3333333333333322    0.5542347549497393    0.3496471037541883 T T T Tl
   0.5000000000000000    0.0000000000000001    0.4097222222222223 F F F Tl
   0.0000000000000000    0.0000000000000000    0.4513888888888890 F F F Tl
   0.8333333333333321    0.1124319117169251    0.4281306740235895 F F F Tl
   0.3333333333333322    0.1124319117169250    0.3864640073569229 T T T Tl
   0.5000000000000000    0.2209014216164107    0.3913137704208547 T T T Tl
   0.0000000000000000    0.2209014216164107    0.4329804370875214 F F F Tl
   0.6666666666666679    0.6666666666666643    0.4513888888888892 F F F Tl
   0.1666666666666679    0.6666666666666643    0.4097222222222225 F F F Tl
   0.5000000000000000    0.7790985783835893    0.4281306740235898 F F F Tl
   0.0000000000000000    0.7790985783835893    0.3864640073569232 T T T Tl
   0.6666666666666679    0.8875680882830750    0.4329804370875217 F F F Tl
   0.1666666666666679    0.8875680882830750    0.3913137704208550 T T T Tl
   0.8333333333333321    0.3333333333333357    0.4097222222222220 F F F Tl
   0.3333333333333322    0.3333333333333357    0.4513888888888886 F F F Tl
   0.6666666666666679    0.4457652450502608    0.3864640073569229 T T T Tl
   0.1666666666666679    0.4457652450502607    0.4281306740235895 F F F Tl
   0.8333333333333321    0.5542347549497393    0.3913137704208550 T T T Tl
   0.3333333333333322    0.5542347549497393    0.4329804370875217 F F F Tl
   0.5000000000000000    0.0000000000000001    0.4930555555555556 F F F Tl
   0.0000000000000000    0.0000000000000000    0.5347222222222223 F F F Tl
   0.8333333333333321    0.1124319117169251    0.5114640073569229 F F F Tl
   0.3333333333333322    0.1124319117169250    0.4697973406902562 F F F Tl
   0.5000000000000000    0.2209014216164107    0.4746471037541881 F F F Tl
   0.0000000000000000    0.2209014216164107    0.5163137704208547 F F F Tl
   0.6666666666666679    0.6666666666666643    0.5347222222222225 F F F Tl
   0.1666666666666679    0.6666666666666643    0.4930555555555559 F F F Tl
   0.5000000000000000    0.7790985783835893    0.5114640073569231 F F F Tl
   0.0000000000000000    0.7790985783835893    0.4697973406902565 F F F Tl
   0.6666666666666679    0.8875680882830750    0.5163137704208550 F F F Tl
   0.1666666666666679    0.8875680882830750    0.4746471037541883 F F F Tl
   0.8333333333333321    0.3333333333333357    0.4930555555555553 F F F Tl
   0.3333333333333322    0.3333333333333357    0.5347222222222220 F F F Tl
   0.6666666666666679    0.4457652450502608    0.4697973406902562 F F F Tl
   0.1666666666666679    0.4457652450502607    0.5114640073569229 F F F Tl
   0.8333333333333321    0.5542347549497393    0.4746471037541883 F F F Tl
   0.3333333333333322    0.5542347549497393    0.5163137704208550 F F F Tl
   0.5000000000000000    0.0000000000000001    0.5763888888888890 F F F Tl
   0.0000000000000000    0.0000000000000000    0.6180555555555556 T T T Tl
   0.8333333333333321    0.1124319117169251    0.5947973406902562 F F F Tl
   0.3333333333333322    0.1124319117169250    0.5531306740235895 F F F Tl
   0.5000000000000000    0.2209014216164107    0.5579804370875214 F F F Tl
   0.0000000000000000    0.2209014216164107    0.5996471037541881 T T T Tl
   0.6666666666666679    0.6666666666666643    0.6180555555555559 T T T Tl
   0.1666666666666679    0.6666666666666643    0.5763888888888893 F F F Tl
   0.5000000000000000    0.7790985783835893    0.5947973406902565 F F F Tl
   0.0000000000000000    0.7790985783835893    0.5531306740235898 F F F Tl
   0.6666666666666679    0.8875680882830750    0.5996471037541884 T T T Tl
   0.1666666666666679    0.8875680882830750    0.5579804370875217 F F F Tl
   0.8333333333333321    0.3333333333333357    0.5763888888888886 F F F Tl
   0.3333333333333322    0.3333333333333357    0.6180555555555554 T T T Tl
   0.6666666666666679    0.4457652450502608    0.5531306740235895 F F F Tl
   0.1666666666666679    0.4457652450502607    0.5947973406902562 F F F Tl
   0.8333333333333321    0.5542347549497393    0.5579804370875217 F F F Tl
   0.3333333333333322    0.5542347549497393    0.5996471037541884 T T T Tl
   0.5000000000000000    0.0000000000000001    0.6597222222222223 T T T Tl
   0.0000000000000000    0.0000000000000000    0.7013888888888888 T T T Tl
   0.8333333333333321    0.1124319117169251    0.6781306740235895 T T T Tl
   0.3333333333333322    0.1124319117169250    0.6364640073569228 T T T Tl
   0.5000000000000000    0.2209014216164107    0.6413137704208547 T T T Tl
   0.0000000000000000    0.2209014216164107    0.6829804370875214 T T T Tl
   0.6666666666666679    0.6666666666666643    0.7013888888888893 T T T Tl
   0.1666666666666679    0.6666666666666643    0.6597222222222225 T T T Tl
   0.5000000000000000    0.7790985783835893    0.6781306740235897 T T T Tl
   0.0000000000000000    0.7790985783835893    0.6364640073569232 T T T Tl
   0.6666666666666679    0.8875680882830750    0.6829804370875217 T T T Tl
   0.1666666666666679    0.8875680882830750    0.6413137704208549 T T T Tl
   0.8333333333333321    0.3333333333333357    0.6597222222222219 T T T Tl
   0.3333333333333322    0.3333333333333357    0.7013888888888886 T T T Tl
   0.6666666666666679    0.4457652450502608    0.6364640073569228 T T T Tl
   0.1666666666666679    0.4457652450502607    0.6781306740235895 T T T Tl
   0.8333333333333321    0.5542347549497393    0.6413137704208549 T T T Tl
   0.3333333333333322    0.5542347549497393    0.6829804370875217 T T T Tl

   0.0000000000000000    0.0000000000000000    0.0000000000000000
   0.0000000000000000    0.0000000000000000    0.0000000000000000
   0.0000000000000000    0.0000000000000000    0.0000000000000000
   0.0000000000000000    0.0000000000000000    0.0000000000000000
   0.0000000000000000    0.0000000000000000    0.0000000000000000
   0.0000000000000000    0.0000000000000000    0.0000000000000000
   0.0000000000000000    0.0000000000000000    0.0000000000000000
   0.0000000000000000    0.0000000000000000    0.0000000000000000
   0.0000000000000000    0.0000000000000000    0.0000000000000000
   0.0000000000000000    0.0000000000000000    0.0000000000000000
   0.0000000000000000    0.0000000000000000    0.0000000000000000
   0.0000000000000000    0.0000000000000000    0.0000000000000000
   0.0000000000000000    0.0000000000000000    0.0000000000000000
   0.0000000000000000    0.0000000000000000    0.0000000000000000
   0.0000000000000000    0.0000000000000000    0.0000000000000000
   0.0000000000000000    0.0000000000000000    0.0000000000000000
   0.0000000000000000    0.0000000000000000    0.0000000000000000
   0.0000000000000000    0.0000000000000000    0.0000000000000000
   0.0000000000000000    0.0000000000000000    0.0000000000000000
   0.0000000000000000    0.0000000000000000    0.0000000000000000
   0.0000000000000000    0.0000000000000000    0.0000000000000000
   0.0000000000000000    0.0000000000000000    0.0000000000000000
   0.0000000000000000    0.0000000000000000    0.0000000000000000
   0.0000000000000000    0.0000000000000000    0.0000000000000000
   0.0000000000000000    0.0000000000000000    0.0000000000000000
   0.0000000000000000    0.0000000000000000    0.0000000000000000
   0.0000000000000000    0.0000000000000000    0.0000000000000000
   0.0000000000000000    0.0000000000000000    0.0000000000000000
   0.0000000000000000    0.0000000000000000    0.0000000000000000
   0.0000000000000000    0.0000000000000000    0.0000000000000000
   0.0000000000000000    0.0000000000000000    0.0000000000000000
   0.0000000000000000    0.0000000000000000    0.0000000000000000
   0.0000000000000000    0.0000000000000000    0.0000000000000000
   0.0000000000000000    0.0000000000000000    0.0000000000000000
   0.0000000000000000    0.0000000000000000    0.0000000000000000
   0.0000000000000000    0.0000000000000000    0.0000000000000000
   0.0000000000000000    0.0000000000000000    0.0000000000000000
   0.0000000000000000    0.0000000000000000    0.0000000000000000
   0.0000000000000000    0.0000000000000000    0.0000000000000000
   0.0000000000000000    0.0000000000000000    0.0000000000000000
   0.0000000000000000    0.0000000000000000    0.0000000000000000
   0.0000000000000000    0.0000000000000000    0.0000000000000000
   0.0000000000000000    0.0000000000000000    0.0000000000000000
   0.0000000000000000    0.0000000000000000    0.0000000000000000
   0.0000000000000000    0.0000000000000000    0.0000000000000000
   0.0000000000000000    0.0000000000000000    0.0000000000000000
   0.0000000000000000    0.0000000000000000    0.0000000000000000
   0.0000000000000000    0.0000000000000000    0.0000000000000000
   0.0000000000000000    0.0000000000000000    0.0000000000000000
   0.0000000000000000    0.0000000000000000    0.0000000000000000
   0.0000000000000000    0.0000000000000000    0.0000000000000000
   0.0000000000000000    0.0000000000000000    0.0000000000000000
   0.0000000000000000    0.0000000000000000    0.0000000000000000
   0.0000000000000000    0.0000000000000000    0.0000000000000000
   0.0000000000000000    0.0000000000000000    0.0000000000000000
   0.0000000000000000    0.0000000000000000    0.0000000000000000
   0.0000000000000000    0.0000000000000000    0.0000000000000000
   0.0000000000000000    0.0000000000000000    0.0000000000000000
   0.0000000000000000    0.0000000000000000    0.0000000000000000
   0.0000000000000000    0.0000000000000000    0.0000000000000000
   0.0000000000000000    0.0000000000000000    0.0000000000000000
   0.0000000000000000    0.0000000000000000    0.0000000000000000
   0.0000000000000000    0.0000000000000000    0.0000000000000000
   0.0000000000000000    0.0000000000000000    0.0000000000000000
   0.0000000000000000    0.0000000000000000    0.0000000000000000
   0.0000000000000000    0.0000000000000000    0.0000000000000000
   0.0000000000000000    0.0000000000000000    0.0000000000000000
   0.0000000000000000    0.0000000000000000    0.0000000000000000
   0.0000000000000000    0.0000000000000000    0.0000000000000000
   0.0000000000000000    0.0000000000000000    0.0000000000000000
   0.0000000000000000    0.0000000000000000    0.0000000000000000
   0.0000000000000000    0.0000000000000000    0.0000000000000000
   0.0000000000000000    0.0000000000000000    0.0000000000000000
   0.0000000000000000    0.0000000000000000    0.0000000000000000
   0.0000000000000000    0.0000000000000000    0.0000000000000000
   0.0000000000000000    0.0000000000000000    0.0000000000000000
   0.0000000000000000    0.0000000000000000    0.0000000000000000
   0.0000000000000000    0.0000000000000000    0.0000000000000000
   0.0000000000000000    0.0000000000000000    0.0000000000000000
   0.0000000000000000    0.0000000000000000    0.0000000000000000
   0.0000000000000000    0.0000000000000000    0.0000000000000000
   0.0000000000000000    0.0000000000000000    0.0000000000000000
   0.0000000000000000    0.0000000000000000    0.0000000000000000
   0.0000000000000000    0.0000000000000000    0.0000000000000000
   0.0000000000000000    0.0000000000000000    0.0000000000000000
   0.0000000000000000    0.0000000000000000    0.0000000000000000
   0.0000000000000000    0.0000000000000000    0.0000000000000000
   0.0000000000000000    0.0000000000000000    0.0000000000000000
   0.0000000000000000    0.0000000000000000    0.0000000000000000
   0.0000000000000000    0.0000000000000000    0.0000000000000000
