Y36
1.0
   3.1309353195110772    0.0000000000000000   -1.8076463495350283
   0.0000000000000041   25.7956400597195241    7.2305853981401089
   0.0000000000000000    0.0000000000000000   32.5376342916304964
Y
36
Selective dynamics
direct
   0.0000000000000000    0.0000000000000000    0.3333333333333334 T T T Y
   0.6666666666666643    0.8884184474144519    0.2840551598338258 T T T Y
   0.0000000000000000    0.7782482192522194    0.3826115068328401 T T T Y
   0.3333333333333357    0.3333333333333357    0.3333333333333325 T T T Y
   0.0000000000000000    0.2217517807477805    0.2840551598338266 T T T Y
   0.3333333333333357    0.1115815525855481    0.3826115068328409 T T T Y
   0.6666666666666643    0.6666666666666643    0.3333333333333341 T T T Y
   0.3333333333333357    0.5550851140811162    0.2840551598338258 T T T Y
   0.6666666666666643    0.4449148859188838    0.3826115068328409 T T T Y
   0.0000000000000000    0.0000000000000000    0.4444444444444444 F F F Y
   0.6666666666666643    0.8884184474144519    0.3951662709449369 F F F Y
   0.0000000000000000    0.7782482192522194    0.4937226179439512 F F F Y
   0.3333333333333357    0.3333333333333357    0.4444444444444436 F F F Y
   0.0000000000000000    0.2217517807477805    0.3951662709449377 F F F Y
   0.3333333333333357    0.1115815525855481    0.4937226179439520 F F F Y
   0.6666666666666643    0.6666666666666643    0.4444444444444453 F F F Y
   0.3333333333333357    0.5550851140811162    0.3951662709449369 F F F Y
   0.6666666666666643    0.4449148859188838    0.4937226179439520 F F F Y
   0.0000000000000000    0.0000000000000000    0.5555555555555556 F F F Y
   0.6666666666666643    0.8884184474144519    0.5062773820560480 F F F Y
   0.0000000000000000    0.7782482192522194    0.6048337290550623 F F F Y
   0.3333333333333357    0.3333333333333357    0.5555555555555547 F F F Y
   0.0000000000000000    0.2217517807477805    0.5062773820560488 F F F Y
   0.3333333333333357    0.1115815525855481    0.6048337290550632 F F F Y
   0.6666666666666643    0.6666666666666643    0.5555555555555564 F F F Y
   0.3333333333333357    0.5550851140811162    0.5062773820560480 F F F Y
   0.6666666666666643    0.4449148859188838    0.6048337290550632 F F F Y
   0.0000000000000000    0.0000000000000000    0.6666666666666666 T T T Y
   0.6666666666666643    0.8884184474144519    0.6173884931671592 T T T Y
   0.0000000000000000    0.7782482192522194    0.7159448401661734 T T T Y
   0.3333333333333357    0.3333333333333357    0.6666666666666659 T T T Y
   0.0000000000000000    0.2217517807477805    0.6173884931671598 T T T Y
   0.3333333333333357    0.1115815525855481    0.7159448401661742 T T T Y
   0.6666666666666643    0.6666666666666643    0.6666666666666674 T T T Y
   0.3333333333333357    0.5550851140811162    0.6173884931671592 T T T Y
   0.6666666666666643    0.4449148859188838    0.7159448401661742 T T T Y

   0.0000000000000000    0.0000000000000000    0.0000000000000000
   0.0000000000000000    0.0000000000000000    0.0000000000000000
   0.0000000000000000    0.0000000000000000    0.0000000000000000
   0.0000000000000000    0.0000000000000000    0.0000000000000000
   0.0000000000000000    0.0000000000000000    0.0000000000000000
   0.0000000000000000    0.0000000000000000    0.0000000000000000
   0.0000000000000000    0.0000000000000000    0.0000000000000000
   0.0000000000000000    0.0000000000000000    0.0000000000000000
   0.0000000000000000    0.0000000000000000    0.0000000000000000
   0.0000000000000000    0.0000000000000000    0.0000000000000000
   0.0000000000000000    0.0000000000000000    0.0000000000000000
   0.0000000000000000    0.0000000000000000    0.0000000000000000
   0.0000000000000000    0.0000000000000000    0.0000000000000000
   0.0000000000000000    0.0000000000000000    0.0000000000000000
   0.0000000000000000    0.0000000000000000    0.0000000000000000
   0.0000000000000000    0.0000000000000000    0.0000000000000000
   0.0000000000000000    0.0000000000000000    0.0000000000000000
   0.0000000000000000    0.0000000000000000    0.0000000000000000
   0.0000000000000000    0.0000000000000000    0.0000000000000000
   0.0000000000000000    0.0000000000000000    0.0000000000000000
   0.0000000000000000    0.0000000000000000    0.0000000000000000
   0.0000000000000000    0.0000000000000000    0.0000000000000000
   0.0000000000000000    0.0000000000000000    0.0000000000000000
   0.0000000000000000    0.0000000000000000    0.0000000000000000
   0.0000000000000000    0.0000000000000000    0.0000000000000000
   0.0000000000000000    0.0000000000000000    0.0000000000000000
   0.0000000000000000    0.0000000000000000    0.0000000000000000
   0.0000000000000000    0.0000000000000000    0.0000000000000000
   0.0000000000000000    0.0000000000000000    0.0000000000000000
   0.0000000000000000    0.0000000000000000    0.0000000000000000
   0.0000000000000000    0.0000000000000000    0.0000000000000000
   0.0000000000000000    0.0000000000000000    0.0000000000000000
   0.0000000000000000    0.0000000000000000    0.0000000000000000
   0.0000000000000000    0.0000000000000000    0.0000000000000000
   0.0000000000000000    0.0000000000000000    0.0000000000000000
   0.0000000000000000    0.0000000000000000    0.0000000000000000
