Te15
1.0
   3.9060349739836036    0.0000000000000000    6.7654510310806026
   3.9060349739836022    5.9678410788552094    2.2551503436935425
   0.0000000000000000    0.0000000000000000   58.6339089360317800
Te
15
Selective dynamics
direct
   0.3982338947959079    0.3333333333333357    0.3668025209131350 T T T Te
   0.3333333333333356    0.6666666666666643    0.3155204696310834 T T T Te
   0.2684327718707492    0.0000000000000000    0.3561385479173203 T T T Te
   0.3982338947959079    0.3333333333333357    0.4437255978362119 F F F Te
   0.3333333333333356    0.6666666666666643    0.3924435465541602 T T T Te
   0.2684327718707492    0.0000000000000000    0.4330616248403972 F F F Te
   0.3982338947959079    0.3333333333333357    0.5206486747592889 F F F Te
   0.3333333333333356    0.6666666666666643    0.4693666234772372 F F F Te
   0.2684327718707492    0.0000000000000000    0.5099847017634742 F F F Te
   0.3982338947959079    0.3333333333333357    0.5975717516823658 T T T Te
   0.3333333333333356    0.6666666666666643    0.5462897004003141 F F F Te
   0.2684327718707492    0.0000000000000000    0.5869077786865511 T T T Te
   0.3982338947959079    0.3333333333333357    0.6744948286054427 T T T Te
   0.3333333333333356    0.6666666666666643    0.6232127773233911 T T T Te
   0.2684327718707492    0.0000000000000000    0.6638308556096280 T T T Te

   0.0000000000000000    0.0000000000000000    0.0000000000000000
   0.0000000000000000    0.0000000000000000    0.0000000000000000
   0.0000000000000000    0.0000000000000000    0.0000000000000000
   0.0000000000000000    0.0000000000000000    0.0000000000000000
   0.0000000000000000    0.0000000000000000    0.0000000000000000
   0.0000000000000000    0.0000000000000000    0.0000000000000000
   0.0000000000000000    0.0000000000000000    0.0000000000000000
   0.0000000000000000    0.0000000000000000    0.0000000000000000
   0.0000000000000000    0.0000000000000000    0.0000000000000000
   0.0000000000000000    0.0000000000000000    0.0000000000000000
   0.0000000000000000    0.0000000000000000    0.0000000000000000
   0.0000000000000000    0.0000000000000000    0.0000000000000000
   0.0000000000000000    0.0000000000000000    0.0000000000000000
   0.0000000000000000    0.0000000000000000    0.0000000000000000
   0.0000000000000000    0.0000000000000000    0.0000000000000000
