Ru20
1.0
   2.3578154257406547    0.0000000000000000   -1.3612853707508199
  -0.0000000000000024    8.5656649405145213   -2.7225707415016389
   0.0000000000000000    0.0000000000000000   32.6708488980196634
Ru
20
Selective dynamics
direct
   0.6666666666666643    0.1250000000000000    0.3090277777777780 T T T Ru
   0.6666666666666643    0.6250000000000000    0.3506944444444446 T T T Ru
   0.3333333333333357    0.3749999999999999    0.3576388888888887 T T T Ru
   0.3333333333333357    0.8749999999999999    0.3159722222222220 T T T Ru
   0.6666666666666643    0.1250000000000000    0.3923611111111113 T T T Ru
   0.6666666666666643    0.6250000000000000    0.4340277777777780 F F F Ru
   0.3333333333333357    0.3749999999999999    0.4409722222222220 F F F Ru
   0.3333333333333357    0.8749999999999999    0.3993055555555554 T T T Ru
   0.6666666666666643    0.1250000000000000    0.4756944444444446 F F F Ru
   0.6666666666666643    0.6250000000000000    0.5173611111111114 F F F Ru
   0.3333333333333357    0.3749999999999999    0.5243055555555554 F F F Ru
   0.3333333333333357    0.8749999999999999    0.4826388888888887 F F F Ru
   0.6666666666666643    0.1250000000000000    0.5590277777777780 F F F Ru
   0.6666666666666643    0.6250000000000000    0.6006944444444446 T T T Ru
   0.3333333333333357    0.3749999999999999    0.6076388888888887 T T T Ru
   0.3333333333333357    0.8749999999999999    0.5659722222222221 F F F Ru
   0.6666666666666643    0.1250000000000000    0.6423611111111114 T T T Ru
   0.6666666666666643    0.6250000000000000    0.6840277777777779 T T T Ru
   0.3333333333333357    0.3749999999999999    0.6909722222222221 T T T Ru
   0.3333333333333357    0.8749999999999999    0.6493055555555554 T T T Ru

   0.0000000000000000    0.0000000000000000    0.0000000000000000
   0.0000000000000000    0.0000000000000000    0.0000000000000000
   0.0000000000000000    0.0000000000000000    0.0000000000000000
   0.0000000000000000    0.0000000000000000    0.0000000000000000
   0.0000000000000000    0.0000000000000000    0.0000000000000000
   0.0000000000000000    0.0000000000000000    0.0000000000000000
   0.0000000000000000    0.0000000000000000    0.0000000000000000
   0.0000000000000000    0.0000000000000000    0.0000000000000000
   0.0000000000000000    0.0000000000000000    0.0000000000000000
   0.0000000000000000    0.0000000000000000    0.0000000000000000
   0.0000000000000000    0.0000000000000000    0.0000000000000000
   0.0000000000000000    0.0000000000000000    0.0000000000000000
   0.0000000000000000    0.0000000000000000    0.0000000000000000
   0.0000000000000000    0.0000000000000000    0.0000000000000000
   0.0000000000000000    0.0000000000000000    0.0000000000000000
   0.0000000000000000    0.0000000000000000    0.0000000000000000
   0.0000000000000000    0.0000000000000000    0.0000000000000000
   0.0000000000000000    0.0000000000000000    0.0000000000000000
   0.0000000000000000    0.0000000000000000    0.0000000000000000
   0.0000000000000000    0.0000000000000000    0.0000000000000000
