Li36
1.0
   2.6679094860353216    0.0000000000000000   -1.5403182599360465
  -0.0000000000000014   22.6525162828364657    6.1612730397441906
   0.0000000000000000    0.0000000000000000   30.8063651987209646
Li
36
Selective dynamics
direct
   0.3333333333333357    0.1105268186807180    0.3278946362638562 T T T Li
   0.0000000000000000    0.2228065146526106    0.3387720304028112 T T T Li
   0.0000000000000000    0.0000000000000000    0.3833333333333333 T T T Li
   0.6666666666666643    0.4438601520140537    0.3278946362638562 T T T Li
   0.3333333333333357    0.5561398479859463    0.3387720304028105 T T T Li
   0.3333333333333357    0.3333333333333357    0.3833333333333326 T T T Li
   0.0000000000000000    0.7771934853473894    0.3278946362638555 T T T Li
   0.6666666666666643    0.8894731813192819    0.3387720304028105 T T T Li
   0.6666666666666643    0.6666666666666643    0.3833333333333341 T T T Li
   0.3333333333333357    0.1105268186807180    0.4278946362638562 T T T Li
   0.0000000000000000    0.2228065146526106    0.4387720304028112 T T T Li
   0.0000000000000000    0.0000000000000000    0.4833333333333333 F F F Li
   0.6666666666666643    0.4438601520140537    0.4278946362638562 T T T Li
   0.3333333333333357    0.5561398479859463    0.4387720304028105 T T T Li
   0.3333333333333357    0.3333333333333357    0.4833333333333326 F F F Li
   0.0000000000000000    0.7771934853473894    0.4278946362638555 T T T Li
   0.6666666666666643    0.8894731813192819    0.4387720304028105 T T T Li
   0.6666666666666643    0.6666666666666643    0.4833333333333341 F F F Li
   0.3333333333333357    0.1105268186807180    0.5278946362638561 F F F Li
   0.0000000000000000    0.2228065146526106    0.5387720304028112 F F F Li
   0.0000000000000000    0.0000000000000000    0.5833333333333333 T T T Li
   0.6666666666666643    0.4438601520140537    0.5278946362638561 F F F Li
   0.3333333333333357    0.5561398479859463    0.5387720304028105 F F F Li
   0.3333333333333357    0.3333333333333357    0.5833333333333326 T T T Li
   0.0000000000000000    0.7771934853473894    0.5278946362638555 F F F Li
   0.6666666666666643    0.8894731813192819    0.5387720304028105 F F F Li
   0.6666666666666643    0.6666666666666643    0.5833333333333341 T T T Li
   0.3333333333333357    0.1105268186807180    0.6278946362638562 T T T Li
   0.0000000000000000    0.2228065146526106    0.6387720304028113 T T T Li
   0.0000000000000000    0.0000000000000000    0.6833333333333333 T T T Li
   0.6666666666666643    0.4438601520140537    0.6278946362638562 T T T Li
   0.3333333333333357    0.5561398479859463    0.6387720304028105 T T T Li
   0.3333333333333357    0.3333333333333357    0.6833333333333327 T T T Li
   0.0000000000000000    0.7771934853473894    0.6278946362638554 T T T Li
   0.6666666666666643    0.8894731813192819    0.6387720304028105 T T T Li
   0.6666666666666643    0.6666666666666643    0.6833333333333340 T T T Li

   0.0000000000000000    0.0000000000000000    0.0000000000000000
   0.0000000000000000    0.0000000000000000    0.0000000000000000
   0.0000000000000000    0.0000000000000000    0.0000000000000000
   0.0000000000000000    0.0000000000000000    0.0000000000000000
   0.0000000000000000    0.0000000000000000    0.0000000000000000
   0.0000000000000000    0.0000000000000000    0.0000000000000000
   0.0000000000000000    0.0000000000000000    0.0000000000000000
   0.0000000000000000    0.0000000000000000    0.0000000000000000
   0.0000000000000000    0.0000000000000000    0.0000000000000000
   0.0000000000000000    0.0000000000000000    0.0000000000000000
   0.0000000000000000    0.0000000000000000    0.0000000000000000
   0.0000000000000000    0.0000000000000000    0.0000000000000000
   0.0000000000000000    0.0000000000000000    0.0000000000000000
   0.0000000000000000    0.0000000000000000    0.0000000000000000
   0.0000000000000000    0.0000000000000000    0.0000000000000000
   0.0000000000000000    0.0000000000000000    0.0000000000000000
   0.0000000000000000    0.0000000000000000    0.0000000000000000
   0.0000000000000000    0.0000000000000000    0.0000000000000000
   0.0000000000000000    0.0000000000000000    0.0000000000000000
   0.0000000000000000    0.0000000000000000    0.0000000000000000
   0.0000000000000000    0.0000000000000000    0.0000000000000000
   0.0000000000000000    0.0000000000000000    0.0000000000000000
   0.0000000000000000    0.0000000000000000    0.0000000000000000
   0.0000000000000000    0.0000000000000000    0.0000000000000000
   0.0000000000000000    0.0000000000000000    0.0000000000000000
   0.0000000000000000    0.0000000000000000    0.0000000000000000
   0.0000000000000000    0.0000000000000000    0.0000000000000000
   0.0000000000000000    0.0000000000000000    0.0000000000000000
   0.0000000000000000    0.0000000000000000    0.0000000000000000
   0.0000000000000000    0.0000000000000000    0.0000000000000000
   0.0000000000000000    0.0000000000000000    0.0000000000000000
   0.0000000000000000    0.0000000000000000    0.0000000000000000
   0.0000000000000000    0.0000000000000000    0.0000000000000000
   0.0000000000000000    0.0000000000000000    0.0000000000000000
   0.0000000000000000    0.0000000000000000    0.0000000000000000
   0.0000000000000000    0.0000000000000000    0.0000000000000000
