In72
1.0
   2.9472725421062838    0.0000000000000000   -1.7016085955604869
  -0.0000000000000141   49.6107749306032062   -3.4032171911204321
   0.0000000000000000    0.0000000000000000   34.0321719112044079
In
72
Selective dynamics
direct
   0.0000000000000000    0.0000000000000000    0.3972222222222220 T T T In
   0.0000000000000001    0.5000000000000000    0.3472222222222220 T T T In
   0.3333333333333357    0.0556849006506930    0.3694573789539577 T T T In
   0.3333333333333358    0.5556849006506930    0.3194573789539577 T T T In
   0.0000000000000000    0.1109817660159678    0.3083203988238187 T T T In
   0.0000000000000001    0.6109817660159678    0.3583203988238188 T T T In
   0.3333333333333358    0.1666666666666679    0.3805555555555552 T T T In
   0.3333333333333358    0.6666666666666679    0.3305555555555552 T T T In
   0.6666666666666643    0.2223515673173821    0.3527907122872938 T T T In
   0.6666666666666644    0.7223515673173823    0.3027907122872938 T T T In
   0.3333333333333357    0.2776484326826427    0.3916537321571527 T T T In
   0.3333333333333358    0.7776484326826427    0.3416537321571527 T T T In
   0.6666666666666643    0.3333333333333321    0.3638888888888888 T T T In
   0.6666666666666644    0.8333333333333321    0.3138888888888888 T T T In
   0.0000000000000001    0.3890182339840252    0.3361240456206245 T T T In
   0.0000000000000001    0.8890182339840251    0.3861240456206245 T T T In
   0.6666666666666644    0.4443150993493106    0.3749870654904866 T T T In
   0.6666666666666644    0.9443150993493106    0.3249870654904866 T T T In
   0.0000000000000000    0.0000000000000000    0.4972222222222220 F F F In
   0.0000000000000001    0.5000000000000000    0.4472222222222220 F F F In
   0.3333333333333357    0.0556849006506930    0.4694573789539577 F F F In
   0.3333333333333358    0.5556849006506930    0.4194573789539577 F F F In
   0.0000000000000000    0.1109817660159678    0.4083203988238188 F F F In
   0.0000000000000001    0.6109817660159678    0.4583203988238188 F F F In
   0.3333333333333358    0.1666666666666679    0.4805555555555552 F F F In
   0.3333333333333358    0.6666666666666679    0.4305555555555552 F F F In
   0.6666666666666643    0.2223515673173821    0.4527907122872938 F F F In
   0.6666666666666644    0.7223515673173823    0.4027907122872938 T T T In
   0.3333333333333357    0.2776484326826427    0.4916537321571527 F F F In
   0.3333333333333358    0.7776484326826427    0.4416537321571527 F F F In
   0.6666666666666643    0.3333333333333321    0.4638888888888888 F F F In
   0.6666666666666644    0.8333333333333321    0.4138888888888888 F F F In
   0.0000000000000001    0.3890182339840252    0.4361240456206245 F F F In
   0.0000000000000001    0.8890182339840251    0.4861240456206245 F F F In
   0.6666666666666644    0.4443150993493106    0.4749870654904866 F F F In
   0.6666666666666644    0.9443150993493106    0.4249870654904866 F F F In
   0.0000000000000000    0.0000000000000000    0.5972222222222220 T T T In
   0.0000000000000001    0.5000000000000000    0.5472222222222221 F F F In
   0.3333333333333357    0.0556849006506930    0.5694573789539576 F F F In
   0.3333333333333358    0.5556849006506930    0.5194573789539577 F F F In
   0.0000000000000000    0.1109817660159678    0.5083203988238187 F F F In
   0.0000000000000001    0.6109817660159678    0.5583203988238188 F F F In
   0.3333333333333358    0.1666666666666679    0.5805555555555553 F F F In
   0.3333333333333358    0.6666666666666679    0.5305555555555552 F F F In
   0.6666666666666643    0.2223515673173821    0.5527907122872937 F F F In
   0.6666666666666644    0.7223515673173823    0.5027907122872938 F F F In
   0.3333333333333357    0.2776484326826427    0.5916537321571527 F F F In
   0.3333333333333358    0.7776484326826427    0.5416537321571526 F F F In
   0.6666666666666643    0.3333333333333321    0.5638888888888888 F F F In
   0.6666666666666644    0.8333333333333321    0.5138888888888888 F F F In
   0.0000000000000001    0.3890182339840252    0.5361240456206244 F F F In
   0.0000000000000001    0.8890182339840251    0.5861240456206245 F F F In
   0.6666666666666644    0.4443150993493106    0.5749870654904866 F F F In
   0.6666666666666644    0.9443150993493106    0.5249870654904867 F F F In
   0.0000000000000000    0.0000000000000000    0.6972222222222220 T T T In
   0.0000000000000001    0.5000000000000000    0.6472222222222219 T T T In
   0.3333333333333357    0.0556849006506930    0.6694573789539577 T T T In
   0.3333333333333358    0.5556849006506930    0.6194573789539577 T T T In
   0.0000000000000000    0.1109817660159678    0.6083203988238187 T T T In
   0.0000000000000001    0.6109817660159678    0.6583203988238188 T T T In
   0.3333333333333358    0.1666666666666679    0.6805555555555551 T T T In
   0.3333333333333358    0.6666666666666679    0.6305555555555552 T T T In
   0.6666666666666643    0.2223515673173821    0.6527907122872938 T T T In
   0.6666666666666644    0.7223515673173823    0.6027907122872938 T T T In
   0.3333333333333357    0.2776484326826427    0.6916537321571526 T T T In
   0.3333333333333358    0.7776484326826427    0.6416537321571527 T T T In
   0.6666666666666643    0.3333333333333321    0.6638888888888888 T T T In
   0.6666666666666644    0.8333333333333321    0.6138888888888887 T T T In
   0.0000000000000001    0.3890182339840252    0.6361240456206245 T T T In
   0.0000000000000001    0.8890182339840251    0.6861240456206245 T T T In
   0.6666666666666644    0.4443150993493106    0.6749870654904866 T T T In
   0.6666666666666644    0.9443150993493106    0.6249870654904865 T T T In

   0.0000000000000000    0.0000000000000000    0.0000000000000000
   0.0000000000000000    0.0000000000000000    0.0000000000000000
   0.0000000000000000    0.0000000000000000    0.0000000000000000
   0.0000000000000000    0.0000000000000000    0.0000000000000000
   0.0000000000000000    0.0000000000000000    0.0000000000000000
   0.0000000000000000    0.0000000000000000    0.0000000000000000
   0.0000000000000000    0.0000000000000000    0.0000000000000000
   0.0000000000000000    0.0000000000000000    0.0000000000000000
   0.0000000000000000    0.0000000000000000    0.0000000000000000
   0.0000000000000000    0.0000000000000000    0.0000000000000000
   0.0000000000000000    0.0000000000000000    0.0000000000000000
   0.0000000000000000    0.0000000000000000    0.0000000000000000
   0.0000000000000000    0.0000000000000000    0.0000000000000000
   0.0000000000000000    0.0000000000000000    0.0000000000000000
   0.0000000000000000    0.0000000000000000    0.0000000000000000
   0.0000000000000000    0.0000000000000000    0.0000000000000000
   0.0000000000000000    0.0000000000000000    0.0000000000000000
   0.0000000000000000    0.0000000000000000    0.0000000000000000
   0.0000000000000000    0.0000000000000000    0.0000000000000000
   0.0000000000000000    0.0000000000000000    0.0000000000000000
   0.0000000000000000    0.0000000000000000    0.0000000000000000
   0.0000000000000000    0.0000000000000000    0.0000000000000000
   0.0000000000000000    0.0000000000000000    0.0000000000000000
   0.0000000000000000    0.0000000000000000    0.0000000000000000
   0.0000000000000000    0.0000000000000000    0.0000000000000000
   0.0000000000000000    0.0000000000000000    0.0000000000000000
   0.0000000000000000    0.0000000000000000    0.0000000000000000
   0.0000000000000000    0.0000000000000000    0.0000000000000000
   0.0000000000000000    0.0000000000000000    0.0000000000000000
   0.0000000000000000    0.0000000000000000    0.0000000000000000
   0.0000000000000000    0.0000000000000000    0.0000000000000000
   0.0000000000000000    0.0000000000000000    0.0000000000000000
   0.0000000000000000    0.0000000000000000    0.0000000000000000
   0.0000000000000000    0.0000000000000000    0.0000000000000000
   0.0000000000000000    0.0000000000000000    0.0000000000000000
   0.0000000000000000    0.0000000000000000    0.0000000000000000
   0.0000000000000000    0.0000000000000000    0.0000000000000000
   0.0000000000000000    0.0000000000000000    0.0000000000000000
   0.0000000000000000    0.0000000000000000    0.0000000000000000
   0.0000000000000000    0.0000000000000000    0.0000000000000000
   0.0000000000000000    0.0000000000000000    0.0000000000000000
   0.0000000000000000    0.0000000000000000    0.0000000000000000
   0.0000000000000000    0.0000000000000000    0.0000000000000000
   0.0000000000000000    0.0000000000000000    0.0000000000000000
   0.0000000000000000    0.0000000000000000    0.0000000000000000
   0.0000000000000000    0.0000000000000000    0.0000000000000000
   0.0000000000000000    0.0000000000000000    0.0000000000000000
   0.0000000000000000    0.0000000000000000    0.0000000000000000
   0.0000000000000000    0.0000000000000000    0.0000000000000000
   0.0000000000000000    0.0000000000000000    0.0000000000000000
   0.0000000000000000    0.0000000000000000    0.0000000000000000
   0.0000000000000000    0.0000000000000000    0.0000000000000000
   0.0000000000000000    0.0000000000000000    0.0000000000000000
   0.0000000000000000    0.0000000000000000    0.0000000000000000
   0.0000000000000000    0.0000000000000000    0.0000000000000000
   0.0000000000000000    0.0000000000000000    0.0000000000000000
   0.0000000000000000    0.0000000000000000    0.0000000000000000
   0.0000000000000000    0.0000000000000000    0.0000000000000000
   0.0000000000000000    0.0000000000000000    0.0000000000000000
   0.0000000000000000    0.0000000000000000    0.0000000000000000
   0.0000000000000000    0.0000000000000000    0.0000000000000000
   0.0000000000000000    0.0000000000000000    0.0000000000000000
   0.0000000000000000    0.0000000000000000    0.0000000000000000
   0.0000000000000000    0.0000000000000000    0.0000000000000000
   0.0000000000000000    0.0000000000000000    0.0000000000000000
   0.0000000000000000    0.0000000000000000    0.0000000000000000
   0.0000000000000000    0.0000000000000000    0.0000000000000000
   0.0000000000000000    0.0000000000000000    0.0000000000000000
   0.0000000000000000    0.0000000000000000    0.0000000000000000
   0.0000000000000000    0.0000000000000000    0.0000000000000000
   0.0000000000000000    0.0000000000000000    0.0000000000000000
   0.0000000000000000    0.0000000000000000    0.0000000000000000
