In180
1.0
   5.8945450842125657    0.0000000000000000    6.8064343822414157
   0.0000000000000080   49.6107749306031991    3.4032171911204605
   0.0000000000000000    0.0000000000000000   40.8386062934452880
In
180
Selective dynamics
direct
   0.9999999999999999    0.5000000000000000    0.3263888888888887 T T T In
   0.4999999999999999    0.5000000000000000    0.3680555555555554 T T T In
   0.4999999999999999    0.0000000000000000    0.3263888888888887 T T T In
   0.0000000000000000    0.0000000000000000    0.3680555555555553 T T T In
   0.1666666666666679    0.4443150993493070    0.3449181861653354 T T T In
   0.6666666666666680    0.4443150993493070    0.3032515194986687 T T T In
   0.6666666666666679    0.9443150993493070    0.3449181861653354 T T T In
   0.1666666666666680    0.9443150993493070    0.3032515194986687 T T T In
   0.9999999999999998    0.3890182339840322    0.3356373693902193 T T T In
   0.4999999999999999    0.3890182339840322    0.2939707027235526 T T T In
   0.4999999999999999    0.8890182339840322    0.3356373693902193 T T T In
   0.0000000000000000    0.8890182339840322    0.2939707027235526 T T T In
   0.1666666666666679    0.3333333333333321    0.3541666666666666 T T T In
   0.6666666666666680    0.3333333333333321    0.3125000000000000 T T T In
   0.6666666666666679    0.8333333333333321    0.3541666666666666 T T T In
   0.1666666666666680    0.8333333333333321    0.3124999999999999 T T T In
   0.3333333333333321    0.2776484326826179    0.3726959639431149 T T T In
   0.8333333333333321    0.2776484326826179    0.3310292972764482 T T T In
   0.8333333333333321    0.7776484326826179    0.3726959639431148 T T T In
   0.3333333333333323    0.7776484326826179    0.3310292972764482 T T T In
   0.1666666666666678    0.2223515673173573    0.3634151471679979 T T T In
   0.6666666666666679    0.2223515673173573    0.3217484805013312 T T T In
   0.6666666666666679    0.7223515673173573    0.3634151471679979 T T T In
   0.1666666666666680    0.7223515673173573    0.3217484805013312 T T T In
   0.3333333333333321    0.1666666666666679    0.2986111111111107 T T T In
   0.8333333333333323    0.1666666666666679    0.3402777777777773 T T T In
   0.8333333333333321    0.6666666666666679    0.2986111111111107 T T T In
   0.3333333333333323    0.6666666666666679    0.3402777777777773 T T T In
   0.9999999999999998    0.1109817660159748    0.3588070750542241 T T T In
   0.4999999999999999    0.1109817660159748    0.3171404083875574 T T T In
   0.4999999999999998    0.6109817660159749    0.3588070750542241 T T T In
   0.0000000000000000    0.6109817660159749    0.3171404083875574 T T T In
   0.3333333333333321    0.0556849006506894    0.3078595916124422 T T T In
   0.8333333333333323    0.0556849006506894    0.3495262582791089 T T T In
   0.8333333333333321    0.5556849006506894    0.3078595916124422 T T T In
   0.3333333333333323    0.5556849006506894    0.3495262582791089 T T T In
   0.9999999999999999    0.5000000000000000    0.4097222222222220 F F F In
   0.4999999999999999    0.5000000000000000    0.4513888888888887 F F F In
   0.4999999999999999    0.0000000000000000    0.4097222222222220 F F F In
   0.0000000000000000    0.0000000000000000    0.4513888888888886 F F F In
   0.1666666666666679    0.4443150993493070    0.4282515194986687 F F F In
   0.6666666666666680    0.4443150993493070    0.3865848528320021 T T T In
   0.6666666666666679    0.9443150993493070    0.4282515194986687 F F F In
   0.1666666666666680    0.9443150993493070    0.3865848528320021 T T T In
   0.9999999999999998    0.3890182339840322    0.4189707027235526 F F F In
   0.4999999999999999    0.3890182339840322    0.3773040360568859 T T T In
   0.4999999999999999    0.8890182339840322    0.4189707027235526 F F F In
   0.0000000000000000    0.8890182339840322    0.3773040360568859 T T T In
   0.1666666666666679    0.3333333333333321    0.4375000000000000 F F F In
   0.6666666666666680    0.3333333333333321    0.3958333333333333 T T T In
   0.6666666666666679    0.8333333333333321    0.4374999999999999 F F F In
   0.1666666666666680    0.8333333333333321    0.3958333333333333 T T T In
   0.3333333333333321    0.2776484326826179    0.4560292972764482 F F F In
   0.8333333333333321    0.2776484326826179    0.4143626306097815 F F F In
   0.8333333333333321    0.7776484326826179    0.4560292972764481 F F F In
   0.3333333333333323    0.7776484326826179    0.4143626306097815 F F F In
   0.1666666666666678    0.2223515673173573    0.4467484805013312 F F F In
   0.6666666666666679    0.2223515673173573    0.4050818138346646 T T T In
   0.6666666666666679    0.7223515673173573    0.4467484805013312 F F F In
   0.1666666666666680    0.7223515673173573    0.4050818138346645 T T T In
   0.3333333333333321    0.1666666666666679    0.3819444444444440 T T T In
   0.8333333333333323    0.1666666666666679    0.4236111111111107 F F F In
   0.8333333333333321    0.6666666666666679    0.3819444444444440 T T T In
   0.3333333333333323    0.6666666666666679    0.4236111111111107 F F F In
   0.9999999999999998    0.1109817660159748    0.4421404083875574 F F F In
   0.4999999999999999    0.1109817660159748    0.4004737417208908 T T T In
   0.4999999999999998    0.6109817660159749    0.4421404083875574 F F F In
   0.0000000000000000    0.6109817660159749    0.4004737417208907 T T T In
   0.3333333333333321    0.0556849006506894    0.3911929249457756 T T T In
   0.8333333333333323    0.0556849006506894    0.4328595916124422 F F F In
   0.8333333333333321    0.5556849006506894    0.3911929249457756 T T T In
   0.3333333333333323    0.5556849006506894    0.4328595916124422 F F F In
   0.9999999999999999    0.5000000000000000    0.4930555555555554 F F F In
   0.4999999999999999    0.5000000000000000    0.5347222222222220 F F F In
   0.4999999999999999    0.0000000000000000    0.4930555555555553 F F F In
   0.0000000000000000    0.0000000000000000    0.5347222222222220 F F F In
   0.1666666666666679    0.4443150993493070    0.5115848528320021 F F F In
   0.6666666666666680    0.4443150993493070    0.4699181861653354 F F F In
   0.6666666666666679    0.9443150993493070    0.5115848528320021 F F F In
   0.1666666666666680    0.9443150993493070    0.4699181861653354 F F F In
   0.9999999999999998    0.3890182339840322    0.5023040360568860 F F F In
   0.4999999999999999    0.3890182339840322    0.4606373693902193 F F F In
   0.4999999999999999    0.8890182339840322    0.5023040360568860 F F F In
   0.0000000000000000    0.8890182339840322    0.4606373693902193 F F F In
   0.1666666666666679    0.3333333333333321    0.5208333333333333 F F F In
   0.6666666666666680    0.3333333333333321    0.4791666666666666 F F F In
   0.6666666666666679    0.8333333333333321    0.5208333333333333 F F F In
   0.1666666666666680    0.8333333333333321    0.4791666666666666 F F F In
   0.3333333333333321    0.2776484326826179    0.5393626306097815 F F F In
   0.8333333333333321    0.2776484326826179    0.4976959639431148 F F F In
   0.8333333333333321    0.7776484326826179    0.5393626306097815 F F F In
   0.3333333333333323    0.7776484326826179    0.4976959639431148 F F F In
   0.1666666666666678    0.2223515673173573    0.5300818138346646 F F F In
   0.6666666666666679    0.2223515673173573    0.4884151471679979 F F F In
   0.6666666666666679    0.7223515673173573    0.5300818138346646 F F F In
   0.1666666666666680    0.7223515673173573    0.4884151471679978 F F F In
   0.3333333333333321    0.1666666666666679    0.4652777777777773 F F F In
   0.8333333333333323    0.1666666666666679    0.5069444444444440 F F F In
   0.8333333333333321    0.6666666666666679    0.4652777777777773 F F F In
   0.3333333333333323    0.6666666666666679    0.5069444444444440 F F F In
   0.9999999999999998    0.1109817660159748    0.5254737417208908 F F F In
   0.4999999999999999    0.1109817660159748    0.4838070750542240 F F F In
   0.4999999999999998    0.6109817660159749    0.5254737417208908 F F F In
   0.0000000000000000    0.6109817660159749    0.4838070750542240 F F F In
   0.3333333333333321    0.0556849006506894    0.4745262582791089 F F F In
   0.8333333333333323    0.0556849006506894    0.5161929249457755 F F F In
   0.8333333333333321    0.5556849006506894    0.4745262582791089 F F F In
   0.3333333333333323    0.5556849006506894    0.5161929249457755 F F F In
   0.9999999999999999    0.5000000000000000    0.5763888888888886 F F F In
   0.4999999999999999    0.5000000000000000    0.6180555555555554 T T T In
   0.4999999999999999    0.0000000000000000    0.5763888888888886 F F F In
   0.0000000000000000    0.0000000000000000    0.6180555555555554 T T T In
   0.1666666666666679    0.4443150993493070    0.5949181861653354 T T T In
   0.6666666666666680    0.4443150993493070    0.5532515194986687 F F F In
   0.6666666666666679    0.9443150993493070    0.5949181861653354 T T T In
   0.1666666666666680    0.9443150993493070    0.5532515194986687 F F F In
   0.9999999999999998    0.3890182339840322    0.5856373693902193 F F F In
   0.4999999999999999    0.3890182339840322    0.5439707027235526 F F F In
   0.4999999999999999    0.8890182339840322    0.5856373693902193 F F F In
   0.0000000000000000    0.8890182339840322    0.5439707027235526 F F F In
   0.1666666666666679    0.3333333333333321    0.6041666666666666 T T T In
   0.6666666666666680    0.3333333333333321    0.5625000000000000 F F F In
   0.6666666666666679    0.8333333333333321    0.6041666666666666 T T T In
   0.1666666666666680    0.8333333333333321    0.5625000000000000 F F F In
   0.3333333333333321    0.2776484326826179    0.6226959639431149 T T T In
   0.8333333333333321    0.2776484326826179    0.5810292972764481 F F F In
   0.8333333333333321    0.7776484326826179    0.6226959639431149 T T T In
   0.3333333333333323    0.7776484326826179    0.5810292972764481 F F F In
   0.1666666666666678    0.2223515673173573    0.6134151471679978 T T T In
   0.6666666666666679    0.2223515673173573    0.5717484805013312 F F F In
   0.6666666666666679    0.7223515673173573    0.6134151471679978 T T T In
   0.1666666666666680    0.7223515673173573    0.5717484805013312 F F F In
   0.3333333333333321    0.1666666666666679    0.5486111111111107 F F F In
   0.8333333333333323    0.1666666666666679    0.5902777777777773 F F F In
   0.8333333333333321    0.6666666666666679    0.5486111111111107 F F F In
   0.3333333333333323    0.6666666666666679    0.5902777777777773 F F F In
   0.9999999999999998    0.1109817660159748    0.6088070750542240 T T T In
   0.4999999999999999    0.1109817660159748    0.5671404083875574 F F F In
   0.4999999999999998    0.6109817660159749    0.6088070750542240 T T T In
   0.0000000000000000    0.6109817660159749    0.5671404083875574 F F F In
   0.3333333333333321    0.0556849006506894    0.5578595916124423 F F F In
   0.8333333333333323    0.0556849006506894    0.5995262582791089 T T T In
   0.8333333333333321    0.5556849006506894    0.5578595916124423 F F F In
   0.3333333333333323    0.5556849006506894    0.5995262582791089 T T T In
   0.9999999999999999    0.5000000000000000    0.6597222222222220 T T T In
   0.4999999999999999    0.5000000000000000    0.7013888888888886 T T T In
   0.4999999999999999    0.0000000000000000    0.6597222222222220 T T T In
   0.0000000000000000    0.0000000000000000    0.7013888888888886 T T T In
   0.1666666666666679    0.4443150993493070    0.6782515194986687 T T T In
   0.6666666666666680    0.4443150993493070    0.6365848528320021 T T T In
   0.6666666666666679    0.9443150993493070    0.6782515194986687 T T T In
   0.1666666666666680    0.9443150993493070    0.6365848528320021 T T T In
   0.9999999999999998    0.3890182339840322    0.6689707027235526 T T T In
   0.4999999999999999    0.3890182339840322    0.6273040360568860 T T T In
   0.4999999999999999    0.8890182339840322    0.6689707027235526 T T T In
   0.0000000000000000    0.8890182339840322    0.6273040360568860 T T T In
   0.1666666666666679    0.3333333333333321    0.6875000000000000 T T T In
   0.6666666666666680    0.3333333333333321    0.6458333333333333 T T T In
   0.6666666666666679    0.8333333333333321    0.6875000000000000 T T T In
   0.1666666666666680    0.8333333333333321    0.6458333333333333 T T T In
   0.3333333333333321    0.2776484326826179    0.7060292972764481 T T T In
   0.8333333333333321    0.2776484326826179    0.6643626306097815 T T T In
   0.8333333333333321    0.7776484326826179    0.7060292972764481 T T T In
   0.3333333333333323    0.7776484326826179    0.6643626306097815 T T T In
   0.1666666666666678    0.2223515673173573    0.6967484805013312 T T T In
   0.6666666666666679    0.2223515673173573    0.6550818138346646 T T T In
   0.6666666666666679    0.7223515673173573    0.6967484805013312 T T T In
   0.1666666666666680    0.7223515673173573    0.6550818138346646 T T T In
   0.3333333333333321    0.1666666666666679    0.6319444444444440 T T T In
   0.8333333333333323    0.1666666666666679    0.6736111111111107 T T T In
   0.8333333333333321    0.6666666666666679    0.6319444444444440 T T T In
   0.3333333333333323    0.6666666666666679    0.6736111111111107 T T T In
   0.9999999999999998    0.1109817660159748    0.6921404083875574 T T T In
   0.4999999999999999    0.1109817660159748    0.6504737417208908 T T T In
   0.4999999999999998    0.6109817660159749    0.6921404083875574 T T T In
   0.0000000000000000    0.6109817660159749    0.6504737417208908 T T T In
   0.3333333333333321    0.0556849006506894    0.6411929249457755 T T T In
   0.8333333333333323    0.0556849006506894    0.6828595916124423 T T T In
   0.8333333333333321    0.5556849006506894    0.6411929249457755 T T T In
   0.3333333333333323    0.5556849006506894    0.6828595916124423 T T T In

   0.0000000000000000    0.0000000000000000    0.0000000000000000
   0.0000000000000000    0.0000000000000000    0.0000000000000000
   0.0000000000000000    0.0000000000000000    0.0000000000000000
   0.0000000000000000    0.0000000000000000    0.0000000000000000
   0.0000000000000000    0.0000000000000000    0.0000000000000000
   0.0000000000000000    0.0000000000000000    0.0000000000000000
   0.0000000000000000    0.0000000000000000    0.0000000000000000
   0.0000000000000000    0.0000000000000000    0.0000000000000000
   0.0000000000000000    0.0000000000000000    0.0000000000000000
   0.0000000000000000    0.0000000000000000    0.0000000000000000
   0.0000000000000000    0.0000000000000000    0.0000000000000000
   0.0000000000000000    0.0000000000000000    0.0000000000000000
   0.0000000000000000    0.0000000000000000    0.0000000000000000
   0.0000000000000000    0.0000000000000000    0.0000000000000000
   0.0000000000000000    0.0000000000000000    0.0000000000000000
   0.0000000000000000    0.0000000000000000    0.0000000000000000
   0.0000000000000000    0.0000000000000000    0.0000000000000000
   0.0000000000000000    0.0000000000000000    0.0000000000000000
   0.0000000000000000    0.0000000000000000    0.0000000000000000
   0.0000000000000000    0.0000000000000000    0.0000000000000000
   0.0000000000000000    0.0000000000000000    0.0000000000000000
   0.0000000000000000    0.0000000000000000    0.0000000000000000
   0.0000000000000000    0.0000000000000000    0.0000000000000000
   0.0000000000000000    0.0000000000000000    0.0000000000000000
   0.0000000000000000    0.0000000000000000    0.0000000000000000
   0.0000000000000000    0.0000000000000000    0.0000000000000000
   0.0000000000000000    0.0000000000000000    0.0000000000000000
   0.0000000000000000    0.0000000000000000    0.0000000000000000
   0.0000000000000000    0.0000000000000000    0.0000000000000000
   0.0000000000000000    0.0000000000000000    0.0000000000000000
   0.0000000000000000    0.0000000000000000    0.0000000000000000
   0.0000000000000000    0.0000000000000000    0.0000000000000000
   0.0000000000000000    0.0000000000000000    0.0000000000000000
   0.0000000000000000    0.0000000000000000    0.0000000000000000
   0.0000000000000000    0.0000000000000000    0.0000000000000000
   0.0000000000000000    0.0000000000000000    0.0000000000000000
   0.0000000000000000    0.0000000000000000    0.0000000000000000
   0.0000000000000000    0.0000000000000000    0.0000000000000000
   0.0000000000000000    0.0000000000000000    0.0000000000000000
   0.0000000000000000    0.0000000000000000    0.0000000000000000
   0.0000000000000000    0.0000000000000000    0.0000000000000000
   0.0000000000000000    0.0000000000000000    0.0000000000000000
   0.0000000000000000    0.0000000000000000    0.0000000000000000
   0.0000000000000000    0.0000000000000000    0.0000000000000000
   0.0000000000000000    0.0000000000000000    0.0000000000000000
   0.0000000000000000    0.0000000000000000    0.0000000000000000
   0.0000000000000000    0.0000000000000000    0.0000000000000000
   0.0000000000000000    0.0000000000000000    0.0000000000000000
   0.0000000000000000    0.0000000000000000    0.0000000000000000
   0.0000000000000000    0.0000000000000000    0.0000000000000000
   0.0000000000000000    0.0000000000000000    0.0000000000000000
   0.0000000000000000    0.0000000000000000    0.0000000000000000
   0.0000000000000000    0.0000000000000000    0.0000000000000000
   0.0000000000000000    0.0000000000000000    0.0000000000000000
   0.0000000000000000    0.0000000000000000    0.0000000000000000
   0.0000000000000000    0.0000000000000000    0.0000000000000000
   0.0000000000000000    0.0000000000000000    0.0000000000000000
   0.0000000000000000    0.0000000000000000    0.0000000000000000
   0.0000000000000000    0.0000000000000000    0.0000000000000000
   0.0000000000000000    0.0000000000000000    0.0000000000000000
   0.0000000000000000    0.0000000000000000    0.0000000000000000
   0.0000000000000000    0.0000000000000000    0.0000000000000000
   0.0000000000000000    0.0000000000000000    0.0000000000000000
   0.0000000000000000    0.0000000000000000    0.0000000000000000
   0.0000000000000000    0.0000000000000000    0.0000000000000000
   0.0000000000000000    0.0000000000000000    0.0000000000000000
   0.0000000000000000    0.0000000000000000    0.0000000000000000
   0.0000000000000000    0.0000000000000000    0.0000000000000000
   0.0000000000000000    0.0000000000000000    0.0000000000000000
   0.0000000000000000    0.0000000000000000    0.0000000000000000
   0.0000000000000000    0.0000000000000000    0.0000000000000000
   0.0000000000000000    0.0000000000000000    0.0000000000000000
   0.0000000000000000    0.0000000000000000    0.0000000000000000
   0.0000000000000000    0.0000000000000000    0.0000000000000000
   0.0000000000000000    0.0000000000000000    0.0000000000000000
   0.0000000000000000    0.0000000000000000    0.0000000000000000
   0.0000000000000000    0.0000000000000000    0.0000000000000000
   0.0000000000000000    0.0000000000000000    0.0000000000000000
   0.0000000000000000    0.0000000000000000    0.0000000000000000
   0.0000000000000000    0.0000000000000000    0.0000000000000000
   0.0000000000000000    0.0000000000000000    0.0000000000000000
   0.0000000000000000    0.0000000000000000    0.0000000000000000
   0.0000000000000000    0.0000000000000000    0.0000000000000000
   0.0000000000000000    0.0000000000000000    0.0000000000000000
   0.0000000000000000    0.0000000000000000    0.0000000000000000
   0.0000000000000000    0.0000000000000000    0.0000000000000000
   0.0000000000000000    0.0000000000000000    0.0000000000000000
   0.0000000000000000    0.0000000000000000    0.0000000000000000
   0.0000000000000000    0.0000000000000000    0.0000000000000000
   0.0000000000000000    0.0000000000000000    0.0000000000000000
   0.0000000000000000    0.0000000000000000    0.0000000000000000
   0.0000000000000000    0.0000000000000000    0.0000000000000000
   0.0000000000000000    0.0000000000000000    0.0000000000000000
   0.0000000000000000    0.0000000000000000    0.0000000000000000
   0.0000000000000000    0.0000000000000000    0.0000000000000000
   0.0000000000000000    0.0000000000000000    0.0000000000000000
   0.0000000000000000    0.0000000000000000    0.0000000000000000
   0.0000000000000000    0.0000000000000000    0.0000000000000000
   0.0000000000000000    0.0000000000000000    0.0000000000000000
   0.0000000000000000    0.0000000000000000    0.0000000000000000
   0.0000000000000000    0.0000000000000000    0.0000000000000000
   0.0000000000000000    0.0000000000000000    0.0000000000000000
   0.0000000000000000    0.0000000000000000    0.0000000000000000
   0.0000000000000000    0.0000000000000000    0.0000000000000000
   0.0000000000000000    0.0000000000000000    0.0000000000000000
   0.0000000000000000    0.0000000000000000    0.0000000000000000
   0.0000000000000000    0.0000000000000000    0.0000000000000000
   0.0000000000000000    0.0000000000000000    0.0000000000000000
   0.0000000000000000    0.0000000000000000    0.0000000000000000
   0.0000000000000000    0.0000000000000000    0.0000000000000000
   0.0000000000000000    0.0000000000000000    0.0000000000000000
   0.0000000000000000    0.0000000000000000    0.0000000000000000
   0.0000000000000000    0.0000000000000000    0.0000000000000000
   0.0000000000000000    0.0000000000000000    0.0000000000000000
   0.0000000000000000    0.0000000000000000    0.0000000000000000
   0.0000000000000000    0.0000000000000000    0.0000000000000000
   0.0000000000000000    0.0000000000000000    0.0000000000000000
   0.0000000000000000    0.0000000000000000    0.0000000000000000
   0.0000000000000000    0.0000000000000000    0.0000000000000000
   0.0000000000000000    0.0000000000000000    0.0000000000000000
   0.0000000000000000    0.0000000000000000    0.0000000000000000
   0.0000000000000000    0.0000000000000000    0.0000000000000000
   0.0000000000000000    0.0000000000000000    0.0000000000000000
   0.0000000000000000    0.0000000000000000    0.0000000000000000
   0.0000000000000000    0.0000000000000000    0.0000000000000000
   0.0000000000000000    0.0000000000000000    0.0000000000000000
   0.0000000000000000    0.0000000000000000    0.0000000000000000
   0.0000000000000000    0.0000000000000000    0.0000000000000000
   0.0000000000000000    0.0000000000000000    0.0000000000000000
   0.0000000000000000    0.0000000000000000    0.0000000000000000
   0.0000000000000000    0.0000000000000000    0.0000000000000000
   0.0000000000000000    0.0000000000000000    0.0000000000000000
   0.0000000000000000    0.0000000000000000    0.0000000000000000
   0.0000000000000000    0.0000000000000000    0.0000000000000000
   0.0000000000000000    0.0000000000000000    0.0000000000000000
   0.0000000000000000    0.0000000000000000    0.0000000000000000
   0.0000000000000000    0.0000000000000000    0.0000000000000000
   0.0000000000000000    0.0000000000000000    0.0000000000000000
   0.0000000000000000    0.0000000000000000    0.0000000000000000
   0.0000000000000000    0.0000000000000000    0.0000000000000000
   0.0000000000000000    0.0000000000000000    0.0000000000000000
   0.0000000000000000    0.0000000000000000    0.0000000000000000
   0.0000000000000000    0.0000000000000000    0.0000000000000000
   0.0000000000000000    0.0000000000000000    0.0000000000000000
   0.0000000000000000    0.0000000000000000    0.0000000000000000
   0.0000000000000000    0.0000000000000000    0.0000000000000000
   0.0000000000000000    0.0000000000000000    0.0000000000000000
   0.0000000000000000    0.0000000000000000    0.0000000000000000
   0.0000000000000000    0.0000000000000000    0.0000000000000000
   0.0000000000000000    0.0000000000000000    0.0000000000000000
   0.0000000000000000    0.0000000000000000    0.0000000000000000
   0.0000000000000000    0.0000000000000000    0.0000000000000000
   0.0000000000000000    0.0000000000000000    0.0000000000000000
   0.0000000000000000    0.0000000000000000    0.0000000000000000
   0.0000000000000000    0.0000000000000000    0.0000000000000000
   0.0000000000000000    0.0000000000000000    0.0000000000000000
   0.0000000000000000    0.0000000000000000    0.0000000000000000
   0.0000000000000000    0.0000000000000000    0.0000000000000000
   0.0000000000000000    0.0000000000000000    0.0000000000000000
   0.0000000000000000    0.0000000000000000    0.0000000000000000
   0.0000000000000000    0.0000000000000000    0.0000000000000000
   0.0000000000000000    0.0000000000000000    0.0000000000000000
   0.0000000000000000    0.0000000000000000    0.0000000000000000
   0.0000000000000000    0.0000000000000000    0.0000000000000000
   0.0000000000000000    0.0000000000000000    0.0000000000000000
   0.0000000000000000    0.0000000000000000    0.0000000000000000
   0.0000000000000000    0.0000000000000000    0.0000000000000000
   0.0000000000000000    0.0000000000000000    0.0000000000000000
   0.0000000000000000    0.0000000000000000    0.0000000000000000
   0.0000000000000000    0.0000000000000000    0.0000000000000000
   0.0000000000000000    0.0000000000000000    0.0000000000000000
   0.0000000000000000    0.0000000000000000    0.0000000000000000
   0.0000000000000000    0.0000000000000000    0.0000000000000000
   0.0000000000000000    0.0000000000000000    0.0000000000000000
   0.0000000000000000    0.0000000000000000    0.0000000000000000
   0.0000000000000000    0.0000000000000000    0.0000000000000000
   0.0000000000000000    0.0000000000000000    0.0000000000000000
   0.0000000000000000    0.0000000000000000    0.0000000000000000
   0.0000000000000000    0.0000000000000000    0.0000000000000000
   0.0000000000000000    0.0000000000000000    0.0000000000000000
