Ba20
1.0
   7.1352299556460430    0.0000000000000000   -5.0135737159227789
  -0.0000000000000004    7.1353879095656731   -5.0135737159227771
   0.0000000000000000    0.0000000000000000   50.1357371592277872
Ba
20
Selective dynamics
direct
   0.0000000000000000    0.2500000000000000    0.3001985002770758 T T T Ba
   0.0000000000000000    0.7500000000000000    0.2998014997229240 T T T Ba
   0.5000000000000000    0.2500000000000000    0.3001985002770758 T T T Ba
   0.5000000000000000    0.7500000000000000    0.2998014997229240 T T T Ba
   0.0000000000000000    0.2500000000000000    0.4001985002770759 F F F Ba
   0.0000000000000000    0.7500000000000000    0.3998014997229241 F F F Ba
   0.5000000000000000    0.2500000000000000    0.4001985002770759 F F F Ba
   0.5000000000000000    0.7500000000000000    0.3998014997229241 F F F Ba
   0.0000000000000000    0.2500000000000000    0.5001985002770759 F F F Ba
   0.0000000000000000    0.7500000000000000    0.4998014997229240 F F F Ba
   0.5000000000000000    0.2500000000000000    0.5001985002770759 F F F Ba
   0.5000000000000000    0.7500000000000000    0.4998014997229240 F F F Ba
   0.0000000000000000    0.2500000000000000    0.6001985002770758 F F F Ba
   0.0000000000000000    0.7500000000000000    0.5998014997229240 F F F Ba
   0.5000000000000000    0.2500000000000000    0.6001985002770758 F F F Ba
   0.5000000000000000    0.7500000000000000    0.5998014997229240 F F F Ba
   0.0000000000000000    0.2500000000000000    0.7001985002770759 T T T Ba
   0.0000000000000000    0.7500000000000000    0.6998014997229240 T T T Ba
   0.5000000000000000    0.2500000000000000    0.7001985002770759 T T T Ba
   0.5000000000000000    0.7500000000000000    0.6998014997229240 T T T Ba

   0.0000000000000000    0.0000000000000000    0.0000000000000000
   0.0000000000000000    0.0000000000000000    0.0000000000000000
   0.0000000000000000    0.0000000000000000    0.0000000000000000
   0.0000000000000000    0.0000000000000000    0.0000000000000000
   0.0000000000000000    0.0000000000000000    0.0000000000000000
   0.0000000000000000    0.0000000000000000    0.0000000000000000
   0.0000000000000000    0.0000000000000000    0.0000000000000000
   0.0000000000000000    0.0000000000000000    0.0000000000000000
   0.0000000000000000    0.0000000000000000    0.0000000000000000
   0.0000000000000000    0.0000000000000000    0.0000000000000000
   0.0000000000000000    0.0000000000000000    0.0000000000000000
   0.0000000000000000    0.0000000000000000    0.0000000000000000
   0.0000000000000000    0.0000000000000000    0.0000000000000000
   0.0000000000000000    0.0000000000000000    0.0000000000000000
   0.0000000000000000    0.0000000000000000    0.0000000000000000
   0.0000000000000000    0.0000000000000000    0.0000000000000000
   0.0000000000000000    0.0000000000000000    0.0000000000000000
   0.0000000000000000    0.0000000000000000    0.0000000000000000
   0.0000000000000000    0.0000000000000000    0.0000000000000000
   0.0000000000000000    0.0000000000000000    0.0000000000000000
