Rb32
1.0
   7.8992180575207414    0.0000000000000000    0.0000000000000005
  -0.0000000000000015   23.7355846896423124    7.7317865809431821
   0.0000000000000000    0.0000000000000000   38.8517464577906111
Rb
32
Selective dynamics
direct
   0.7456548881330747    0.5629228873116290    0.3623494948723804 T T T Rb
   0.2456548881330818    0.9370771126883781    0.4876505051276171 F F F Rb
   0.2379497591879199    0.6879230994321830    0.3372615302231127 T T T Rb
   0.7543451118669253    0.9370771126883781    0.3876505051276199 T T T Rb
   0.2620502408120799    0.8120769005678099    0.4127384697768920 F F F Rb
   0.7379497591879128    0.8120769005678099    0.3127384697768891 T T T Rb
   0.2543451118669182    0.5629228873116290    0.4623494948723776 F F F Rb
   0.7620502408120728    0.6879230994321830    0.4372615302231113 F F F Rb
   0.2456548881330818    0.0629228873116289    0.3623494948723804 T T T Rb
   0.7456548881330747    0.4370771126883709    0.4876505051276199 F F F Rb
   0.7379497591879128    0.1879230994321972    0.3372615302231070 T T T Rb
   0.2543451118669182    0.4370771126883710    0.3876505051276228 T T T Rb
   0.7620502408120728    0.3120769005678029    0.4127384697768948 F F F Rb
   0.2379497591879199    0.3120769005678028    0.3127384697768919 T T T Rb
   0.7543451118669253    0.0629228873116289    0.4623494948723776 F F F Rb
   0.2620502408120799    0.1879230994321972    0.4372615302231055 F F F Rb
   0.7456548881330747    0.5629228873116290    0.5623494948723804 F F F Rb
   0.2456548881330818    0.9370771126883781    0.6876505051276172 T T T Rb
   0.2379497591879199    0.6879230994321830    0.5372615302231127 F F F Rb
   0.7543451118669253    0.9370771126883781    0.5876505051276200 F F F Rb
   0.2620502408120799    0.8120769005678099    0.6127384697768921 T T T Rb
   0.7379497591879128    0.8120769005678099    0.5127384697768891 F F F Rb
   0.2543451118669182    0.5629228873116290    0.6623494948723776 T T T Rb
   0.7620502408120728    0.6879230994321830    0.6372615302231113 T T T Rb
   0.2456548881330818    0.0629228873116289    0.5623494948723804 F F F Rb
   0.7456548881330747    0.4370771126883709    0.6876505051276198 T T T Rb
   0.7379497591879128    0.1879230994321972    0.5372615302231070 F F F Rb
   0.2543451118669182    0.4370771126883710    0.5876505051276228 F F F Rb
   0.7620502408120728    0.3120769005678029    0.6127384697768947 T T T Rb
   0.2379497591879199    0.3120769005678028    0.5127384697768920 F F F Rb
   0.7543451118669253    0.0629228873116289    0.6623494948723776 T T T Rb
   0.2620502408120799    0.1879230994321972    0.6372615302231055 T T T Rb

   0.0000000000000000    0.0000000000000000    0.0000000000000000
   0.0000000000000000    0.0000000000000000    0.0000000000000000
   0.0000000000000000    0.0000000000000000    0.0000000000000000
   0.0000000000000000    0.0000000000000000    0.0000000000000000
   0.0000000000000000    0.0000000000000000    0.0000000000000000
   0.0000000000000000    0.0000000000000000    0.0000000000000000
   0.0000000000000000    0.0000000000000000    0.0000000000000000
   0.0000000000000000    0.0000000000000000    0.0000000000000000
   0.0000000000000000    0.0000000000000000    0.0000000000000000
   0.0000000000000000    0.0000000000000000    0.0000000000000000
   0.0000000000000000    0.0000000000000000    0.0000000000000000
   0.0000000000000000    0.0000000000000000    0.0000000000000000
   0.0000000000000000    0.0000000000000000    0.0000000000000000
   0.0000000000000000    0.0000000000000000    0.0000000000000000
   0.0000000000000000    0.0000000000000000    0.0000000000000000
   0.0000000000000000    0.0000000000000000    0.0000000000000000
   0.0000000000000000    0.0000000000000000    0.0000000000000000
   0.0000000000000000    0.0000000000000000    0.0000000000000000
   0.0000000000000000    0.0000000000000000    0.0000000000000000
   0.0000000000000000    0.0000000000000000    0.0000000000000000
   0.0000000000000000    0.0000000000000000    0.0000000000000000
   0.0000000000000000    0.0000000000000000    0.0000000000000000
   0.0000000000000000    0.0000000000000000    0.0000000000000000
   0.0000000000000000    0.0000000000000000    0.0000000000000000
   0.0000000000000000    0.0000000000000000    0.0000000000000000
   0.0000000000000000    0.0000000000000000    0.0000000000000000
   0.0000000000000000    0.0000000000000000    0.0000000000000000
   0.0000000000000000    0.0000000000000000    0.0000000000000000
   0.0000000000000000    0.0000000000000000    0.0000000000000000
   0.0000000000000000    0.0000000000000000    0.0000000000000000
   0.0000000000000000    0.0000000000000000    0.0000000000000000
   0.0000000000000000    0.0000000000000000    0.0000000000000000
